ITEM: TIMESTEP
0
ITEM: NUMBER OF ATOMS
14500
ITEM: BOX BOUNDS pp pp pp
3.1118220622791171e-01 5.8227943705462160e+01
3.1118220622791171e-01 5.8227943705462160e+01
3.1118220622791171e-01 5.8227943705462160e+01
ITEM: ATOMS id type c_voro[1] c_voro[2]
1 1       6.9828079926      10.0000000000
2 1       7.2550198058       7.0000000000
3 1       7.4363613239       8.0000000000
4 1       6.8131930929       8.0000000000
5 1       7.4369163096       7.0000000000
6 1       6.8336382718       8.0000000000
7 1       7.6343796985       8.0000000000
8 1       7.0238884836       8.0000000000
9 1       7.2702680158      12.0000000000
10 1       7.5409538839       8.0000000000
11 1       7.1571483321       8.0000000000
12 1       7.4827432168      10.0000000000
13 1       6.9924376479      11.0000000000
14 1       7.1731153633       8.0000000000
15 1       7.1369794715       9.0000000000
16 1       7.4142082397      10.0000000000
17 1       8.0985692423       9.0000000000
18 1       7.2757250659       9.0000000000
19 1       7.3489694743       8.0000000000
20 1       7.9152063752      10.0000000000
21 1       7.5152428431      10.0000000000
22 1       6.8493785839       8.0000000000
23 1       7.2570757327      11.0000000000
24 1       7.0052852327      10.0000000000
25 1       7.6362620930       7.0000000000
26 1       7.4931950335      10.0000000000
27 1       6.8951513044       8.0000000000
28 1       7.4917663528      10.0000000000
29 1       7.4640531747       9.0000000000
30 1       7.8834526301      12.0000000000
31 1       7.4701202253       8.0000000000
32 1       7.4517835983      10.0000000000
33 1       7.3606661786       8.0000000000
34 1       6.9983512207       9.0000000000
35 1       6.9176588434      10.0000000000
36 1       7.3060319972      10.0000000000
37 1       6.9771049364       7.0000000000
38 1       6.8774465730      13.0000000000
39 1       7.0573656757      10.0000000000
40 1       7.2714775787      10.0000000000
41 1       7.4518875481       9.0000000000
42 1       7.3637412684      10.0000000000
43 1       7.1219097897       8.0000000000
44 1       7.0966637987       7.0000000000
45 1       7.4758324732       7.0000000000
46 1       7.6288321467      10.0000000000
47 1       7.4360850032       9.0000000000
48 1       7.2919500771       8.0000000000
49 1       7.3197657381      10.0000000000
50 1       7.4864633545       8.0000000000
51 1       7.2309994020       7.0000000000
52 1       7.4792175159       7.0000000000
53 1       7.5297565367      12.0000000000
54 1       7.3854247424      12.0000000000
55 1       7.1572566432      10.0000000000
56 1       7.2058081441      10.0000000000
57 1       7.2052074818      10.0000000000
58 1       7.4396811515       9.0000000000
59 1       6.8162541877      10.0000000000
60 1       7.0161321409       8.0000000000
61 1       7.0656620135       8.0000000000
62 1       8.2709371671      10.0000000000
63 1       7.0392397139       8.0000000000
64 1       6.8220183826       8.0000000000
65 1       7.0445033604       8.0000000000
66 1       7.6602515030      12.0000000000
67 1       7.3342252111       9.0000000000
68 1       7.5402617218      11.0000000000
69 1       7.2720516596       8.0000000000
70 1       7.4055001576       7.0000000000
71 1       7.2547973636       9.0000000000
72 1       7.4277919888      13.0000000000
73 1       7.4722999004      10.0000000000
74 1       7.3902981356       9.0000000000
75 1       7.5306296962      10.0000000000
76 1       6.7433638048       9.0000000000
77 1       7.3923185228      10.0000000000
78 1       6.9528284328       9.0000000000
79 1       7.6579989825       7.0000000000
80 1       7.3332509540       9.0000000000
81 1       7.2578531270       9.0000000000
82 1       7.2716823385       7.0000000000
83 1       7.0446455759       9.0000000000
84 1       7.5309329458       9.0000000000
85 1       7.3976422507      10.0000000000
86 1       7.5676305215       9.0000000000
87 1       7.2658064376       9.0000000000
88 1       7.4910091018       9.0000000000
89 1       7.5007739707      10.0000000000
90 1       6.5317656756       8.0000000000
91 1       7.8239190792       7.0000000000
92 1       7.1096861608      10.0000000000
93 1       7.3633077943      10.0000000000
94 1       7.4088248362      10.0000000000
95 1       6.7565451274       8.0000000000
96 1       6.6581923189       8.0000000000
97 1       7.4348828235       8.0000000000
98 1       7.5960838697       9.0000000000
99 1       7.3487257285      10.0000000000
100 1       7.6620530898      10.0000000000
101 1       7.5609671265      11.0000000000
102 1       6.9148972258       8.0000000000
103 1       7.4001673095       9.0000000000
104 1       7.3431349958       9.0000000000
105 1       6.8590820439       8.0000000000
106 1       7.4306108054       9.0000000000
107 1       7.1426360624       9.0000000000
108 1       7.3090302406       8.0000000000
109 1       6.9186414708       6.0000000000
110 1       7.2202757876       8.0000000000
111 1       7.4745014107      12.0000000000
112 1       7.5042807616      10.0000000000
113 1       7.3116664050       7.0000000000
114 1       7.1474583329       7.0000000000
115 1       7.2124002996       9.0000000000
116 1       7.4608930070       9.0000000000
117 1       7.6294860724       9.0000000000
118 1       7.4919924416       9.0000000000
119 1       6.8290377255      10.0000000000
120 1       7.9114146926      11.0000000000
121 1       7.3709086932       8.0000000000
122 1       7.2221399408       8.0000000000
123 1       6.8113112275       8.0000000000
124 1       7.0729959896       9.0000000000
125 1       6.8405774553       9.0000000000
126 1       7.4576744173      10.0000000000
127 1       7.3765135879      13.0000000000
128 1       6.8200534291       9.0000000000
129 1       7.0642836570       9.0000000000
130 1       6.9419103348       9.0000000000
131 1       7.7245373422       9.0000000000
132 1       7.2229215340      10.0000000000
133 1       7.2275495453       7.0000000000
134 1       7.5271583709       8.0000000000
135 1       7.0077240492       8.0000000000
136 1       7.4451165886       9.0000000000
137 1       7.9845290769       9.0000000000
138 1       7.4004846221       9.0000000000
139 1       7.4615534704       8.0000000000
140 1       7.1590621112       8.0000000000
141 1       7.6148800163      11.0000000000
142 1       6.9992563481       8.0000000000
143 1       7.2351687991      12.0000000000
144 1       6.7231764526       9.0000000000
145 1       6.7486802208      10.0000000000
146 1       6.9471490776       7.0000000000
147 1       6.8650734603       8.0000000000
148 1       7.3161533318      12.0000000000
149 1       7.1109923919       7.0000000000
150 1       7.2529646607      10.0000000000
151 1       7.6819929588       8.0000000000
152 1       7.0627518542       9.0000000000
153 1       6.7722123052      10.0000000000
154 1       7.4997074737       9.0000000000
155 1       7.5286524756       9.0000000000
156 1       6.9451376640       9.0000000000
157 1       7.1112877837       9.0000000000
158 1       7.4672390347       9.0000000000
159 1       7.3020627793      11.0000000000
160 1       6.7140490908      10.0000000000
161 1       7.0947338524       9.0000000000
162 1       7.3365293599       8.0000000000
163 1       6.8763297343      11.0000000000
164 1       7.6163512968       8.0000000000
165 1       7.1831226080       9.0000000000
166 1       7.0226263293       8.0000000000
167 1       7.4899180129       8.0000000000
168 1       7.3425511930       7.0000000000
169 1       7.0574382975       7.0000000000
170 1       7.1822459066       9.0000000000
171 1       7.7418254895      11.0000000000
172 1       6.7153059106      11.0000000000
173 1       8.0239518028       8.0000000000
174 1       6.8990980191       9.0000000000
175 1       7.1148053295      10.0000000000
176 1       7.3052062137      10.0000000000
177 1       7.0495817349       9.0000000000
178 1       7.5130760264      11.0000000000
179 1       7.6450428705      11.0000000000
180 1       7.0778000010       9.0000000000
181 1       7.6044585585       9.0000000000
182 1       7.4936024700      10.0000000000
183 1       7.3825566564      10.0000000000
184 1       7.1498435593       8.0000000000
185 1       7.4924543650       8.0000000000
186 1       7.6239402613       7.0000000000
187 1       6.7730640208       8.0000000000
188 1       7.0380554447       9.0000000000
189 1       7.6215294674      11.0000000000
190 1       7.3055132837      10.0000000000
191 1       7.2000580193      10.0000000000
192 1       7.5061269299       9.0000000000
193 1       6.8831975549      10.0000000000
194 1       7.0923821804       8.0000000000
195 1       7.4850437372       9.0000000000
196 1       7.2762869710       8.0000000000
197 1       7.3878008683      10.0000000000
198 1       8.4041443880       9.0000000000
199 1       7.7604670121      10.0000000000
200 1       7.3735470318       9.0000000000
201 1       8.0651939123      11.0000000000
202 1       7.0741214391      10.0000000000
203 1       7.0815588113       8.0000000000
204 1       7.8681222659       9.0000000000
205 1       7.6088595062       9.0000000000
206 1       6.4594883288      11.0000000000
207 1       7.0650293041       8.0000000000
208 1       7.5724892238       9.0000000000
209 1       7.2528563385       9.0000000000
210 1       7.0573558389       9.0000000000
211 1       7.3593979547      10.0000000000
212 1       7.2005770402       8.0000000000
213 1       6.6256642889       9.0000000000
214 1       6.9621618155      10.0000000000
215 1       7.6543143268      12.0000000000
216 1       7.1761118332       7.0000000000
217 1       7.1146621375       9.0000000000
218 1       8.1409524913      11.0000000000
219 1       7.1496193972       8.0000000000
220 1       7.0605035161       8.0000000000
221 1       7.8346476147      10.0000000000
222 1       7.0294092067      11.0000000000
223 1       7.3837067287       9.0000000000
224 1       7.2854399648      11.0000000000
225 1       7.2757816617      12.0000000000
226 1       7.2039076241       7.0000000000
227 1       7.2010057937      12.0000000000
228 1       7.1546031155      12.0000000000
229 1       7.5775541727       8.0000000000
230 1       7.1050619254       7.0000000000
231 1       7.8564446300      11.0000000000
232 1       7.4271025166       8.0000000000
233 1       6.7913734383       9.0000000000
234 1       7.6016720586       9.0000000000
235 1       6.9856997224       7.0000000000
236 1       7.0376518719      10.0000000000
237 1       8.0058745878      12.0000000000
238 1       7.2777155983      11.0000000000
239 1       7.3438569342       9.0000000000
240 1       6.9059122627      10.0000000000
241 1       7.0771857952      10.0000000000
242 1       6.9355294388       7.0000000000
243 1       6.8004096391       8.0000000000
244 1       7.3129699842       9.0000000000
245 1       7.0335093947       8.0000000000
246 1       6.9708147142      10.0000000000
247 1       7.7487979108       7.0000000000
248 1       7.6283902803       9.0000000000
249 1       7.3084310704      10.0000000000
250 1       7.5272445532       9.0000000000
251 1       7.1461346271      11.0000000000
252 1       7.3574384456       9.0000000000
253 1       7.2280032145       7.0000000000
254 1       7.1998251761       9.0000000000
255 1       7.1116161812       8.0000000000
256 1       7.1869514276      11.0000000000
257 1       6.8400078879       9.0000000000
258 1       6.6271186523      10.0000000000
259 1       7.0273268058       9.0000000000
260 1       7.2865576915      12.0000000000
261 1       7.3974986155       9.0000000000
262 1       7.0545901181       9.0000000000
263 1       7.1173589614       9.0000000000
264 1       7.0704218824       8.0000000000
265 1       7.1951309759      13.0000000000
266 1       7.5282182416      11.0000000000
267 1       7.6007220815      10.0000000000
268 1       7.5999758873       8.0000000000
269 1       6.8706195302       8.0000000000
270 1       7.0396923565      10.0000000000
271 1       6.9301684144       8.0000000000
272 1       6.8038004590       8.0000000000
273 1       6.8761424378       9.0000000000
274 1       7.3563410569       8.0000000000
275 1       7.3477420131      10.0000000000
276 1       7.2571929900       9.0000000000
277 1       6.5288173273       7.0000000000
278 1       7.7012623553       9.0000000000
279 1       7.3087607297      10.0000000000
280 1       7.2694162103      12.0000000000
281 1       7.4258284886      10.0000000000
282 1       8.0894787252       7.0000000000
283 1       7.3764586107       9.0000000000
284 1       6.5121201366      12.0000000000
285 1       7.2116866888      10.0000000000
286 1       7.6426018417      11.0000000000
287 1       7.7359117083       8.0000000000
288 1       7.5824259962       9.0000000000
289 1       7.6113774125       9.0000000000
290 1       6.9488349353       8.0000000000
291 1       7.3011083911       7.0000000000
292 1       7.5874245895       8.0000000000
293 1       7.2757410716       9.0000000000
294 1       7.0777786340       8.0000000000
295 1       7.1011980155      10.0000000000
296 1       7.2137668532       8.0000000000
297 1       7.1454082519       8.0000000000
298 1       7.4532544635      10.0000000000
299 1       7.7884821861      11.0000000000
300 1       7.8308827372       8.0000000000
301 1       7.5062927855      10.0000000000
302 1       7.3656663335      12.0000000000
303 1       6.9805312751      11.0000000000
304 1       7.3850206007      10.0000000000
305 1       6.5865327654      10.0000000000
306 1       7.5024222592      10.0000000000
307 1       6.9448026682      10.0000000000
308 1       7.4048713830      10.0000000000
309 1       7.3685374092      10.0000000000
310 1       7.4004916246       9.0000000000
311 1       7.1919515317       9.0000000000
312 1       7.3630312030      12.0000000000
313 1       6.9293007799       8.0000000000
314 1       7.2828808335      10.0000000000
315 1       7.3273832545      10.0000000000
316 1       7.1923675122      12.0000000000
317 1       7.6542626004       9.0000000000
318 1       7.7287225961      10.0000000000
319 1       7.5394483813      10.0000000000
320 1       7.0052321226      10.0000000000
321 1       7.9754586776       8.0000000000
322 1       7.5103284143      11.0000000000
323 1       7.2039781999      12.0000000000
324 1       7.1501492489       9.0000000000
325 1       6.8096706525      10.0000000000
326 1       7.2878155120       8.0000000000
327 1       7.4841421085       9.0000000000
328 1       7.8491722831       9.0000000000
329 1       7.4321046281       9.0000000000
330 1       6.8132452644       9.0000000000
331 1       7.4271980912      10.0000000000
332 1       7.0806756964      10.0000000000
333 1       7.3903299957       9.0000000000
334 1       8.7677139750      10.0000000000
335 1       7.1241543901       9.0000000000
336 1       6.6634084245      10.0000000000
337 1       7.4921632063      10.0000000000
338 1       6.6104990085       8.0000000000
339 1       7.1627488702      10.0000000000
340 1       6.8266138231       9.0000000000
341 1       7.0935420027      11.0000000000
342 1       7.7024132686       9.0000000000
343 1       6.9199910102      10.0000000000
344 1       7.3058035838       8.0000000000
345 1       7.6310469246      10.0000000000
346 1       7.1012295058      11.0000000000
347 1       7.3538427100      10.0000000000
348 1       7.3105211677      12.0000000000
349 1       7.4930271628       7.0000000000
350 1       7.2494521231       9.0000000000
351 1       7.4342674505       9.0000000000
352 1       7.4120188949      11.0000000000
353 1       6.8802263707       9.0000000000
354 1       8.0188357610      10.0000000000
355 1       7.7655117116      11.0000000000
356 1       7.6890309917       8.0000000000
357 1       7.4917875731       8.0000000000
358 1       7.2464865619       6.0000000000
359 1       7.1101809463       7.0000000000
360 1       6.7667710610       9.0000000000
361 1       7.5788482748       9.0000000000
362 1       7.2748591731      12.0000000000
363 1       7.2959109307       8.0000000000
364 1       7.3587889584      13.0000000000
365 1       7.2556658174       9.0000000000
366 1       7.6326114466      12.0000000000
367 1       7.1849609430       8.0000000000
368 1       7.0904069235       8.0000000000
369 1       7.1140017935       9.0000000000
370 1       7.2366856137      10.0000000000
371 1       7.5604171580      12.0000000000
372 1       6.9063080439       8.0000000000
373 1       7.2527682075      10.0000000000
374 1       7.2957358107       8.0000000000
375 1       7.6277221210       9.0000000000
376 1       7.4248603406      10.0000000000
377 1       7.2384083015       9.0000000000
378 1       7.1970888306       9.0000000000
379 1       7.1192673772       8.0000000000
380 1       7.2834737600       9.0000000000
381 1       7.1224411390       9.0000000000
382 1       7.5711677494      13.0000000000
383 1       7.3331382461      10.0000000000
384 1       7.4191229538       9.0000000000
385 1       7.4612288750      10.0000000000
386 1       7.2260067598       7.0000000000
387 1       7.7626403612      11.0000000000
388 1       7.0474494303       8.0000000000
389 1       7.3375497460      10.0000000000
390 1       7.2854584870       8.0000000000
391 1       6.9841340196       9.0000000000
392 1       6.7918231871       8.0000000000
393 1       7.0619748936       7.0000000000
394 1       8.3826188450      11.0000000000
395 1       7.1305561725       9.0000000000
396 1       6.8656097092       6.0000000000
397 1       7.3113515636      10.0000000000
398 1       7.3601038437       8.0000000000
399 1       7.0803536441      10.0000000000
400 1       6.8262392704       9.0000000000
401 1       6.9426185748       9.0000000000
402 1       7.1354248386       8.0000000000
403 1       7.0888126270       8.0000000000
404 1       6.9160248581       9.0000000000
405 1       7.3479829344       9.0000000000
406 1       7.8591036143      10.0000000000
407 1       7.0746771493       8.0000000000
408 1       7.6333225834       8.0000000000
409 1       7.6104043449      10.0000000000
410 1       7.2019109904       9.0000000000
411 1       7.3786584870      12.0000000000
412 1       7.2036340702       9.0000000000
413 1       6.9918964880       9.0000000000
414 1       7.3415297270       9.0000000000
415 1       7.1930036990      10.0000000000
416 1       6.9221479173       6.0000000000
417 1       8.1649460022       8.0000000000
418 1       7.0539369799       8.0000000000
419 1       7.7404995903      11.0000000000
420 1       7.5129146819       9.0000000000
421 1       7.0768433643       8.0000000000
422 1       7.0485422712      10.0000000000
423 1       6.9701383075      10.0000000000
424 1       7.0513935233       7.0000000000
425 1       6.9148427100       9.0000000000
426 1       7.0418305878       9.0000000000
427 1       7.0995261661       9.0000000000
428 1       7.6008573056      10.0000000000
429 1       7.2760286294      12.0000000000
430 1       7.0822548651       7.0000000000
431 1       7.1478526464      10.0000000000
432 1       7.0340095182      11.0000000000
433 1       7.5661063734      11.0000000000
434 1       7.0842837396      11.0000000000
435 1       7.5208830462      10.0000000000
436 1       7.1848789805       9.0000000000
437 1       6.8322033305       8.0000000000
438 1       7.0021120002      10.0000000000
439 1       7.0442746343       9.0000000000
440 1       7.4068902466       8.0000000000
441 1       7.3592089651       8.0000000000
442 1       7.2193568094       9.0000000000
443 1       7.0668588777       9.0000000000
444 1       6.9821270570      10.0000000000
445 1       8.1799570142       9.0000000000
446 1       7.5793909474      11.0000000000
447 1       6.8141356323       9.0000000000
448 1       7.2396898706       9.0000000000
449 1       6.9585772075      10.0000000000
450 1       6.9435098118      10.0000000000
451 1       8.3104355619       9.0000000000
452 1       6.8050922596      10.0000000000
453 1       7.1169832024       8.0000000000
454 1       7.5198019784      10.0000000000
455 1       7.1289152990      10.0000000000
456 1       6.7288465613       9.0000000000
457 1       7.0006015074      10.0000000000
458 1       7.1847194986       9.0000000000
459 1       7.2443922600       8.0000000000
460 1       7.2399575868       8.0000000000
461 1       7.1386778141      10.0000000000
462 1       7.7789657291      11.0000000000
463 1       7.1597597983       8.0000000000
464 1       7.2041180499       9.0000000000
465 1       7.5576860883       8.0000000000
466 1       7.2265410510      11.0000000000
467 1       7.7763260213      10.0000000000
468 1       7.4000025690       9.0000000000
469 1       7.2679990822      10.0000000000
470 1       6.9230810611       9.0000000000
471 1       7.4262456775      10.0000000000
472 1       7.5175085711       8.0000000000
473 1       7.3536262856       8.0000000000
474 1       7.1129624160       7.0000000000
475 1       7.4491081615      11.0000000000
476 1       7.2742818422      10.0000000000
477 1       7.4270283083      10.0000000000
478 1       7.2477782793      11.0000000000
479 1       6.9134159178      10.0000000000
480 1       6.9224537713       8.0000000000
481 1       6.6503907757       9.0000000000
482 1       7.0696007699      10.0000000000
483 1       6.9843513277      10.0000000000
484 1       6.9851830773       7.0000000000
485 1       7.7258863584       9.0000000000
486 1       7.4772394309      11.0000000000
487 1       7.1364628812       9.0000000000
488 1       7.2852024568       8.0000000000
489 1       7.2093726788      11.0000000000
490 1       7.6348992231      10.0000000000
491 1       7.5040158329       9.0000000000
492 1       7.2474892303       8.0000000000
493 1       6.8357311192      10.0000000000
494 1       7.3506772939       8.0000000000
495 1       7.1163484478      10.0000000000
496 1       7.6998752852      12.0000000000
497 1       7.9944441621      12.0000000000
498 1       7.2432709292       8.0000000000
499 1       7.2873229542      10.0000000000
500 1       6.8685757456       7.0000000000
501 1       7.4385767419       9.0000000000
502 1       7.5479018365       9.0000000000
503 1       6.8542538679      10.0000000000
504 1       7.1743252769       8.0000000000
505 1       7.5269807137      10.0000000000
506 1       7.6450222205       9.0000000000
507 1       7.3731665470       7.0000000000
508 1       7.5905296223       9.0000000000
509 1       7.3272749647       7.0000000000
510 1       7.0366273808      12.0000000000
511 1       6.6733320535       8.0000000000
512 1       7.5910173392      10.0000000000
513 1       6.8812361422       8.0000000000
514 1       7.2980788548      10.0000000000
515 1       7.2908667069      10.0000000000
516 1       7.0292436232       9.0000000000
517 1       7.0826122483       7.0000000000
518 1       7.2529946233       8.0000000000
519 1       7.3248718994       8.0000000000
520 1       7.5753062657       9.0000000000
521 1       7.2153868131      10.0000000000
522 1       7.1729372180      10.0000000000
523 1       7.2907432257       8.0000000000
524 1       7.5838154945       9.0000000000
525 1       7.2956576627       9.0000000000
526 1       8.1016721748       8.0000000000
527 1       7.4613177066       9.0000000000
528 1       7.1716577822      10.0000000000
529 1       7.0576892355       9.0000000000
530 1       7.2480185721      11.0000000000
531 1       7.7795044027       9.0000000000
532 1       7.0166186488       9.0000000000
533 1       7.0692491180       7.0000000000
534 1       7.3406446866       9.0000000000
535 1       7.1008333290       6.0000000000
536 1       7.4396102135      11.0000000000
537 1       7.3652817980       9.0000000000
538 1       6.9617944821      10.0000000000
539 1       6.7474799369       8.0000000000
540 1       7.4667602427      10.0000000000
541 1       7.0143198014       8.0000000000
542 1       7.2678483792       7.0000000000
543 1       7.1489052479       8.0000000000
544 1       6.4298296774      11.0000000000
545 1       6.7139757091       8.0000000000
546 1       7.4852709003       8.0000000000
547 1       7.5065095992      11.0000000000
548 1       7.1329199801      12.0000000000
549 1       7.5063360367       9.0000000000
550 1       7.0935644879       7.0000000000
551 1       6.9342424375       8.0000000000
552 1       6.9153127003      10.0000000000
553 1       7.5761388277       9.0000000000
554 1       7.5954705046      11.0000000000
555 1       7.3373515427      10.0000000000
556 1       7.9368535526      10.0000000000
557 1       7.2100939745       9.0000000000
558 1       6.9447443774       6.0000000000
559 1       6.7838002426      11.0000000000
560 1       7.3190982031       9.0000000000
561 1       7.1879416223       9.0000000000
562 1       7.3966378263      10.0000000000
563 1       6.9964560750       8.0000000000
564 1       8.0595915996       8.0000000000
565 1       6.9644477665       9.0000000000
566 1       7.2930737919       9.0000000000
567 1       7.7606040759       8.0000000000
568 1       6.8886753184       7.0000000000
569 1       6.9017964286      13.0000000000
570 1       7.4328691485      10.0000000000
571 1       7.2480382740      10.0000000000
572 1       7.2352096453      10.0000000000
573 1       7.1462660047      10.0000000000
574 1       7.3550836200      14.0000000000
575 1       7.7489187845       9.0000000000
576 1       6.9409479105       7.0000000000
577 1       6.9947748770       9.0000000000
578 1       7.6287629021       9.0000000000
579 1       7.4349677628       9.0000000000
580 1       7.2139524458      12.0000000000
581 1       7.0156071087      10.0000000000
582 1       7.5527522728      10.0000000000
583 1       7.5772562897       8.0000000000
584 1       7.2125131779      10.0000000000
585 1       7.0596422384      11.0000000000
586 1       7.4514076420      10.0000000000
587 1       7.3987264701      10.0000000000
588 1       7.0504053968       9.0000000000
589 1       7.0997391548      10.0000000000
590 1       7.6155574574      11.0000000000
591 1       7.1365699848       8.0000000000
592 1       7.1455763064       7.0000000000
593 1       7.9365861727       9.0000000000
594 1       7.2763381509       9.0000000000
595 1       7.4322971162       8.0000000000
596 1       7.4281103258      10.0000000000
597 1       7.1103212763       8.0000000000
598 1       8.0791545249       8.0000000000
599 1       7.1208630605       7.0000000000
600 1       6.9225525094      10.0000000000
601 1       7.6077993986       8.0000000000
602 1       6.9532929187       9.0000000000
603 1       7.3863212043      10.0000000000
604 1       7.2575823931      10.0000000000
605 1       7.8247641147       8.0000000000
606 1       7.3407943207      11.0000000000
607 1       7.3143579858      10.0000000000
608 1       7.0396531835       9.0000000000
609 1       7.0327092349      12.0000000000
610 1       6.9758375197       9.0000000000
611 1       6.9305119865      11.0000000000
612 1       7.1786827875       8.0000000000
613 1       7.3600720097      11.0000000000
614 1       7.1826412563       8.0000000000
615 1       7.2965375598       8.0000000000
616 1       7.4225708786       8.0000000000
617 1       7.5853901302       7.0000000000
618 1       7.2189305395       9.0000000000
619 1       7.2132620993      13.0000000000
620 1       7.1813383035       9.0000000000
621 1       7.2464269387       9.0000000000
622 1       6.6823496549       9.0000000000
623 1       7.2279889396      10.0000000000
624 1       7.5342204596      10.0000000000
625 1       7.1070041605       9.0000000000
626 1       7.1294360351      10.0000000000
627 1       7.0883426317      10.0000000000
628 1       8.0933493767       7.0000000000
629 1       7.3510345100      11.0000000000
630 1       7.4261182094       8.0000000000
631 1       7.3926218360       6.0000000000
632 1       6.9962471586       8.0000000000
633 1       7.4245039508      11.0000000000
634 1       7.1745384854       9.0000000000
635 1       7.3969020541      10.0000000000
636 1       6.8492579275      10.0000000000
637 1       7.3054421014       9.0000000000
638 1       7.4692492420      11.0000000000
639 1       7.3353313026      10.0000000000
640 1       7.1410733436       9.0000000000
641 1       7.2643976381       7.0000000000
642 1       7.3839214962       9.0000000000
643 1       7.1113190481       8.0000000000
644 1       7.4264794298      11.0000000000
645 1       7.3863654451       8.0000000000
646 1       6.7762230078       9.0000000000
647 1       6.8326101423       9.0000000000
648 1       7.1309774549       9.0000000000
649 1       7.5957256238       9.0000000000
650 1       7.5617434738       9.0000000000
651 1       7.2179726044      12.0000000000
652 1       7.0453511490      10.0000000000
653 1       7.3855862757       9.0000000000
654 1       7.7093753608       9.0000000000
655 1       6.7975877235       7.0000000000
656 1       6.8366336724       8.0000000000
657 1       7.7531615163      10.0000000000
658 1       6.7916333558      10.0000000000
659 1       6.8622349607      10.0000000000
660 1       7.0351645025      10.0000000000
661 1       7.3015707963       9.0000000000
662 1       7.6174871800      10.0000000000
663 1       7.1624653411       7.0000000000
664 1       7.5334737575       7.0000000000
665 1       7.8368558212      12.0000000000
666 1       6.6356013891       8.0000000000
667 1       7.3103682014       8.0000000000
668 1       7.1207975200       8.0000000000
669 1       7.3996399480      11.0000000000
670 1       7.2605277103      11.0000000000
671 1       6.8483635816       8.0000000000
672 1       7.0577222513      10.0000000000
673 1       7.9223050615      10.0000000000
674 1       7.0965041552      11.0000000000
675 1       7.2258062035       9.0000000000
676 1       8.0509890660      10.0000000000
677 1       7.2096992070       9.0000000000
678 1       7.0824505284       9.0000000000
679 1       7.0214087821      11.0000000000
680 1       7.4698870884      11.0000000000
681 1       6.9560746550      10.0000000000
682 1       7.3555400198      11.0000000000
683 1       7.6161888389       9.0000000000
684 1       8.2755117093       8.0000000000
685 1       6.8825303642      11.0000000000
686 1       7.4550919139      10.0000000000
687 1       7.4152351017      11.0000000000
688 1       7.4170465043      11.0000000000
689 1       7.1544517134       7.0000000000
690 1       7.3156423234       8.0000000000
691 1       7.4608520448      10.0000000000
692 1       7.6679094942       8.0000000000
693 1       7.4897778823       9.0000000000
694 1       7.2128816104       9.0000000000
695 1       7.3833802850      10.0000000000
696 1       7.2465638435      11.0000000000
697 1       6.9428239572      10.0000000000
698 1       7.6304109070      12.0000000000
699 1       7.3261387310       9.0000000000
700 1       7.2378580995      10.0000000000
701 1       7.6097198697       8.0000000000
702 1       7.0823500131       9.0000000000
703 1       7.4284292001       9.0000000000
704 1       6.5490223883       9.0000000000
705 1       7.0529980253       9.0000000000
706 1       7.3427178432       8.0000000000
707 1       6.8815227240      10.0000000000
708 1       7.3470790465       8.0000000000
709 1       6.5129715077       8.0000000000
710 1       7.1519542935       8.0000000000
711 1       7.4891539316      10.0000000000
712 1       7.0951891896       9.0000000000
713 1       7.2746874780       8.0000000000
714 1       7.1893449101       8.0000000000
715 1       7.7035807000      11.0000000000
716 1       7.3194666265       8.0000000000
717 1       7.4757785342       9.0000000000
718 1       6.9030685016       7.0000000000
719 1       6.6728231414       7.0000000000
720 1       7.2010317437       9.0000000000
721 1       7.0535842489      10.0000000000
722 1       7.2965200943       9.0000000000
723 1       7.1325508548       8.0000000000
724 1       7.3918733198       8.0000000000
725 1       7.3658630341       9.0000000000
726 1       7.0527767450       9.0000000000
727 1       7.2235407566       9.0000000000
728 1       6.9885977214       9.0000000000
729 1       7.2073408747       9.0000000000
730 1       6.9872716080       9.0000000000
731 1       7.8289342313      11.0000000000
732 1       7.1964695084       9.0000000000
733 1       7.5938023784       7.0000000000
734 1       6.7072837370      12.0000000000
735 1       6.9172232254       8.0000000000
736 1       6.7134850637      10.0000000000
737 1       7.6540876992      10.0000000000
738 1       7.1731464060      11.0000000000
739 1       7.1881499150      10.0000000000
740 1       7.4795057875      12.0000000000
741 1       7.1151831948       9.0000000000
742 1       7.4011656093      11.0000000000
743 1       7.4172257033       9.0000000000
744 1       7.4208256496       9.0000000000
745 1       7.6497677155      11.0000000000
746 1       7.6996342491      10.0000000000
747 1       7.0455675189      10.0000000000
748 1       7.3125965084       8.0000000000
749 1       7.9065966094       9.0000000000
750 1       6.5629149046       8.0000000000
751 1       7.3265252726       8.0000000000
752 1       7.2027327327       9.0000000000
753 1       7.3222428396      10.0000000000
754 1       7.6323709489       9.0000000000
755 1       6.8887375060      10.0000000000
756 1       7.6558567084      10.0000000000
757 1       7.3249579980       8.0000000000
758 1       7.6788425447       9.0000000000
759 1       7.1206454226       8.0000000000
760 1       7.8637970108       9.0000000000
761 1       7.1680066308      11.0000000000
762 1       8.0236854740      14.0000000000
763 1       6.8410406806       8.0000000000
764 1       7.0354694924      10.0000000000
765 1       7.7787393280       9.0000000000
766 1       7.2953651740      10.0000000000
767 1       7.6211826472      11.0000000000
768 1       7.2751501620       8.0000000000
769 1       8.2417266175       9.0000000000
770 1       7.1483081954       9.0000000000
771 1       6.7269617069       8.0000000000
772 1       7.2335239623      10.0000000000
773 1       6.7541699138      10.0000000000
774 1       7.3547367484      11.0000000000
775 1       7.2929818032       9.0000000000
776 1       7.4022184753      10.0000000000
777 1       7.2694893503      10.0000000000
778 1       7.2959893257       8.0000000000
779 1       7.6857055770       9.0000000000
780 1       7.0373223502       9.0000000000
781 1       7.1587492768      10.0000000000
782 1       7.5257844831      10.0000000000
783 1       7.4919488693      10.0000000000
784 1       6.3517701621       8.0000000000
785 1       7.4758868015       9.0000000000
786 1       8.2248861608       9.0000000000
787 1       7.5700842323      10.0000000000
788 1       7.2324961537       8.0000000000
789 1       7.9123070796       9.0000000000
790 1       6.7169016533       9.0000000000
791 1       6.7568989867       8.0000000000
792 1       7.4070370238      11.0000000000
793 1       7.6979545894      10.0000000000
794 1       7.3069276511       8.0000000000
795 1       7.1965546072       8.0000000000
796 1       7.4009798365       8.0000000000
797 1       7.4687774836      12.0000000000
798 1       7.3717945625      10.0000000000
799 1       6.8506252838       6.0000000000
800 1       7.0628581045      10.0000000000
801 1       7.1068876597       7.0000000000
802 1       7.1881410237      10.0000000000
803 1       7.4636771479      10.0000000000
804 1       7.0713039392       8.0000000000
805 1       7.7330049968      10.0000000000
806 1       7.4067991765       9.0000000000
807 1       6.9054088972      11.0000000000
808 1       7.1459475050      10.0000000000
809 1       7.1904260759       8.0000000000
810 1       8.1534460583      12.0000000000
811 1       7.1191602045      10.0000000000
812 1       6.8145145747      10.0000000000
813 1       7.3628702211       8.0000000000
814 1       6.9753563803       9.0000000000
815 1       7.1214092746       9.0000000000
816 1       7.4594293224      11.0000000000
817 1       7.4889431993      11.0000000000
818 1       7.6864025972       9.0000000000
819 1       7.5770598260       8.0000000000
820 1       7.3085271342      10.0000000000
821 1       7.4725560533       8.0000000000
822 1       7.6481720593       8.0000000000
823 1       7.4484224313       9.0000000000
824 1       7.4239978611      10.0000000000
825 1       6.9785084255       7.0000000000
826 1       7.5384467068      10.0000000000
827 1       7.3109535576      10.0000000000
828 1       7.2882405319       8.0000000000
829 1       6.6058270779       9.0000000000
830 1       7.3643234932       8.0000000000
831 1       7.2086603829       8.0000000000
832 1       7.4304814853      11.0000000000
833 1       7.1735571850       7.0000000000
834 1       7.6512355523       9.0000000000
835 1       7.5449554210      12.0000000000
836 1       7.3310356482       9.0000000000
837 1       6.9703202508      12.0000000000
838 1       7.1416694673       9.0000000000
839 1       7.4558638416      11.0000000000
840 1       6.7640601763       9.0000000000
841 1       7.0564443122       9.0000000000
842 1       7.2714856701      11.0000000000
843 1       6.9570770800      11.0000000000
844 1       7.1645654078       6.0000000000
845 1       7.2426957009      11.0000000000
846 1       7.0442532287       8.0000000000
847 1       7.6754679141       9.0000000000
848 1       6.9841204639       7.0000000000
849 1       7.2070909175      10.0000000000
850 1       7.4988053982       9.0000000000
851 1       7.7607296317       8.0000000000
852 1       7.4147816059       8.0000000000
853 1       7.4113821600      10.0000000000
854 1       7.4805985710      10.0000000000
855 1       6.9977187707       9.0000000000
856 1       7.1417955597       8.0000000000
857 1       7.5047318351      11.0000000000
858 1       7.6278548412       8.0000000000
859 1       6.7667429420      10.0000000000
860 1       7.5241330079      10.0000000000
861 1       7.3944362794       9.0000000000
862 1       7.2032727729       9.0000000000
863 1       6.7354519636      11.0000000000
864 1       7.0943108384       9.0000000000
865 1       7.3155625730       9.0000000000
866 1       7.2616119324      13.0000000000
867 1       6.8996793375       9.0000000000
868 1       7.4823335013       8.0000000000
869 1       7.6495093571      11.0000000000
870 1       7.1744905414      10.0000000000
871 1       7.3473777487       9.0000000000
872 1       6.7900469812       8.0000000000
873 1       6.8680826284       8.0000000000
874 1       7.3638639704      10.0000000000
875 1       7.0600250858       8.0000000000
876 1       7.9941728456      12.0000000000
877 1       7.3314767678      11.0000000000
878 1       7.1518116127       8.0000000000
879 1       6.8729812277       9.0000000000
880 1       7.1432835711       8.0000000000
881 1       7.3207258864       8.0000000000
882 1       7.0348553409       9.0000000000
883 1       6.6923230372       9.0000000000
884 1       7.5175704930       8.0000000000
885 1       6.5688211918       7.0000000000
886 1       7.4122980066       9.0000000000
887 1       7.3803400152       8.0000000000
888 1       7.7737837431      11.0000000000
889 1       7.3900007071       7.0000000000
890 1       7.6823841260       6.0000000000
891 1       7.8513028600      10.0000000000
892 1       7.3195163442       9.0000000000
893 1       7.3733740998      11.0000000000
894 1       7.5514702343      11.0000000000
895 1       7.3111239532       8.0000000000
896 1       7.5071840857       6.0000000000
897 1       7.5712884320       8.0000000000
898 1       6.9825185276       9.0000000000
899 1       7.0970440296       9.0000000000
900 1       7.0972014346      10.0000000000
901 1       7.4566501396       8.0000000000
902 1       7.3139549098      10.0000000000
903 1       7.3946226163      10.0000000000
904 1       6.8974062157      11.0000000000
905 1       6.8865179123       9.0000000000
906 1       7.1469894167      10.0000000000
907 1       7.4685706182       9.0000000000
908 1       7.4207486353      11.0000000000
909 1       6.9547014420       7.0000000000
910 1       7.4961451187      10.0000000000
911 1       7.6626693473      10.0000000000
912 1       7.3111089603       8.0000000000
913 1       6.6645652625       9.0000000000
914 1       7.1504004928       9.0000000000
915 1       7.1738646029       9.0000000000
916 1       7.3343583359      10.0000000000
917 1       7.0687264571       7.0000000000
918 1       7.1406668135      10.0000000000
919 1       7.2954927378      13.0000000000
920 1       7.2119453779      11.0000000000
921 1       7.3379618969      10.0000000000
922 1       7.3288382721      10.0000000000
923 1       7.4612803438      10.0000000000
924 1       7.4024638157       9.0000000000
925 1       7.6750250726      10.0000000000
926 1       7.4500546416      12.0000000000
927 1       7.2013534773       8.0000000000
928 1       7.2775149292      10.0000000000
929 1       7.4997065300      12.0000000000
930 1       7.5861777008      10.0000000000
931 1       7.3776594917      10.0000000000
932 1       7.6687379445      12.0000000000
933 1       6.7860443628       9.0000000000
934 1       7.6491107076       9.0000000000
935 1       7.4205012345       8.0000000000
936 1       7.5440034996       7.0000000000
937 1       7.0112039763       9.0000000000
938 1       7.2801442004      10.0000000000
939 1       6.9787056372       9.0000000000
940 1       7.4357726174       9.0000000000
941 1       7.5792320415      10.0000000000
942 1       7.3063983174      10.0000000000
943 1       7.2617756429       7.0000000000
944 1       6.7884127112       8.0000000000
945 1       7.0894702635      11.0000000000
946 1       7.2941801016      10.0000000000
947 1       7.1211911638       7.0000000000
948 1       7.4518734457      10.0000000000
949 1       6.8904614397      10.0000000000
950 1       7.0623313953       8.0000000000
951 1       6.4871493021       8.0000000000
952 1       7.7286512512       7.0000000000
953 1       7.3380626007      13.0000000000
954 1       7.6808126973      10.0000000000
955 1       6.9543381877       9.0000000000
956 1       6.9414210334       9.0000000000
957 1       6.8256918621      11.0000000000
958 1       7.6745140060       9.0000000000
959 1       6.9996369012      11.0000000000
960 1       7.3309371284       8.0000000000
961 1       7.7787834616       8.0000000000
962 1       7.7717491226      12.0000000000
963 1       6.8339016452       9.0000000000
964 1       6.9975615271       8.0000000000
965 1       7.0735223704       8.0000000000
966 1       6.9596759287       8.0000000000
967 1       7.4631341831      11.0000000000
968 1       7.2880987854      10.0000000000
969 1       7.3809934079      10.0000000000
970 1       7.3257077714       7.0000000000
971 1       7.1441963454       8.0000000000
972 1       7.6784519851       8.0000000000
973 1       7.6109915774      10.0000000000
974 1       7.4355454545      11.0000000000
975 1       7.5272707209       9.0000000000
976 1       7.5238712392      10.0000000000
977 1       7.2718920344      10.0000000000
978 1       7.4013368527       8.0000000000
979 1       7.1733565676       9.0000000000
980 1       6.9695920611       9.0000000000
981 1       6.8942717744       8.0000000000
982 1       7.2130444324       7.0000000000
983 1       7.2105391887      10.0000000000
984 1       7.2484915374      11.0000000000
985 1       6.6056407573       7.0000000000
986 1       7.4493359219       8.0000000000
987 1       6.4861575615       7.0000000000
988 1       7.0974034736       9.0000000000
989 1       7.5675882153      12.0000000000
990 1       7.4136480635       9.0000000000
991 1       7.3846596374       9.0000000000
992 1       7.3760544658      11.0000000000
993 1       7.4057522707      10.0000000000
994 1       7.4887207524      12.0000000000
995 1       6.9761446146       8.0000000000
996 1       6.9230748459       8.0000000000
997 1       6.5964438009      10.0000000000
998 1       7.4890774477       8.0000000000
999 1       7.1766842862      10.0000000000
1000 1       7.7023705712       9.0000000000
1001 1       7.7417347021      11.0000000000
1002 1       7.2137842131       9.0000000000
1003 1       7.8629131749       8.0000000000
1004 1       7.4667162468      10.0000000000
1005 1       7.4652693251       8.0000000000
1006 1       7.9380905583      10.0000000000
1007 1       7.3994856891       9.0000000000
1008 1       7.7000416843      10.0000000000
1009 1       6.9962370892      10.0000000000
1010 1       7.2248465439       8.0000000000
1011 1       7.1029201481       8.0000000000
1012 1       7.4864357644       9.0000000000
1013 1       7.5728359527      10.0000000000
1014 1       7.8972363966       9.0000000000
1015 1       7.3858101026       8.0000000000
1016 1       8.0953880167       9.0000000000
1017 1       7.1937088508       8.0000000000
1018 1       7.2978601151       9.0000000000
1019 1       7.1266595098      11.0000000000
1020 1       7.7534023066       9.0000000000
1021 1       7.8939148939       9.0000000000
1022 1       7.3268681667      10.0000000000
1023 1       7.7420253529       9.0000000000
1024 1       7.1551078613       9.0000000000
1025 1       7.2530644590       7.0000000000
1026 1       7.9278609265       7.0000000000
1027 1       7.1903931260       9.0000000000
1028 1       7.2200382415       9.0000000000
1029 1       7.1691880801      11.0000000000
1030 1       7.1747628563       9.0000000000
1031 1       7.5119431638       9.0000000000
1032 1       7.5111549730       8.0000000000
1033 1       7.2865256705      10.0000000000
1034 1       7.5947737794      10.0000000000
1035 1       6.9652818322       7.0000000000
1036 1       7.4211118162      12.0000000000
1037 1       7.3150590761       9.0000000000
1038 1       7.6003391672       9.0000000000
1039 1       7.7734829604      10.0000000000
1040 1       6.9210320033       9.0000000000
1041 1       7.2916536668       9.0000000000
1042 1       7.1985325601       9.0000000000
1043 1       7.3906867235       8.0000000000
1044 1       7.6962774102      11.0000000000
1045 1       7.6610291218      11.0000000000
1046 1       8.1259917178       9.0000000000
1047 1       7.4436758919       8.0000000000
1048 1       7.6424804736       9.0000000000
1049 1       7.2962752446       8.0000000000
1050 1       6.9986631684       7.0000000000
1051 1       7.0394156254       8.0000000000
1052 1       7.6341096437       8.0000000000
1053 1       6.7413450444      10.0000000000
1054 1       7.6563151306       8.0000000000
1055 1       7.2582531502       8.0000000000
1056 1       7.4994226111      10.0000000000
1057 1       6.8504105796       8.0000000000
1058 1       7.7624494542      13.0000000000
1059 1       8.0894061604      10.0000000000
1060 1       7.3100111879      12.0000000000
1061 1       7.2153339105      10.0000000000
1062 1       7.3187154958      10.0000000000
1063 1       7.1033744919       8.0000000000
1064 1       6.9995995523       8.0000000000
1065 1       6.9196099659       9.0000000000
1066 1       6.6911585352       8.0000000000
1067 1       7.2175230414       8.0000000000
1068 1       7.3731108928      10.0000000000
1069 1       8.2417923116       9.0000000000
1070 1       7.5376390765      10.0000000000
1071 1       7.0983926888       8.0000000000
1072 1       7.4902354882      10.0000000000
1073 1       6.7801147015       9.0000000000
1074 1       7.6734374408       8.0000000000
1075 1       7.4034203690       9.0000000000
1076 1       7.3872039273      12.0000000000
1077 1       7.0017364433       9.0000000000
1078 1       7.4901955191       9.0000000000
1079 1       7.2551151452      10.0000000000
1080 1       7.5335628382       8.0000000000
1081 1       7.5597603120       8.0000000000
1082 1       7.8450603518       9.0000000000
1083 1       7.9258419657      11.0000000000
1084 1       7.6174633070       7.0000000000
1085 1       7.3604959889      11.0000000000
1086 1       7.2668097015       8.0000000000
1087 1       7.1391143133       9.0000000000
1088 1       7.2226426592       9.0000000000
1089 1       7.5717114031      13.0000000000
1090 1       7.0990558315       9.0000000000
1091 1       7.5953962279       8.0000000000
1092 1       7.0834295749       8.0000000000
1093 1       6.6288609830      10.0000000000
1094 1       7.0975681406       9.0000000000
1095 1       7.8116417904      10.0000000000
1096 1       7.3645583102      10.0000000000
1097 1       7.1954503151       8.0000000000
1098 1       6.7519476493       8.0000000000
1099 1       7.2107574679      11.0000000000
1100 1       7.3524616990      10.0000000000
1101 1       6.6675192059       9.0000000000
1102 1       7.0742664136       8.0000000000
1103 1       7.1457392125       8.0000000000
1104 1       7.0867536125       9.0000000000
1105 1       7.2261004229       7.0000000000
1106 1       7.1992460723       8.0000000000
1107 1       7.1533383320       9.0000000000
1108 1       6.8547272759       7.0000000000
1109 1       7.0455590744       9.0000000000
1110 1       7.0790443323       9.0000000000
1111 1       7.3897874206       9.0000000000
1112 1       7.3382340269       9.0000000000
1113 1       7.3831862900       9.0000000000
1114 1       7.4988974235       8.0000000000
1115 1       6.9760575134       9.0000000000
1116 1       6.9924218194       8.0000000000
1117 1       7.7949997505       8.0000000000
1118 1       7.1103820110      11.0000000000
1119 1       7.4456755171      11.0000000000
1120 1       7.0381562404      10.0000000000
1121 1       7.3495359648       9.0000000000
1122 1       7.1946156160      11.0000000000
1123 1       7.1110251020       8.0000000000
1124 1       7.7944830205       9.0000000000
1125 1       6.3375859812       9.0000000000
1126 1       7.0325910238       7.0000000000
1127 1       7.1287879338       9.0000000000
1128 1       7.3049375018      11.0000000000
1129 1       7.2665720416       9.0000000000
1130 1       7.1019573874       9.0000000000
1131 1       6.5934340409       8.0000000000
1132 1       7.7909949153       9.0000000000
1133 1       7.4479770707      13.0000000000
1134 1       7.3022254873       8.0000000000
1135 1       6.9618723891       8.0000000000
1136 1       7.4518668890      12.0000000000
1137 1       7.2879074204       8.0000000000
1138 1       7.1484427122       8.0000000000
1139 1       7.6260313151      11.0000000000
1140 1       7.2478288337      10.0000000000
1141 1       6.9576316062      10.0000000000
1142 1       7.5972170601       7.0000000000
1143 1       6.7904192643       8.0000000000
1144 1       7.7668875775      10.0000000000
1145 1       7.0166679114      10.0000000000
1146 1       7.1000589151      11.0000000000
1147 1       7.6070735961       7.0000000000
1148 1       6.9618928656       8.0000000000
1149 1       7.2481801940       9.0000000000
1150 1       6.6226439591      10.0000000000
1151 1       7.7472547505      10.0000000000
1152 1       7.0984186457      10.0000000000
1153 1       6.8311533673      11.0000000000
1154 1       7.1327541483      11.0000000000
1155 1       7.1622171490       9.0000000000
1156 1       7.5588477633       8.0000000000
1157 1       8.1745143077       9.0000000000
1158 1       6.8214487422       9.0000000000
1159 1       6.9891021502      11.0000000000
1160 1       7.3932681883      11.0000000000
1161 1       7.1619161427       7.0000000000
1162 1       7.7661464471       8.0000000000
1163 1       7.6089137910      11.0000000000
1164 1       7.5044552497       9.0000000000
1165 1       7.1216919461       8.0000000000
1166 1       8.1987240193      10.0000000000
1167 1       7.7312189723      11.0000000000
1168 1       7.5216186957       9.0000000000
1169 1       7.4907077529       8.0000000000
1170 1       7.0609709551       9.0000000000
1171 1       6.9011731300       9.0000000000
1172 1       7.3411061831       8.0000000000
1173 1       7.6455199816      11.0000000000
1174 1       7.0908507011       7.0000000000
1175 1       7.6352021788      10.0000000000
1176 1       7.6640017996      12.0000000000
1177 1       7.3451077285       9.0000000000
1178 1       6.7769291519       9.0000000000
1179 1       6.7776606603       8.0000000000
1180 1       7.3459924384      11.0000000000
1181 1       7.7782608087      11.0000000000
1182 1       7.3857436368       8.0000000000
1183 1       7.2669623232       8.0000000000
1184 1       7.6236203738       9.0000000000
1185 1       7.3056368407      10.0000000000
1186 1       7.3921700544       7.0000000000
1187 1       7.2295048606      12.0000000000
1188 1       7.6547961158       7.0000000000
1189 1       7.4061584314       8.0000000000
1190 1       6.8230554453       9.0000000000
1191 1       7.2873521726       7.0000000000
1192 1       7.3400442504      10.0000000000
1193 1       7.5868333080       9.0000000000
1194 1       7.2075139997      10.0000000000
1195 1       7.0476798930       8.0000000000
1196 1       7.5824662258       9.0000000000
1197 1       7.5529185516       8.0000000000
1198 1       7.1076620864       7.0000000000
1199 1       7.3516280207       9.0000000000
1200 1       7.7156743750      11.0000000000
1201 1       7.5703508380       9.0000000000
1202 1       7.5322582775       8.0000000000
1203 1       6.9419608353       9.0000000000
1204 1       7.7646931461       8.0000000000
1205 1       7.1576036097       8.0000000000
1206 1       7.7661227977      12.0000000000
1207 1       7.5907951201      11.0000000000
1208 1       6.9167275133       8.0000000000
1209 1       7.2474685177      11.0000000000
1210 1       6.9278212227       8.0000000000
1211 1       7.5648182275       9.0000000000
1212 1       7.0130946721       9.0000000000
1213 1       7.2039847187      10.0000000000
1214 1       7.0468011999      10.0000000000
1215 1       7.0577782389      11.0000000000
1216 1       7.2458987725      11.0000000000
1217 1       7.1241580693       6.0000000000
1218 1       8.6242630054      10.0000000000
1219 1       7.5117575657       9.0000000000
1220 1       7.1623384877       9.0000000000
1221 1       7.0604780334       9.0000000000
1222 1       6.9046337189       9.0000000000
1223 1       7.1695153220      10.0000000000
1224 1       7.1015184353      10.0000000000
1225 1       8.1659241713      10.0000000000
1226 1       7.5502545829       9.0000000000
1227 1       7.1786416783      10.0000000000
1228 1       6.9321679888       7.0000000000
1229 1       7.6882962633       9.0000000000
1230 1       7.4614722174       9.0000000000
1231 1       7.2516143649      10.0000000000
1232 1       6.7322558932       8.0000000000
1233 1       7.5613345034       8.0000000000
1234 1       7.2112856088      11.0000000000
1235 1       7.2602190882      10.0000000000
1236 1       6.8172169042      10.0000000000
1237 1       7.1247889083       7.0000000000
1238 1       7.9484474308       9.0000000000
1239 1       7.1673914618       9.0000000000
1240 1       7.2360407282       8.0000000000
1241 1       7.1846205017       8.0000000000
1242 1       7.6315554314      11.0000000000
1243 1       7.7486669004       9.0000000000
1244 1       7.2285517354       7.0000000000
1245 1       7.7055863695      11.0000000000
1246 1       7.0959148246      10.0000000000
1247 1       7.4847212245      11.0000000000
1248 1       7.6664691144      10.0000000000
1249 1       7.1882153284       8.0000000000
1250 1       7.3819497428       9.0000000000
1251 1       7.2882594380       7.0000000000
1252 1       6.9964687444       9.0000000000
1253 1       7.3569254708      11.0000000000
1254 1       7.1898410656       7.0000000000
1255 1       6.7924150615       8.0000000000
1256 1       7.4669018796       8.0000000000
1257 1       7.2428788200       9.0000000000
1258 1       6.8111027975       7.0000000000
1259 1       7.9799419622      11.0000000000
1260 1       7.4673361453      12.0000000000
1261 1       6.8847186038       9.0000000000
1262 1       7.2531624467      11.0000000000
1263 1       6.6760009481      10.0000000000
1264 1       6.4824010598       8.0000000000
1265 1       7.1065398589       9.0000000000
1266 1       6.8127720475       9.0000000000
1267 1       7.2043484371       9.0000000000
1268 1       7.4091968588      10.0000000000
1269 1       6.9340494255       8.0000000000
1270 1       7.3389170648       8.0000000000
1271 1       7.4040495674      11.0000000000
1272 1       8.0490049254       9.0000000000
1273 1       8.0030668158      11.0000000000
1274 1       7.6642121020       8.0000000000
1275 1       7.8889271060      10.0000000000
1276 1       6.9365032598       9.0000000000
1277 1       7.4547056363      13.0000000000
1278 1       7.1598557487       9.0000000000
1279 1       7.5111083667      11.0000000000
1280 1       6.9074745430      10.0000000000
1281 1       7.4630382311       9.0000000000
1282 1       7.8325529649       9.0000000000
1283 1       7.1150026908      10.0000000000
1284 1       7.7789334792       8.0000000000
1285 1       7.1459849009       9.0000000000
1286 1       6.9962434293      10.0000000000
1287 1       6.9070205375       8.0000000000
1288 1       7.2045575982      12.0000000000
1289 1       7.1735509382      10.0000000000
1290 1       7.4539536400       9.0000000000
1291 1       7.8156361314       7.0000000000
1292 1       7.3553099647      10.0000000000
1293 1       6.7136029156       8.0000000000
1294 1       7.0011250705      10.0000000000
1295 1       7.0768932645      11.0000000000
1296 1       6.8543764445       8.0000000000
1297 1       7.3308408677       8.0000000000
1298 1       6.8897628293       9.0000000000
1299 1       7.1551575241      10.0000000000
1300 1       7.3094585893      10.0000000000
1301 1       7.4844507234       9.0000000000
1302 1       7.7339814430       9.0000000000
1303 1       7.7867626666      11.0000000000
1304 1       7.2829070022      10.0000000000
1305 1       7.6566318637      12.0000000000
1306 1       7.3983517649       8.0000000000
1307 1       6.9027033323      10.0000000000
1308 1       7.6865554094      10.0000000000
1309 1       7.0573695276      10.0000000000
1310 1       7.0361570440       7.0000000000
1311 1       7.3457219616      14.0000000000
1312 1       7.2084626053       9.0000000000
1313 1       7.6657276720       8.0000000000
1314 1       7.5993118422       7.0000000000
1315 1       6.9761604102      10.0000000000
1316 1       7.0812131773      12.0000000000
1317 1       7.3337495418       8.0000000000
1318 1       7.3173582313       9.0000000000
1319 1       8.0150972721      12.0000000000
1320 1       6.7765141776       9.0000000000
1321 1       6.9513077938       9.0000000000
1322 1       6.7608108547       9.0000000000
1323 1       7.4506199970      12.0000000000
1324 1       7.0266857878      10.0000000000
1325 1       7.5539730443       8.0000000000
1326 1       7.8130811184      10.0000000000
1327 1       7.7793616513       9.0000000000
1328 1       7.1958481905       8.0000000000
1329 1       7.3073914170      10.0000000000
1330 1       7.9587334219      10.0000000000
1331 1       7.0298673628       9.0000000000
1332 1       7.7451901493      10.0000000000
1333 1       7.5375682627       9.0000000000
1334 1       7.0261877813       8.0000000000
1335 1       7.0295214523      11.0000000000
1336 1       7.1238958454       9.0000000000
1337 1       7.0327705637       7.0000000000
1338 1       7.0876255193       9.0000000000
1339 1       7.8659776843       9.0000000000
1340 1       6.9193718422      11.0000000000
1341 1       6.9713723564       9.0000000000
1342 1       8.2350277056      13.0000000000
1343 1       7.2867059387       9.0000000000
1344 1       7.1435517427      11.0000000000
1345 1       7.8540609608       9.0000000000
1346 1       7.0314239998      11.0000000000
1347 1       7.6839926355       8.0000000000
1348 1       7.4998500913      11.0000000000
1349 1       7.4991439949       9.0000000000
1350 1       7.3469180472       9.0000000000
1351 1       6.9595091873       9.0000000000
1352 1       6.7717217791      10.0000000000
1353 1       7.4060245091       9.0000000000
1354 1       7.3967365645      10.0000000000
1355 1       6.7715449379       9.0000000000
1356 1       7.4096541218       9.0000000000
1357 1       7.3448120152       9.0000000000
1358 1       7.5297628949       9.0000000000
1359 1       7.4136628951      10.0000000000
1360 1       7.2377230427       7.0000000000
1361 1       7.2642706278      10.0000000000
1362 1       7.1843614832      10.0000000000
1363 1       7.2478533343       9.0000000000
1364 1       7.7436159742       9.0000000000
1365 1       7.1724048173       8.0000000000
1366 1       7.5604265095       7.0000000000
1367 1       7.5854222589       7.0000000000
1368 1       7.4689765963       9.0000000000
1369 1       7.5291122838      11.0000000000
1370 1       7.1981630480       7.0000000000
1371 1       7.1597844800      11.0000000000
1372 1       7.2562575146       8.0000000000
1373 1       7.5400250302      11.0000000000
1374 1       7.0355696757       7.0000000000
1375 1       7.7250062786      12.0000000000
1376 1       7.4806252550       8.0000000000
1377 1       7.0352703555      10.0000000000
1378 1       7.0939783659       8.0000000000
1379 1       7.2221091028       9.0000000000
1380 1       7.0845307392      10.0000000000
1381 1       7.3695987784       9.0000000000
1382 1       7.3022080476       9.0000000000
1383 1       7.2503601585       8.0000000000
1384 1       7.4594537829       9.0000000000
1385 1       7.2016841179       9.0000000000
1386 1       7.0319001830       7.0000000000
1387 1       7.3812511539      10.0000000000
1388 1       7.3826830228       9.0000000000
1389 1       8.0114776058       8.0000000000
1390 1       7.3654901037      13.0000000000
1391 1       7.5205774504      10.0000000000
1392 1       8.6226258064      12.0000000000
1393 1       6.8414158546       8.0000000000
1394 1       8.1338655820      10.0000000000
1395 1       7.0980225840      10.0000000000
1396 1       7.1384024419       8.0000000000
1397 1       6.7728697443       9.0000000000
1398 1       7.9321518303      11.0000000000
1399 1       7.0980085636      10.0000000000
1400 1       6.9120744168      10.0000000000
1401 1       7.2203812217       7.0000000000
1402 1       6.9603840736      10.0000000000
1403 1       7.2876187096      10.0000000000
1404 1       7.3731167710      12.0000000000
1405 1       8.0971243664      13.0000000000
1406 1       6.9680962346       8.0000000000
1407 1       7.2973730321      10.0000000000
1408 1       6.9828212854      10.0000000000
1409 1       6.7302146583       9.0000000000
1410 1       7.0536097027       9.0000000000
1411 1       7.4626291457       8.0000000000
1412 1       7.8156746291      11.0000000000
1413 1       7.2669864118      11.0000000000
1414 1       7.0950951588       9.0000000000
1415 1       7.2979225804       8.0000000000
1416 1       7.7686423649       8.0000000000
1417 1       7.0303065784       9.0000000000
1418 1       7.2073775425       7.0000000000
1419 1       7.5401292106      10.0000000000
1420 1       8.0831947739      12.0000000000
1421 1       7.3330704987       9.0000000000
1422 1       7.0177792035       8.0000000000
1423 1       7.3521581451       9.0000000000
1424 1       7.4664481368       9.0000000000
1425 1       6.8600917322       9.0000000000
1426 1       7.5592357899       8.0000000000
1427 1       7.1138343796      11.0000000000
1428 1       7.7420642985      10.0000000000
1429 1       6.8347665244       8.0000000000
1430 1       7.1715940483      10.0000000000
1431 1       7.9931455252       8.0000000000
1432 1       7.0369717785       9.0000000000
1433 1       7.2687746215      10.0000000000
1434 1       7.1672895173       7.0000000000
1435 1       7.4858472132       8.0000000000
1436 1       7.2946996449      10.0000000000
1437 1       7.3144159184       7.0000000000
1438 1       7.3034476732      11.0000000000
1439 1       7.4579725816      10.0000000000
1440 1       7.4689257610      10.0000000000
1441 1       7.7765787025      11.0000000000
1442 1       7.8899027321      11.0000000000
1443 1       7.0033152252       7.0000000000
1444 1       7.4480940301       8.0000000000
1445 1       7.5118649240       9.0000000000
1446 1       7.3103420517       9.0000000000
1447 1       7.5343984865      11.0000000000
1448 1       7.3207502198      10.0000000000
1449 1       7.6050714407      10.0000000000
1450 1       7.6873429281       7.0000000000
1451 1       7.1430272323       9.0000000000
1452 1       7.3097819140       8.0000000000
1453 1       7.6704239398       8.0000000000
1454 1       7.1533164233      11.0000000000
1455 1       7.4731063586       8.0000000000
1456 1       7.2929669851       9.0000000000
1457 1       7.2243356794       8.0000000000
1458 1       6.9504727223       8.0000000000
1459 1       7.5335904503       9.0000000000
1460 1       7.2030804760       9.0000000000
1461 1       7.6456795181      11.0000000000
1462 1       7.4815467839       8.0000000000
1463 1       7.2119269050      10.0000000000
1464 1       7.1785229423      10.0000000000
1465 1       7.6240694162      11.0000000000
1466 1       7.1891649408      10.0000000000
1467 1       7.1914965925       9.0000000000
1468 1       7.6395914841      10.0000000000
1469 1       8.0841170715      11.0000000000
1470 1       7.7103280867       8.0000000000
1471 1       7.6416610195      12.0000000000
1472 1       7.6463596140       9.0000000000
1473 1       7.2585753819       9.0000000000
1474 1       7.3460963722       7.0000000000
1475 1       7.0952185319       8.0000000000
1476 1       7.4607614577       8.0000000000
1477 1       7.6236295955      12.0000000000
1478 1       7.2686691329       9.0000000000
1479 1       6.9533615311      10.0000000000
1480 1       6.9766928910      10.0000000000
1481 1       7.0703583951       7.0000000000
1482 1       7.4297067770      10.0000000000
1483 1       6.8146341024       8.0000000000
1484 1       7.2087755819      10.0000000000
1485 1       7.4176058090       9.0000000000
1486 1       6.9096815494       8.0000000000
1487 1       6.9413507730      12.0000000000
1488 1       7.8430044933       9.0000000000
1489 1       7.0465460334      11.0000000000
1490 1       7.1759440586       9.0000000000
1491 1       7.3600748678      10.0000000000
1492 1       6.9915592671      10.0000000000
1493 1       7.3527952328       8.0000000000
1494 1       7.1768651156       7.0000000000
1495 1       6.9905366625       6.0000000000
1496 1       7.5402114807       9.0000000000
1497 1       7.2813590349       9.0000000000
1498 1       7.5634860536      11.0000000000
1499 1       7.0697721198       8.0000000000
1500 1       7.2840270370       8.0000000000
1501 1       7.5372409104       9.0000000000
1502 1       7.2878085437      10.0000000000
1503 1       7.4828188234       9.0000000000
1504 1       7.3389074358      10.0000000000
1505 1       7.5034174512       9.0000000000
1506 1       6.8017602217       7.0000000000
1507 1       7.1537209452       8.0000000000
1508 1       7.8532847032       7.0000000000
1509 1       6.7913051456      10.0000000000
1510 1       7.9856601191       7.0000000000
1511 1       6.7154832827       8.0000000000
1512 1       7.2600501761      11.0000000000
1513 1       7.1228827485      12.0000000000
1514 1       7.1122507838       9.0000000000
1515 1       6.4125010077       7.0000000000
1516 1       7.0474521744       7.0000000000
1517 1       7.4182039200      12.0000000000
1518 1       6.9401779540      11.0000000000
1519 1       7.0663788496      10.0000000000
1520 1       7.4489332776      12.0000000000
1521 1       7.1780015154       9.0000000000
1522 1       7.4456813234       9.0000000000
1523 1       8.3232771386      10.0000000000
1524 1       7.1972701219       9.0000000000
1525 1       7.0092397533       9.0000000000
1526 1       7.3411791342       9.0000000000
1527 1       7.3894837102      10.0000000000
1528 1       6.7200992282       8.0000000000
1529 1       7.0479320086       9.0000000000
1530 1       7.3250116753       9.0000000000
1531 1       7.1745538820      11.0000000000
1532 1       7.0177378575       9.0000000000
1533 1       7.8378487958       9.0000000000
1534 1       7.0209061975      10.0000000000
1535 1       6.7599766019       8.0000000000
1536 1       7.2354126266      10.0000000000
1537 1       6.8634618216       8.0000000000
1538 1       7.7466971844      10.0000000000
1539 1       7.2298227933      11.0000000000
1540 1       7.0356750548       9.0000000000
1541 1       7.3586199915       9.0000000000
1542 1       7.5169064255       8.0000000000
1543 1       8.0318071277      11.0000000000
1544 1       7.0394091050       8.0000000000
1545 1       7.3535777051       8.0000000000
1546 1       7.6118587313      11.0000000000
1547 1       7.0654464880       7.0000000000
1548 1       7.2000313097       8.0000000000
1549 1       7.2218490735       8.0000000000
1550 1       7.4985109080      11.0000000000
1551 1       6.9944972482       9.0000000000
1552 1       7.4209394655       9.0000000000
1553 1       7.8632007846       8.0000000000
1554 1       7.3973427039       9.0000000000
1555 1       7.3322139966      10.0000000000
1556 1       6.9784791549      10.0000000000
1557 1       7.3713065332       7.0000000000
1558 1       7.4252059144       9.0000000000
1559 1       6.9107141416       8.0000000000
1560 1       6.8973180272       9.0000000000
1561 1       7.4259561595       8.0000000000
1562 1       6.9418797239       9.0000000000
1563 1       6.9743290550       7.0000000000
1564 1       6.8728343328       9.0000000000
1565 1       7.9116458362      12.0000000000
1566 1       7.4804758306      10.0000000000
1567 1       6.8273263968       9.0000000000
1568 1       7.4828928661       9.0000000000
1569 1       7.2805154415       8.0000000000
1570 1       6.7659718534       7.0000000000
1571 1       7.5334849841       9.0000000000
1572 1       6.5704067921       8.0000000000
1573 1       7.1910723380       8.0000000000
1574 1       7.0695776173      10.0000000000
1575 1       7.0694721180       9.0000000000
1576 1       7.2471004475      10.0000000000
1577 1       7.0783207205       8.0000000000
1578 1       6.7942672358       9.0000000000
1579 1       7.2165705307      10.0000000000
1580 1       7.0122766871      10.0000000000
1581 1       7.6281590613       9.0000000000
1582 1       7.7741268029      10.0000000000
1583 1       7.1417562091       9.0000000000
1584 1       6.9626580522       9.0000000000
1585 1       7.2228798078       7.0000000000
1586 1       7.0286944334      11.0000000000
1587 1       6.9399383315      10.0000000000
1588 1       7.1614317395       7.0000000000
1589 1       7.8629028792       8.0000000000
1590 1       7.2918128329       9.0000000000
1591 1       7.0773963631       9.0000000000
1592 1       7.2376037207       9.0000000000
1593 1       7.5542309807      10.0000000000
1594 1       7.3731051324       8.0000000000
1595 1       6.9236646672       9.0000000000
1596 1       7.8700171147       9.0000000000
1597 1       6.8931789136       9.0000000000
1598 1       7.5521188797       9.0000000000
1599 1       7.1096358087       8.0000000000
1600 1       7.2060715548       9.0000000000
1601 1       7.2111715500       8.0000000000
1602 1       7.3124407535      10.0000000000
1603 1       7.5593686869      10.0000000000
1604 1       7.5298245130      10.0000000000
1605 1       7.4117330574       9.0000000000
1606 1       7.1612952898       8.0000000000
1607 1       7.1398334445       8.0000000000
1608 1       7.0383645388       7.0000000000
1609 1       6.9363221292       7.0000000000
1610 1       7.0434523117       9.0000000000
1611 1       7.0184545138      10.0000000000
1612 1       6.9176940792       9.0000000000
1613 1       7.5776491403       9.0000000000
1614 1       7.6857081811       8.0000000000
1615 1       7.3839693147       8.0000000000
1616 1       7.6565231216       9.0000000000
1617 1       7.7041897761       8.0000000000
1618 1       7.6186799287       9.0000000000
1619 1       6.9649305027      14.0000000000
1620 1       7.6819008185      10.0000000000
1621 1       7.1275837494       9.0000000000
1622 1       7.4905579523       8.0000000000
1623 1       7.4624898656       9.0000000000
1624 1       6.8964638539      10.0000000000
1625 1       7.3485697569       8.0000000000
1626 1       7.5333020189       9.0000000000
1627 1       7.1033377380      10.0000000000
1628 1       7.1669632446       8.0000000000
1629 1       7.2420506609       7.0000000000
1630 1       6.9397841956      11.0000000000
1631 1       7.5062769319       9.0000000000
1632 1       7.1674344122      10.0000000000
1633 1       7.2862397135       7.0000000000
1634 1       6.7183290509       9.0000000000
1635 1       6.9527536583      11.0000000000
1636 1       7.2399088032       9.0000000000
1637 1       7.2932138196      10.0000000000
1638 1       7.2266298654       8.0000000000
1639 1       6.9122269693       9.0000000000
1640 1       7.4269221147      11.0000000000
1641 1       6.9110037658       9.0000000000
1642 1       6.8629758116      10.0000000000
1643 1       7.1606849878       8.0000000000
1644 1       7.1564609066      10.0000000000
1645 1       7.9063508393      11.0000000000
1646 1       7.2041283462      12.0000000000
1647 1       7.1263048847      10.0000000000
1648 1       7.0411162711       9.0000000000
1649 1       7.3322928880      10.0000000000
1650 1       6.6550672617       8.0000000000
1651 1       7.7862848735      11.0000000000
1652 1       7.2224487654      11.0000000000
1653 1       7.1487337243       8.0000000000
1654 1       7.3943579074      10.0000000000
1655 1       7.5098641044      10.0000000000
1656 1       7.0703332308       9.0000000000
1657 1       7.1048396804       9.0000000000
1658 1       7.3492087174      10.0000000000
1659 1       7.2442082211       8.0000000000
1660 1       7.2006816620      13.0000000000
1661 1       6.9784642780       9.0000000000
1662 1       7.4606767128       8.0000000000
1663 1       7.3508896240      10.0000000000
1664 1       6.7993721506       8.0000000000
1665 1       7.6830693689      10.0000000000
1666 1       7.4591008229       7.0000000000
1667 1       7.2091789437       9.0000000000
1668 1       7.4773971002      10.0000000000
1669 1       7.7206900998      10.0000000000
1670 1       7.4354551280       9.0000000000
1671 1       7.2287695769      10.0000000000
1672 1       7.0579579070       9.0000000000
1673 1       6.9928742536      10.0000000000
1674 1       7.8764708862       6.0000000000
1675 1       7.1558308206      10.0000000000
1676 1       7.3531683000      10.0000000000
1677 1       7.5121695544       9.0000000000
1678 1       7.3995135705       9.0000000000
1679 1       7.0939774726      11.0000000000
1680 1       7.6666669027      12.0000000000
1681 1       7.0560918856       9.0000000000
1682 1       7.3262596436      10.0000000000
1683 1       7.1007976207      10.0000000000
1684 1       6.8040883521      10.0000000000
1685 1       6.9846918185      11.0000000000
1686 1       6.9683730264      11.0000000000
1687 1       6.8542238736       9.0000000000
1688 1       6.6423072124       9.0000000000
1689 1       7.0264916541      10.0000000000
1690 1       7.3844615416       9.0000000000
1691 1       6.9408208694       9.0000000000
1692 1       7.2686429313      10.0000000000
1693 1       6.7734075792       9.0000000000
1694 1       7.0953431129       8.0000000000
1695 1       7.6035134692       9.0000000000
1696 1       6.9295652924      10.0000000000
1697 1       7.3057515754       8.0000000000
1698 1       7.3286094668      10.0000000000
1699 1       7.0952237838       9.0000000000
1700 1       6.9796798967      10.0000000000
1701 1       7.1799533130       9.0000000000
1702 1       7.7292157253       7.0000000000
1703 1       6.8097284284       9.0000000000
1704 1       7.0441299353      11.0000000000
1705 1       7.5111388154       8.0000000000
1706 1       7.6977659523      14.0000000000
1707 1       7.7269586652       8.0000000000
1708 1       7.4902039907      11.0000000000
1709 1       7.4977922372       9.0000000000
1710 1       7.3374027439      11.0000000000
1711 1       6.8434341421       9.0000000000
1712 1       6.8965804625      13.0000000000
1713 1       6.9716002299       9.0000000000
1714 1       6.9529971383      10.0000000000
1715 1       7.5359434504       9.0000000000
1716 1       7.6975278534       8.0000000000
1717 1       7.7010561656      10.0000000000
1718 1       7.9947907950      12.0000000000
1719 1       7.1565928961       9.0000000000
1720 1       7.2812566600      10.0000000000
1721 1       6.8421005309       9.0000000000
1722 1       7.2058972193       9.0000000000
1723 1       7.1687242358      11.0000000000
1724 1       7.6357983606      11.0000000000
1725 1       7.3156774983      12.0000000000
1726 1       6.9064000204       9.0000000000
1727 1       7.8293840258       8.0000000000
1728 1       7.1256710588       8.0000000000
1729 1       6.9380610138       8.0000000000
1730 1       7.4997933802       9.0000000000
1731 1       7.5250061768       8.0000000000
1732 1       7.3211426606       8.0000000000
1733 1       6.9490013579       9.0000000000
1734 1       6.8988163245       7.0000000000
1735 1       7.3306596841      10.0000000000
1736 1       7.3336068105       8.0000000000
1737 1       7.6622097677      10.0000000000
1738 1       7.1470702901       8.0000000000
1739 1       7.1484338723       9.0000000000
1740 1       7.2959325306      11.0000000000
1741 1       7.8137806589      11.0000000000
1742 1       7.8615487575       9.0000000000
1743 1       7.4324088419       8.0000000000
1744 1       6.9419927949      10.0000000000
1745 1       7.2889401383       9.0000000000
1746 1       6.9086494707       8.0000000000
1747 1       7.3198435647       9.0000000000
1748 1       7.5768437601       9.0000000000
1749 1       7.3665868082       7.0000000000
1750 1       7.2967647039       9.0000000000
1751 1       7.7016106640       8.0000000000
1752 1       7.7132836999       9.0000000000
1753 1       6.9513193188      10.0000000000
1754 1       7.0569304805      10.0000000000
1755 1       7.0262548047       8.0000000000
1756 1       7.7622238081       9.0000000000
1757 1       7.8476595408      11.0000000000
1758 1       7.4278102885      11.0000000000
1759 1       7.3729972213       8.0000000000
1760 1       7.2358334946       7.0000000000
1761 1       6.9846079494      11.0000000000
1762 1       7.1403774252      11.0000000000
1763 1       7.2788958115       9.0000000000
1764 1       7.3662328517      11.0000000000
1765 1       6.8096054697      10.0000000000
1766 1       6.7013500318      10.0000000000
1767 1       7.3433468695       7.0000000000
1768 1       7.2936122171       9.0000000000
1769 1       7.4771187805      10.0000000000
1770 1       7.8117185252       7.0000000000
1771 1       7.1389529915       8.0000000000
1772 1       7.5008343580       8.0000000000
1773 1       7.0832903243       8.0000000000
1774 1       7.5864110290       8.0000000000
1775 1       6.7516798891      10.0000000000
1776 1       6.8444880831       8.0000000000
1777 1       7.1600059398      10.0000000000
1778 1       7.8581574837      11.0000000000
1779 1       6.8510623324       7.0000000000
1780 1       7.4875134009      10.0000000000
1781 1       7.0655569373       8.0000000000
1782 1       6.9941939732       8.0000000000
1783 1       7.9234364487      10.0000000000
1784 1       7.8565779466       9.0000000000
1785 1       7.5126780276       8.0000000000
1786 1       7.6120004062       8.0000000000
1787 1       7.6715333222       9.0000000000
1788 1       7.6893707188       8.0000000000
1789 1       7.1875812700      14.0000000000
1790 1       7.4327010202      11.0000000000
1791 1       7.5594971760       9.0000000000
1792 1       7.1005341599      10.0000000000
1793 1       6.9743203769       8.0000000000
1794 1       7.3582174543       9.0000000000
1795 1       7.3652364060      10.0000000000
1796 1       7.8457164501       9.0000000000
1797 1       7.2945608758       8.0000000000
1798 1       7.6790770324       9.0000000000
1799 1       7.5451743997      10.0000000000
1800 1       7.3021646669       8.0000000000
1801 1       6.7183989865       8.0000000000
1802 1       7.5154374970       9.0000000000
1803 1       7.3415138985       9.0000000000
1804 1       7.2611398835       8.0000000000
1805 1       7.1079472669       7.0000000000
1806 1       7.2926632257      10.0000000000
1807 1       7.4342133168       9.0000000000
1808 1       7.8298972149      11.0000000000
1809 1       7.5838090732       9.0000000000
1810 1       7.0027064051       9.0000000000
1811 1       6.4730917325       8.0000000000
1812 1       7.0040893638       8.0000000000
1813 1       7.1936485334       8.0000000000
1814 1       7.5691189956       9.0000000000
1815 1       7.5526393830      10.0000000000
1816 1       7.3029996772       8.0000000000
1817 1       7.0043311909      10.0000000000
1818 1       7.7872182375      11.0000000000
1819 1       7.4428164935       8.0000000000
1820 1       7.1380409282      11.0000000000
1821 1       8.0604111934       9.0000000000
1822 1       7.2126376705      10.0000000000
1823 1       7.7096984378      12.0000000000
1824 1       7.0602579640       7.0000000000
1825 1       6.8800727684       9.0000000000
1826 1       7.1367084983       8.0000000000
1827 1       6.9892703471       8.0000000000
1828 1       7.1399913749      11.0000000000
1829 1       7.1415700132       7.0000000000
1830 1       7.3517677040      11.0000000000
1831 1       7.1588295389       8.0000000000
1832 1       6.8667583943       9.0000000000
1833 1       7.2540465336      10.0000000000
1834 1       7.3619563812       8.0000000000
1835 1       7.2497161397       8.0000000000
1836 1       7.3845981175       9.0000000000
1837 1       7.0379530737       9.0000000000
1838 1       7.1497234906       8.0000000000
1839 1       7.6822437972       9.0000000000
1840 1       7.0314289775      10.0000000000
1841 1       7.0577689793       9.0000000000
1842 1       7.6759527273      10.0000000000
1843 1       7.2497716338      11.0000000000
1844 1       7.4997449808      10.0000000000
1845 1       6.7883423312       8.0000000000
1846 1       6.9449568024      10.0000000000
1847 1       7.2505528737       9.0000000000
1848 1       7.3284017681       7.0000000000
1849 1       7.5206003014       8.0000000000
1850 1       7.6941348078      11.0000000000
1851 1       7.2392689718      10.0000000000
1852 1       7.6697341142      11.0000000000
1853 1       6.7056114349       9.0000000000
1854 1       7.0223606505      10.0000000000
1855 1       6.8120696986      11.0000000000
1856 1       7.7496402139      11.0000000000
1857 1       7.4621840041       9.0000000000
1858 1       7.5491667407       8.0000000000
1859 1       7.8537693167       9.0000000000
1860 1       6.2775461245       7.0000000000
1861 1       7.2088185254       8.0000000000
1862 1       7.3718819576      10.0000000000
1863 1       7.9286106520       9.0000000000
1864 1       6.9422466521      10.0000000000
1865 1       6.7912707734       8.0000000000
1866 1       7.0686921579       9.0000000000
1867 1       7.0642730823      10.0000000000
1868 1       7.1605971757       9.0000000000
1869 1       7.2198793774       8.0000000000
1870 1       7.4468891207       9.0000000000
1871 1       7.4020699366      10.0000000000
1872 1       7.2479753190       8.0000000000
1873 1       7.2491304400       9.0000000000
1874 1       7.2590250002       9.0000000000
1875 1       7.7194122422      10.0000000000
1876 1       7.4606202935      11.0000000000
1877 1       6.7973273673      10.0000000000
1878 1       8.6231662767      10.0000000000
1879 1       7.0301689996       9.0000000000
1880 1       7.3160904453      11.0000000000
1881 1       7.1844874658      10.0000000000
1882 1       7.1300766242      11.0000000000
1883 1       7.3693105747       8.0000000000
1884 1       7.1883219698       9.0000000000
1885 1       7.3582136686       7.0000000000
1886 1       7.0486760873       9.0000000000
1887 1       7.2559067614       8.0000000000
1888 1       7.2705389255       7.0000000000
1889 1       7.3745648696       7.0000000000
1890 1       7.4904844252       9.0000000000
1891 1       6.6361466909       8.0000000000
1892 1       7.0660904178       9.0000000000
1893 1       7.6611125717      12.0000000000
1894 1       7.6152824910       9.0000000000
1895 1       8.1363266733      11.0000000000
1896 1       7.5450869834      10.0000000000
1897 1       7.0598954578      11.0000000000
1898 1       7.5420504488       8.0000000000
1899 1       7.7613841328       8.0000000000
1900 1       7.2143138488      10.0000000000
1901 1       7.6500140601       9.0000000000
1902 1       6.9012627102       9.0000000000
1903 1       7.0163771249       8.0000000000
1904 1       7.5413554627       8.0000000000
1905 1       7.5134789355       8.0000000000
1906 1       7.1263576846       8.0000000000
1907 1       7.2000914741       8.0000000000
1908 1       7.2158937926      10.0000000000
1909 1       7.7679807503      10.0000000000
1910 1       7.1634547113      10.0000000000
1911 1       6.6514701081       9.0000000000
1912 1       6.7542802429       8.0000000000
1913 1       6.6982592839      11.0000000000
1914 1       7.6021195034      11.0000000000
1915 1       7.0412076756      12.0000000000
1916 1       7.1433051961       9.0000000000
1917 1       6.8277001394       9.0000000000
1918 1       7.5880364983       9.0000000000
1919 1       6.7151463805       8.0000000000
1920 1       7.0879379741       9.0000000000
1921 1       6.8640512158       8.0000000000
1922 1       6.8687613141       8.0000000000
1923 1       7.5386277031       9.0000000000
1924 1       6.9570150428       9.0000000000
1925 1       7.1720296809       9.0000000000
1926 1       7.8138644708      12.0000000000
1927 1       7.1452961617       9.0000000000
1928 1       7.4328291023       9.0000000000
1929 1       7.1337634830       9.0000000000
1930 1       7.0464232612      10.0000000000
1931 1       7.1655624040       8.0000000000
1932 1       7.5842972616       9.0000000000
1933 1       8.2476258067      11.0000000000
1934 1       8.0315110542      11.0000000000
1935 1       7.1794521700       9.0000000000
1936 1       7.1574286211      10.0000000000
1937 1       7.0418231715       8.0000000000
1938 1       7.1399657046      11.0000000000
1939 1       6.9314057779       8.0000000000
1940 1       7.0417716708      10.0000000000
1941 1       7.2788207658       8.0000000000
1942 1       6.8216833747       8.0000000000
1943 1       7.2091971597       7.0000000000
1944 1       7.2661304586      10.0000000000
1945 1       7.4741539414       7.0000000000
1946 1       7.6726712316       8.0000000000
1947 1       7.4720848623      11.0000000000
1948 1       7.3374986113       8.0000000000
1949 1       7.7997631382       8.0000000000
1950 1       7.1960316028      10.0000000000
1951 1       6.9035425631       9.0000000000
1952 1       7.2422086928       9.0000000000
1953 1       7.4127049148      11.0000000000
1954 1       7.4391618666       8.0000000000
1955 1       7.0608681077       9.0000000000
1956 1       6.6881452179       8.0000000000
1957 1       7.3337743644      11.0000000000
1958 1       7.0810156597      10.0000000000
1959 1       7.4184867641      12.0000000000
1960 1       7.1888693441      10.0000000000
1961 1       7.3548203666       8.0000000000
1962 1       7.7092186620      11.0000000000
1963 1       6.9553581044       8.0000000000
1964 1       6.9659923655      12.0000000000
1965 1       7.6553675693      10.0000000000
1966 1       7.2123790726      10.0000000000
1967 1       7.2926154674       9.0000000000
1968 1       7.4587998281       8.0000000000
1969 1       7.7549418060      11.0000000000
1970 1       7.7323319161      10.0000000000
1971 1       7.6980996361      10.0000000000
1972 1       7.2095144065       9.0000000000
1973 1       6.9685667308       9.0000000000
1974 1       7.1890987829       8.0000000000
1975 1       7.2605272226       7.0000000000
1976 1       7.5231653703       8.0000000000
1977 1       6.8108438740       8.0000000000
1978 1       7.1572154710      11.0000000000
1979 1       7.3653871589      10.0000000000
1980 1       7.6925245201      11.0000000000
1981 1       7.0387881724       8.0000000000
1982 1       6.9653270280       9.0000000000
1983 1       7.6038178505       9.0000000000
1984 1       7.4712680128      10.0000000000
1985 1       7.1662113745       8.0000000000
1986 1       6.7313731917       8.0000000000
1987 1       7.2321801663      10.0000000000
1988 1       7.5392010511       7.0000000000
1989 1       7.1094000488      12.0000000000
1990 1       7.2640760228      11.0000000000
1991 1       7.5507596755      12.0000000000
1992 1       6.8785577123       7.0000000000
1993 1       7.3155848970      10.0000000000
1994 1       7.6529818251      13.0000000000
1995 1       6.7598820365       9.0000000000
1996 1       7.5399587165      12.0000000000
1997 1       6.9295043543       8.0000000000
1998 1       7.3876991861       9.0000000000
1999 1       7.1789579919      10.0000000000
2000 1       7.6775557179       9.0000000000
2001 1       7.1814489684      10.0000000000
2002 1       7.8311542262      10.0000000000
2003 1       7.2246108697      12.0000000000
2004 1       7.4379401611       8.0000000000
2005 1       8.1684707083       9.0000000000
2006 1       7.5367628272       8.0000000000
2007 1       6.7351650580       9.0000000000
2008 1       6.8978839043      11.0000000000
2009 1       7.7359050431      10.0000000000
2010 1       6.9068404533       8.0000000000
2011 1       7.5321753824      11.0000000000
2012 1       7.5563697867      10.0000000000
2013 1       6.8971823330       7.0000000000
2014 1       7.0731974015       7.0000000000
2015 1       7.2268630619       8.0000000000
2016 1       7.3906565922      12.0000000000
2017 1       6.9804004520       8.0000000000
2018 1       7.1911505964      10.0000000000
2019 1       7.3428419504      10.0000000000
2020 1       7.6341579584      10.0000000000
2021 1       7.3501197647      11.0000000000
2022 1       7.7765278014      11.0000000000
2023 1       7.3132844885      11.0000000000
2024 1       6.8522523850      10.0000000000
2025 1       7.2652055267       9.0000000000
2026 1       6.9084702932      10.0000000000
2027 1       7.1529419607      11.0000000000
2028 1       7.3002288230      11.0000000000
2029 1       7.4773793041       9.0000000000
2030 1       7.5094474556       9.0000000000
2031 1       7.4412198624       9.0000000000
2032 1       7.1517753818       7.0000000000
2033 1       7.2249953518      10.0000000000
2034 1       7.2313412206       7.0000000000
2035 1       7.4412998001       9.0000000000
2036 1       7.6972117726       9.0000000000
2037 1       7.3532578444       7.0000000000
2038 1       7.0850452534      11.0000000000
2039 1       7.0718322130      10.0000000000
2040 1       7.5351580414       8.0000000000
2041 1       7.5394519742      12.0000000000
2042 1       7.4292210513       7.0000000000
2043 1       7.2608029190       9.0000000000
2044 1       7.1367008303       8.0000000000
2045 1       7.4853842274      10.0000000000
2046 1       7.3950305654       8.0000000000
2047 1       7.3085961410      11.0000000000
2048 1       6.6174866628       7.0000000000
2049 1       6.9623250385      10.0000000000
2050 1       7.7168286703       9.0000000000
2051 1       7.6496135474       8.0000000000
2052 1       7.3880066768       9.0000000000
2053 1       7.4139653037       8.0000000000
2054 1       6.9772537940       7.0000000000
2055 1       7.0709387724       7.0000000000
2056 1       7.4328191924      11.0000000000
2057 1       7.2309325138      10.0000000000
2058 1       7.0368305000       9.0000000000
2059 1       6.8475210893       7.0000000000
2060 1       7.1092796816      12.0000000000
2061 1       7.0876281394       8.0000000000
2062 1       6.9008294438      11.0000000000
2063 1       7.5672967684       8.0000000000
2064 1       7.5360341506       9.0000000000
2065 1       7.1037784497       9.0000000000
2066 1       7.3953795443       8.0000000000
2067 1       7.4722260762      11.0000000000
2068 1       7.1443749485       8.0000000000
2069 1       6.9951466885       8.0000000000
2070 1       7.0156407771       9.0000000000
2071 1       7.4478831999      10.0000000000
2072 1       7.7015009634       8.0000000000
2073 1       7.4160001972       9.0000000000
2074 1       7.6478838137       9.0000000000
2075 1       7.1402343902       9.0000000000
2076 1       7.9588829746      13.0000000000
2077 1       7.6059424048      10.0000000000
2078 1       7.6355331580       8.0000000000
2079 1       7.8375273621       9.0000000000
2080 1       7.3732730068       9.0000000000
2081 1       7.2749241371       9.0000000000
2082 1       8.0867262163      12.0000000000
2083 1       7.7059067258       9.0000000000
2084 1       7.3949377255       8.0000000000
2085 1       7.4892202079      11.0000000000
2086 1       7.6202839701      10.0000000000
2087 1       6.9761296922       8.0000000000
2088 1       7.3011377257       7.0000000000
2089 1       7.0486988826       7.0000000000
2090 1       6.9753845934      10.0000000000
2091 1       7.0173865424       7.0000000000
2092 1       7.1469299254       8.0000000000
2093 1       7.3959208132       9.0000000000
2094 1       7.3654266014      10.0000000000
2095 1       6.9182809870       9.0000000000
2096 1       7.1353110518       9.0000000000
2097 1       7.0628865956       8.0000000000
2098 1       7.7820072080      10.0000000000
2099 1       7.0275026027       7.0000000000
2100 1       6.9057052746       9.0000000000
2101 1       7.8087274004       9.0000000000
2102 1       7.4114290815      11.0000000000
2103 1       7.6632229152       9.0000000000
2104 1       7.1897535710      11.0000000000
2105 1       7.4106861153       8.0000000000
2106 1       8.2223000750       9.0000000000
2107 1       7.5320802282       9.0000000000
2108 1       7.2440423213       9.0000000000
2109 1       7.9565451665      12.0000000000
2110 1       7.1340394916       8.0000000000
2111 1       7.6239752379      11.0000000000
2112 1       7.0732025005      11.0000000000
2113 1       7.4499157706       9.0000000000
2114 1       7.2197556400       9.0000000000
2115 1       7.3673097392      12.0000000000
2116 1       7.8006545625       9.0000000000
2117 1       7.2381427216       9.0000000000
2118 1       7.2977895056       9.0000000000
2119 1       7.0660560612      11.0000000000
2120 1       7.0966724999      10.0000000000
2121 1       7.1854829183       8.0000000000
2122 1       8.3832514651      11.0000000000
2123 1       7.2064495118       7.0000000000
2124 1       7.6157125069       9.0000000000
2125 1       7.1826705185      10.0000000000
2126 1       7.3616030991       8.0000000000
2127 1       7.3830055072       9.0000000000
2128 1       7.4595498319       9.0000000000
2129 1       8.0287666940      10.0000000000
2130 1       7.4998509535       9.0000000000
2131 1       6.7797991103      10.0000000000
2132 1       7.7647160629      11.0000000000
2133 1       7.5923301834       9.0000000000
2134 1       7.3702267638       9.0000000000
2135 1       7.5785142568      10.0000000000
2136 1       7.0899078409       9.0000000000
2137 1       6.4613233240       8.0000000000
2138 1       7.3270508823       8.0000000000
2139 1       6.6863705636       9.0000000000
2140 1       7.3702563640       8.0000000000
2141 1       7.2345831281      11.0000000000
2142 1       6.8860460981      11.0000000000
2143 1       7.0913972231      11.0000000000
2144 1       8.0843325559      10.0000000000
2145 1       7.7683407583      10.0000000000
2146 1       7.4453070118       7.0000000000
2147 1       7.1598697394       9.0000000000
2148 1       7.2932370541       9.0000000000
2149 1       6.9337854153      10.0000000000
2150 1       6.8301261735       8.0000000000
2151 1       7.5216124278       9.0000000000
2152 1       7.4625174698      11.0000000000
2153 1       7.2141249450      12.0000000000
2154 1       6.6271223073       9.0000000000
2155 1       8.1646068957      10.0000000000
2156 1       7.5544263955       8.0000000000
2157 1       6.6791669394       7.0000000000
2158 1       7.4489085751       7.0000000000
2159 1       6.9657653183       9.0000000000
2160 1       7.7085352641      10.0000000000
2161 1       7.4307139973       9.0000000000
2162 1       6.9202528570      10.0000000000
2163 1       7.1992730691      11.0000000000
2164 1       7.2292060899       9.0000000000
2165 1       7.4421257814      10.0000000000
2166 1       7.8388125242       8.0000000000
2167 1       6.8279139646       7.0000000000
2168 1       7.3828218226      13.0000000000
2169 1       7.1356399029      10.0000000000
2170 1       7.1822993944       7.0000000000
2171 1       7.0860527498      10.0000000000
2172 1       7.5093706350      10.0000000000
2173 1       7.4596838711      11.0000000000
2174 1       7.6697490523      11.0000000000
2175 1       7.1986830443      10.0000000000
2176 1       7.4416775766       9.0000000000
2177 1       7.1239015563       9.0000000000
2178 1       7.5323323158       8.0000000000
2179 1       7.2938390480      10.0000000000
2180 1       6.9945712394      11.0000000000
2181 1       7.3134618904      10.0000000000
2182 1       7.1276647613       9.0000000000
2183 1       7.5729535673      10.0000000000
2184 1       7.1258343951       8.0000000000
2185 1       7.3969214827       9.0000000000
2186 1       7.0517280818       9.0000000000
2187 1       7.0766406609       7.0000000000
2188 1       6.8674420222       8.0000000000
2189 1       6.8890912127      10.0000000000
2190 1       7.4195845685       8.0000000000
2191 1       7.3196705944      10.0000000000
2192 1       7.2973017514      13.0000000000
2193 1       7.3211515501       9.0000000000
2194 1       7.1643134122      10.0000000000
2195 1       6.7209516719       9.0000000000
2196 1       7.1444861730       7.0000000000
2197 1       7.6619764957      10.0000000000
2198 1       7.2085240464      11.0000000000
2199 1       7.2937830601       8.0000000000
2200 1       7.2815145441       8.0000000000
2201 1       7.8951013964       9.0000000000
2202 1       6.6371136051       7.0000000000
2203 1       7.4141680739       7.0000000000
2204 1       7.1922445029       8.0000000000
2205 1       7.4674956487      10.0000000000
2206 1       7.0470332715      10.0000000000
2207 1       7.1928221363       7.0000000000
2208 1       6.3060393374       9.0000000000
2209 1       7.7122910475       9.0000000000
2210 1       7.5906759806       7.0000000000
2211 1       7.1085908227       9.0000000000
2212 1       7.5519206226      10.0000000000
2213 1       7.2475629570      11.0000000000
2214 1       7.7520684771       9.0000000000
2215 1       7.8623694454       8.0000000000
2216 1       6.8808120353       8.0000000000
2217 1       7.4906711706      10.0000000000
2218 1       7.1771223368       9.0000000000
2219 1       7.7322526467      10.0000000000
2220 1       7.8364883335      11.0000000000
2221 1       7.2602378839      11.0000000000
2222 1       8.1431534098      11.0000000000
2223 1       7.5671446275       8.0000000000
2224 1       7.4290907723       8.0000000000
2225 1       6.6522330389       8.0000000000
2226 1       6.9667279114       9.0000000000
2227 1       7.6651463696       9.0000000000
2228 1       7.1882368613      10.0000000000
2229 1       6.8945569063       9.0000000000
2230 1       6.9717887400      11.0000000000
2231 1       7.0368906941      11.0000000000
2232 1       7.0216059260       9.0000000000
2233 1       7.0078623616      10.0000000000
2234 1       7.4317579954       7.0000000000
2235 1       7.5940494397       9.0000000000
2236 1       7.6696581154      10.0000000000
2237 1       7.7514537597       9.0000000000
2238 1       7.4626872427       8.0000000000
2239 1       7.5966161451      10.0000000000
2240 1       7.4493161961       6.0000000000
2241 1       7.3356744272      11.0000000000
2242 1       7.1362944668       7.0000000000
2243 1       7.5219870442      14.0000000000
2244 1       7.8549424710      10.0000000000
2245 1       7.3562285679       9.0000000000
2246 1       7.2606961755      10.0000000000
2247 1       6.9154790688       8.0000000000
2248 1       7.1427044377       8.0000000000
2249 1       7.1586369965      12.0000000000
2250 1       7.1254346637      10.0000000000
2251 1       7.2919186486      11.0000000000
2252 1       7.1024314791       8.0000000000
2253 1       7.6253422800      10.0000000000
2254 1       7.3278454529       9.0000000000
2255 1       7.0685985727       8.0000000000
2256 1       6.5249387180       9.0000000000
2257 1       7.3825463264      12.0000000000
2258 1       7.3786144980       8.0000000000
2259 1       7.0717305981       8.0000000000
2260 1       7.2844834025      11.0000000000
2261 1       7.0026548960       9.0000000000
2262 1       7.8776587933       8.0000000000
2263 1       7.4253289096       8.0000000000
2264 1       6.7979842754       9.0000000000
2265 1       7.3591085871       9.0000000000
2266 1       6.7986283373       9.0000000000
2267 1       7.5251012394       9.0000000000
2268 1       7.6144166549       9.0000000000
2269 1       7.0739215123       9.0000000000
2270 1       7.9284040862      10.0000000000
2271 1       7.2453864120       8.0000000000
2272 1       7.4813286684       7.0000000000
2273 1       7.1626943622       9.0000000000
2274 1       7.5912457847       7.0000000000
2275 1       7.4054448236       9.0000000000
2276 1       7.1424106803       9.0000000000
2277 1       6.9144215556       8.0000000000
2278 1       7.4683703843      10.0000000000
2279 1       7.4821860877       8.0000000000
2280 1       7.2731851468       8.0000000000
2281 1       7.4101609173       8.0000000000
2282 1       6.9184922336       8.0000000000
2283 1       6.8642291629      11.0000000000
2284 1       7.7075116820       8.0000000000
2285 1       7.1301909643      11.0000000000
2286 1       6.9258418222       7.0000000000
2287 1       7.2627933379       8.0000000000
2288 1       7.2708189659       8.0000000000
2289 1       7.1907112711       8.0000000000
2290 1       7.5871440091      11.0000000000
2291 1       7.4019640687       8.0000000000
2292 1       6.7401588176       8.0000000000
2293 1       7.8173733734       9.0000000000
2294 1       7.3388605895       9.0000000000
2295 1       7.4109252049      10.0000000000
2296 1       7.2640606030      10.0000000000
2297 1       8.1111576541      11.0000000000
2298 1       7.4610328718       9.0000000000
2299 1       7.0533317972      11.0000000000
2300 1       7.3048142853      10.0000000000
2301 1       7.2926806692      11.0000000000
2302 1       7.3782007552       9.0000000000
2303 1       7.2539577241       8.0000000000
2304 1       7.4882725748      10.0000000000
2305 1       7.5843771175       9.0000000000
2306 1       7.0762057583       9.0000000000
2307 1       7.0491988171       8.0000000000
2308 1       7.1397743241       8.0000000000
2309 1       6.8768250290       9.0000000000
2310 1       7.2297121436      11.0000000000
2311 1       6.6745689223       9.0000000000
2312 1       7.3881268560      10.0000000000
2313 1       6.8926651058      10.0000000000
2314 1       7.3446775661       8.0000000000
2315 1       7.1905217018       9.0000000000
2316 1       7.2241637923       8.0000000000
2317 1       7.4254329901      10.0000000000
2318 1       6.9075470993       7.0000000000
2319 1       6.7733938573       9.0000000000
2320 1       7.1019503010       8.0000000000
2321 1       7.4604305404      10.0000000000
2322 1       7.4723036056       9.0000000000
2323 1       7.1956542381      10.0000000000
2324 1       7.1228360172      10.0000000000
2325 1       6.9660906646       9.0000000000
2326 1       7.2285392166       8.0000000000
2327 1       6.8627341808       9.0000000000
2328 1       7.6073299236      11.0000000000
2329 1       7.0014155502      10.0000000000
2330 1       7.2739159276       8.0000000000
2331 1       7.3856731069       8.0000000000
2332 1       7.4433018129       9.0000000000
2333 1       7.6618706093      11.0000000000
2334 1       7.5319918115       9.0000000000
2335 1       7.0376515403       8.0000000000
2336 1       7.2308140994       9.0000000000
2337 1       7.7839777312       8.0000000000
2338 1       6.8893945256      10.0000000000
2339 1       7.2138725877       8.0000000000
2340 1       7.1832736459       9.0000000000
2341 1       7.3815973819       9.0000000000
2342 1       7.7457505547       8.0000000000
2343 1       7.1554807481       9.0000000000
2344 1       7.2723662820       9.0000000000
2345 1       7.1347062119       7.0000000000
2346 1       6.9809558357       7.0000000000
2347 1       7.6742300520       8.0000000000
2348 1       7.1654379449       8.0000000000
2349 1       6.6751936920       8.0000000000
2350 1       7.1292733080      11.0000000000
2351 1       7.0177013186       8.0000000000
2352 1       6.8705635209       8.0000000000
2353 1       6.9805142420      11.0000000000
2354 1       7.9937731186       9.0000000000
2355 1       7.2660537341      10.0000000000
2356 1       7.4148046026       9.0000000000
2357 1       7.8756135021       9.0000000000
2358 1       7.3718506282      10.0000000000
2359 1       6.8373135337       9.0000000000
2360 1       7.6150930040      10.0000000000
2361 1       7.5943427823       8.0000000000
2362 1       7.2153788268      11.0000000000
2363 1       7.0822747107       9.0000000000
2364 1       7.3637807460       9.0000000000
2365 1       7.5552465636       8.0000000000
2366 1       7.5150711637       9.0000000000
2367 1       7.4896486188       8.0000000000
2368 1       8.6922990895      10.0000000000
2369 1       7.1558499527      11.0000000000
2370 1       7.6167061464       9.0000000000
2371 1       6.8521485415      10.0000000000
2372 1       7.2911682838       9.0000000000
2373 1       7.6219614738      11.0000000000
2374 1       7.6562821968      12.0000000000
2375 1       7.6688728871      10.0000000000
2376 1       7.7414153400       9.0000000000
2377 1       6.8459355376      10.0000000000
2378 1       7.1045769390       9.0000000000
2379 1       6.4285885939       8.0000000000
2380 1       7.1003419056      12.0000000000
2381 1       6.9841654222      10.0000000000
2382 1       7.2924746455       8.0000000000
2383 1       7.3085641332       8.0000000000
2384 1       7.2909922799      10.0000000000
2385 1       7.5035096850      11.0000000000
2386 1       7.6350755313       8.0000000000
2387 1       7.4827757947       7.0000000000
2388 1       6.9690646623      11.0000000000
2389 1       7.1604087373      10.0000000000
2390 1       7.7821702029       8.0000000000
2391 1       7.2077067165       9.0000000000
2392 1       7.2111070201       8.0000000000
2393 1       7.5766583687      10.0000000000
2394 1       7.2225347697       9.0000000000
2395 1       7.4130761427       9.0000000000
2396 1       7.1677881610       7.0000000000
2397 1       7.5769342114      10.0000000000
2398 1       7.5189848570       9.0000000000
2399 1       6.4268714382       8.0000000000
2400 1       7.3939460435       7.0000000000
2401 1       7.3290794341       8.0000000000
2402 1       6.7565054433      10.0000000000
2403 1       6.8518360107       9.0000000000
2404 1       7.2802642767       9.0000000000
2405 1       6.9934983403       8.0000000000
2406 1       7.7888475380       9.0000000000
2407 1       7.8966000276       9.0000000000
2408 1       7.5245943579       8.0000000000
2409 1       7.0455755351       9.0000000000
2410 1       7.1666697447      10.0000000000
2411 1       7.4312807087       8.0000000000
2412 1       8.0796277662      12.0000000000
2413 1       7.0591432232      12.0000000000
2414 1       6.7340129535       9.0000000000
2415 1       7.3856105833      10.0000000000
2416 1       7.2041951818       9.0000000000
2417 1       7.0878725034      10.0000000000
2418 1       6.8819389267       9.0000000000
2419 1       7.3532741726       9.0000000000
2420 1       7.0160826981      10.0000000000
2421 1       7.6255600743       8.0000000000
2422 1       7.0743515684       9.0000000000
2423 1       7.2236674772       9.0000000000
2424 1       7.4349695489       9.0000000000
2425 1       7.6232344170       9.0000000000
2426 1       7.4829214427      11.0000000000
2427 1       7.8315812088       9.0000000000
2428 1       7.3548464962       8.0000000000
2429 1       7.3537986552      11.0000000000
2430 1       7.3567148841      10.0000000000
2431 1       6.8732881504      10.0000000000
2432 1       6.7562695929      11.0000000000
2433 1       6.7186607818       7.0000000000
2434 1       7.1268354997       9.0000000000
2435 1       7.7839959451      11.0000000000
2436 1       7.3037114318      10.0000000000
2437 1       7.2298003944       7.0000000000
2438 1       7.0213014638      10.0000000000
2439 1       7.2320545612      10.0000000000
2440 1       6.8540778970       9.0000000000
2441 1       6.8099454692       9.0000000000
2442 1       7.0781355636      11.0000000000
2443 1       7.0326901827      10.0000000000
2444 1       7.8748003068      10.0000000000
2445 1       7.3025171607      10.0000000000
2446 1       6.8748971426      11.0000000000
2447 1       7.2842874685       8.0000000000
2448 1       7.0920176962       8.0000000000
2449 1       7.6331901097       8.0000000000
2450 1       7.3827921247      10.0000000000
2451 1       6.9102257140      10.0000000000
2452 1       7.9314083339       9.0000000000
2453 1       6.8947669335       8.0000000000
2454 1       7.5490952107       8.0000000000
2455 1       6.8049574255       7.0000000000
2456 1       7.4220421227      11.0000000000
2457 1       7.2237879337       8.0000000000
2458 1       7.1664121898       7.0000000000
2459 1       8.0118818918      11.0000000000
2460 1       7.0652823523      10.0000000000
2461 1       7.7279605872      10.0000000000
2462 1       7.5942469336       8.0000000000
2463 1       7.0160465927      10.0000000000
2464 1       7.0414042387      10.0000000000
2465 1       7.3204569516       8.0000000000
2466 1       7.0441465637       8.0000000000
2467 1       7.9420765629      10.0000000000
2468 1       6.9951547138       9.0000000000
2469 1       7.1347954611       9.0000000000
2470 1       7.5174435416       9.0000000000
2471 1       7.5888587955       8.0000000000
2472 1       7.2146259539      11.0000000000
2473 1       7.3493400364       9.0000000000
2474 1       7.3397730308       9.0000000000
2475 1       7.2797682020      11.0000000000
2476 1       7.5121798805       7.0000000000
2477 1       7.2459787371       8.0000000000
2478 1       7.6080215543       8.0000000000
2479 1       6.9913097932      10.0000000000
2480 1       7.1316799275       9.0000000000
2481 1       6.7215770680       8.0000000000
2482 1       7.9094821196      10.0000000000
2483 1       7.0616074803       9.0000000000
2484 1       7.2239792494       8.0000000000
2485 1       7.4664331130      10.0000000000
2486 1       7.5295644931       8.0000000000
2487 1       7.0598251022      10.0000000000
2488 1       7.1021210409       6.0000000000
2489 1       7.1241105675       9.0000000000
2490 1       6.8431466882       8.0000000000
2491 1       6.6321613555       9.0000000000
2492 1       6.6214873692       9.0000000000
2493 1       7.2599049345       9.0000000000
2494 1       7.1757558002       9.0000000000
2495 1       7.6471086573       8.0000000000
2496 1       6.9560094038       9.0000000000
2497 1       7.6451614521      10.0000000000
2498 1       7.1921949157      11.0000000000
2499 1       7.1311624827      11.0000000000
2500 1       6.8276606663       9.0000000000
2501 1       7.3157943541      10.0000000000
2502 1       7.4506543060       8.0000000000
2503 1       7.1413452772       8.0000000000
2504 1       7.3302914404       9.0000000000
2505 1       7.4829514434      10.0000000000
2506 1       7.0971709987      10.0000000000
2507 1       7.5143954674       9.0000000000
2508 1       6.9558873593       7.0000000000
2509 1       6.8966367031       9.0000000000
2510 1       7.1308473548      10.0000000000
2511 1       7.1314553051       9.0000000000
2512 1       7.1771577189       7.0000000000
2513 1       7.1251054975       8.0000000000
2514 1       7.0268294107       7.0000000000
2515 1       6.9001450048       9.0000000000
2516 1       7.1105859582       8.0000000000
2517 1       7.7256449123       9.0000000000
2518 1       7.4455250430      10.0000000000
2519 1       7.2096481256       8.0000000000
2520 1       7.3434532224      13.0000000000
2521 1       6.8079060894       8.0000000000
2522 1       8.4567004387      10.0000000000
2523 1       7.1348648504       8.0000000000
2524 1       7.2672424398       8.0000000000
2525 1       7.2762093334       9.0000000000
2526 1       7.2637200355       9.0000000000
2527 1       7.5434082113       9.0000000000
2528 1       7.1637671615       9.0000000000
2529 1       6.7581860798       9.0000000000
2530 1       7.2144646419      12.0000000000
2531 1       6.8876093284       8.0000000000
2532 1       7.2322743041      10.0000000000
2533 1       7.4522700013       8.0000000000
2534 1       7.1266658640       7.0000000000
2535 1       7.4481477751       9.0000000000
2536 1       7.0515201143       9.0000000000
2537 1       7.4718413905      11.0000000000
2538 1       7.0739865379      10.0000000000
2539 1       7.2296850853      10.0000000000
2540 1       7.4910708664      11.0000000000
2541 1       7.7123858626       9.0000000000
2542 1       7.0009967476       8.0000000000
2543 1       7.4375580646      12.0000000000
2544 1       7.3278382627       9.0000000000
2545 1       7.2892812406      12.0000000000
2546 1       7.2225517737       8.0000000000
2547 1       7.1625712756       8.0000000000
2548 1       7.6319294708      10.0000000000
2549 1       7.4867297782       9.0000000000
2550 1       7.3041392198      11.0000000000
2551 1       7.7360161104      10.0000000000
2552 1       7.0971842077       9.0000000000
2553 1       6.6479138291      10.0000000000
2554 1       7.1529439490      10.0000000000
2555 1       7.5325668199       8.0000000000
2556 1       7.0031134385      11.0000000000
2557 1       6.9196239559       7.0000000000
2558 1       7.5538089473      12.0000000000
2559 1       7.2931637828      10.0000000000
2560 1       7.0372639353       9.0000000000
2561 1       7.6932586322       8.0000000000
2562 1       7.7767588831       8.0000000000
2563 1       7.1644711263      10.0000000000
2564 1       6.7868392136       9.0000000000
2565 1       7.0212972690       7.0000000000
2566 1       7.1855556960       8.0000000000
2567 1       7.0554419572       9.0000000000
2568 1       7.4804360927       8.0000000000
2569 1       7.2642392230       7.0000000000
2570 1       6.5734503931       8.0000000000
2571 1       7.4214425463       7.0000000000
2572 1       7.8163495274      11.0000000000
2573 1       7.2168244778       9.0000000000
2574 1       7.0435950081       9.0000000000
2575 1       6.8790629728       7.0000000000
2576 1       7.2116537724       9.0000000000
2577 1       7.0610727559       7.0000000000
2578 1       6.8498505399       9.0000000000
2579 1       6.7445849983       9.0000000000
2580 1       7.6443722688       9.0000000000
2581 1       7.4101052196      10.0000000000
2582 1       6.6929191418       8.0000000000
2583 1       7.1261526974      11.0000000000
2584 1       7.2248480363      10.0000000000
2585 1       7.1104048082       7.0000000000
2586 1       7.1681801748       7.0000000000
2587 1       7.9406362013      14.0000000000
2588 1       7.4661660453       9.0000000000
2589 1       7.0169894176       9.0000000000
2590 1       7.2843160021      10.0000000000
2591 1       6.9498791337      10.0000000000
2592 1       7.3350684892       9.0000000000
2593 1       6.8993148962       9.0000000000
2594 1       6.9035490017       9.0000000000
2595 1       6.6300093909       9.0000000000
2596 1       7.2797464076      11.0000000000
2597 1       7.6221794894       7.0000000000
2598 1       8.0340048968      11.0000000000
2599 1       7.3212958867      10.0000000000
2600 1       7.7335735365       9.0000000000
2601 1       8.3724685999       8.0000000000
2602 1       7.3800596130       8.0000000000
2603 1       7.2590462436       8.0000000000
2604 1       7.7938951500      10.0000000000
2605 1       6.6679322491       9.0000000000
2606 1       7.2333955530      10.0000000000
2607 1       7.6932788566      10.0000000000
2608 1       7.0501933115       9.0000000000
2609 1       7.6451085082      11.0000000000
2610 1       7.5296553082       8.0000000000
2611 1       7.1241336158       9.0000000000
2612 1       6.8301907469      10.0000000000
2613 1       7.2953506284       9.0000000000
2614 1       7.0293979382       9.0000000000
2615 1       6.9821937215       7.0000000000
2616 1       7.0418200439       9.0000000000
2617 1       6.5870673250       9.0000000000
2618 1       7.5954433165       9.0000000000
2619 1       7.4500039880       9.0000000000
2620 1       7.2091728996       9.0000000000
2621 1       7.4822938094      10.0000000000
2622 1       6.9866324645       8.0000000000
2623 1       7.2347531218       9.0000000000
2624 1       7.3486415286      11.0000000000
2625 1       7.0609183746       9.0000000000
2626 1       7.0881154074       8.0000000000
2627 1       7.4916535949       9.0000000000
2628 1       7.0829086815      10.0000000000
2629 1       7.2630461837       8.0000000000
2630 1       6.9226016013       9.0000000000
2631 1       7.8964061761       8.0000000000
2632 1       7.1308287698      11.0000000000
2633 1       7.9381058488       7.0000000000
2634 1       7.1217887279      10.0000000000
2635 1       6.8281598778       8.0000000000
2636 1       7.0199627645       8.0000000000
2637 1       7.2189654214       9.0000000000
2638 1       7.1652152553       8.0000000000
2639 1       7.2174647871       9.0000000000
2640 1       7.4602479066      11.0000000000
2641 1       7.1587283222       9.0000000000
2642 1       7.1665984489      11.0000000000
2643 1       6.9648277130       7.0000000000
2644 1       7.3244838318       7.0000000000
2645 1       7.2107076548      10.0000000000
2646 1       6.9260440582       8.0000000000
2647 1       7.2481252429       8.0000000000
2648 1       7.1284036161      10.0000000000
2649 1       7.7368991275      12.0000000000
2650 1       7.0880343373      10.0000000000
2651 1       6.8556895613       9.0000000000
2652 1       7.5485328152      11.0000000000
2653 1       7.7103185420      10.0000000000
2654 1       7.4594281954      12.0000000000
2655 1       7.5328556145      10.0000000000
2656 1       7.0780324000      10.0000000000
2657 1       7.3368377967       8.0000000000
2658 1       7.3564718820       9.0000000000
2659 1       7.0148576976      11.0000000000
2660 1       6.9033481758       8.0000000000
2661 1       7.4072203503      12.0000000000
2662 1       7.7030863844      11.0000000000
2663 1       7.2170559496      10.0000000000
2664 1       7.1254072076      11.0000000000
2665 1       7.0099609156       8.0000000000
2666 1       6.9576338735       6.0000000000
2667 1       7.6486614563       9.0000000000
2668 1       6.9060802006       9.0000000000
2669 1       7.2379129159      11.0000000000
2670 1       7.0134296991       8.0000000000
2671 1       6.9697692183       9.0000000000
2672 1       7.7616616800       8.0000000000
2673 1       7.1578017500       9.0000000000
2674 1       6.9134234468       8.0000000000
2675 1       7.2179175464      11.0000000000
2676 1       6.9835074007       7.0000000000
2677 1       7.4263207303      11.0000000000
2678 1       7.3083407268       9.0000000000
2679 1       7.4811748496      10.0000000000
2680 1       7.8981612419      11.0000000000
2681 1       7.3703276419      10.0000000000
2682 1       8.6957093238       9.0000000000
2683 1       7.4418533087      10.0000000000
2684 1       6.6614946188       7.0000000000
2685 1       6.7072547190       9.0000000000
2686 1       6.6651114325       8.0000000000
2687 1       7.0798539623       7.0000000000
2688 1       7.2177513325      11.0000000000
2689 1       7.5022546137      10.0000000000
2690 1       7.1021174066      10.0000000000
2691 1       7.1710572706       7.0000000000
2692 1       7.2033670119      10.0000000000
2693 1       7.0193825098       9.0000000000
2694 1       7.0125495473       9.0000000000
2695 1       7.4707798618       9.0000000000
2696 1       7.3788893279       8.0000000000
2697 1       7.4697567380       9.0000000000
2698 1       7.3464887965       9.0000000000
2699 1       7.2286015838       7.0000000000
2700 1       7.1590128956       8.0000000000
2701 1       6.5203935337      10.0000000000
2702 1       7.3509139860       9.0000000000
2703 1       7.1873782432      10.0000000000
2704 1       7.2643096563       8.0000000000
2705 1       6.7765010587       8.0000000000
2706 1       7.1503017957       9.0000000000
2707 1       6.6780528757      11.0000000000
2708 1       7.2013147642       9.0000000000
2709 1       7.7152441255      11.0000000000
2710 1       7.1935822020       8.0000000000
2711 1       6.9792541181      10.0000000000
2712 1       7.3698744791       8.0000000000
2713 1       7.4390900778       8.0000000000
2714 1       7.8756673229       8.0000000000
2715 1       6.9462818598      10.0000000000
2716 1       7.1450359779      10.0000000000
2717 1       7.6630167931      12.0000000000
2718 1       7.4963065249      11.0000000000
2719 1       6.4211187111      10.0000000000
2720 1       7.2989252586       9.0000000000
2721 1       7.3924339516       9.0000000000
2722 1       6.9143004069       9.0000000000
2723 1       7.6920798564       9.0000000000
2724 1       7.3587341626      10.0000000000
2725 1       7.3163889341      11.0000000000
2726 1       7.2882138370       9.0000000000
2727 1       7.3665309946      10.0000000000
2728 1       7.2781803095       9.0000000000
2729 1       6.9513229724      11.0000000000
2730 1       6.9076681140       8.0000000000
2731 1       7.4267831530      11.0000000000
2732 1       7.0893972591       8.0000000000
2733 1       7.3191728126       9.0000000000
2734 1       6.9312807568       7.0000000000
2735 1       7.4704463643       9.0000000000
2736 1       7.4522126424       7.0000000000
2737 1       7.4468484135      10.0000000000
2738 1       6.6846168667       8.0000000000
2739 1       7.4347705199       7.0000000000
2740 1       7.0721307921       8.0000000000
2741 1       7.2949261976       8.0000000000
2742 1       6.9353645115       8.0000000000
2743 1       8.0341002562       8.0000000000
2744 1       7.3336015370      10.0000000000
2745 1       7.1367265963      10.0000000000
2746 1       7.0209430032      10.0000000000
2747 1       7.2604771175      11.0000000000
2748 1       7.2419190580      10.0000000000
2749 1       7.5521410124      13.0000000000
2750 1       7.5713057847       9.0000000000
2751 1       7.7605590827      12.0000000000
2752 1       7.0665168515       8.0000000000
2753 1       7.3739571969       9.0000000000
2754 1       7.1610609372      10.0000000000
2755 1       7.5571608056       9.0000000000
2756 1       6.7083963108      12.0000000000
2757 1       7.3638398775      10.0000000000
2758 1       6.9172422070      10.0000000000
2759 1       7.1397058071      11.0000000000
2760 1       7.6174554395      10.0000000000
2761 1       7.2701037842       7.0000000000
2762 1       7.3490981104       9.0000000000
2763 1       7.3907240719       8.0000000000
2764 1       7.1821623874       9.0000000000
2765 1       6.9490372995      10.0000000000
2766 1       7.1911957143      10.0000000000
2767 1       6.8619335916       7.0000000000
2768 1       7.1834892545       8.0000000000
2769 1       6.7058651582      10.0000000000
2770 1       7.6572413290       9.0000000000
2771 1       7.4302252709      12.0000000000
2772 1       7.5943742207       7.0000000000
2773 1       7.4183661972       9.0000000000
2774 1       6.9840711811       9.0000000000
2775 1       7.3912554471       9.0000000000
2776 1       7.1611685608       7.0000000000
2777 1       7.1415719101       8.0000000000
2778 1       7.4359318690      11.0000000000
2779 1       7.7335763156      11.0000000000
2780 1       7.2539364071       9.0000000000
2781 1       7.6751258235      10.0000000000
2782 1       7.6898357116      10.0000000000
2783 1       7.0402221819       8.0000000000
2784 1       7.7444872132      11.0000000000
2785 1       7.3012245218       9.0000000000
2786 1       7.0627489121       8.0000000000
2787 1       7.0764508914       9.0000000000
2788 1       7.5416241126       9.0000000000
2789 1       7.1905394357       8.0000000000
2790 1       7.5799272265       9.0000000000
2791 1       7.6199470845      12.0000000000
2792 1       7.6868222952      10.0000000000
2793 1       7.5490390964      10.0000000000
2794 1       7.2641200111       7.0000000000
2795 1       7.8183784220      10.0000000000
2796 1       7.3163723012       9.0000000000
2797 1       6.7937626634       8.0000000000
2798 1       7.7179722402       8.0000000000
2799 1       7.9213426301      10.0000000000
2800 1       7.2990040363       9.0000000000
2801 1       7.4304170159       8.0000000000
2802 1       7.5190595292       9.0000000000
2803 1       6.7816538144      10.0000000000
2804 1       7.4451808365      10.0000000000
2805 1       7.9837952005      10.0000000000
2806 1       7.1664407386      11.0000000000
2807 1       7.1240807937       8.0000000000
2808 1       7.6155348784      10.0000000000
2809 1       7.4056182460      10.0000000000
2810 1       7.9267480322      10.0000000000
2811 1       8.8143403509      11.0000000000
2812 1       7.1586857555       9.0000000000
2813 1       7.6301547473      11.0000000000
2814 1       6.6015488747       9.0000000000
2815 1       7.1925205737      11.0000000000
2816 1       7.1458332650      11.0000000000
2817 1       7.2917237180       8.0000000000
2818 1       7.5053510556       9.0000000000
2819 1       7.4932455867      10.0000000000
2820 1       7.5092454652       9.0000000000
2821 1       6.9573435998      11.0000000000
2822 1       7.8031137765       8.0000000000
2823 1       7.3159490247      11.0000000000
2824 1       7.2475825033       7.0000000000
2825 1       6.9840646829      11.0000000000
2826 1       7.8376236180       9.0000000000
2827 1       6.8813304628       9.0000000000
2828 1       7.6671607511       9.0000000000
2829 1       7.2801491585       8.0000000000
2830 1       7.5998707950      11.0000000000
2831 1       6.9791789922      10.0000000000
2832 1       7.9444540020      11.0000000000
2833 1       6.7329805035       8.0000000000
2834 1       7.6750633521      11.0000000000
2835 1       7.2053750735       9.0000000000
2836 1       7.0628929250       9.0000000000
2837 1       7.6190424491      13.0000000000
2838 1       7.7438854328      10.0000000000
2839 1       7.4260346548       8.0000000000
2840 1       7.1786588248       9.0000000000
2841 1       7.1016877152      12.0000000000
2842 1       7.7102248255      10.0000000000
2843 1       7.0420200388       9.0000000000
2844 1       7.5274153600       9.0000000000
2845 1       6.6860363041      10.0000000000
2846 1       7.0076513455       9.0000000000
2847 1       7.3611922955      12.0000000000
2848 1       7.4729548774      12.0000000000
2849 1       7.5983839000       9.0000000000
2850 1       7.7923185218       8.0000000000
2851 1       6.6762686543       8.0000000000
2852 1       6.6931031360       8.0000000000
2853 1       7.4387175900       9.0000000000
2854 1       7.2374082843       7.0000000000
2855 1       7.7543041227       8.0000000000
2856 1       8.2216159776      12.0000000000
2857 1       7.5387225529       9.0000000000
2858 1       7.1510020130      12.0000000000
2859 1       7.8177426355      10.0000000000
2860 1       7.4137190498       8.0000000000
2861 1       7.3659046446       9.0000000000
2862 1       6.9351759859      10.0000000000
2863 1       6.8545598967       8.0000000000
2864 1       7.7528181964      10.0000000000
2865 1       7.4413938988      10.0000000000
2866 1       7.5880391691      10.0000000000
2867 1       7.7011185924       9.0000000000
2868 1       6.8409425471       9.0000000000
2869 1       7.3777480543       9.0000000000
2870 1       7.5976536337       9.0000000000
2871 1       7.4963247049       8.0000000000
2872 1       7.4579500000       9.0000000000
2873 1       7.4919912258       9.0000000000
2874 1       7.8685119652      10.0000000000
2875 1       7.4523094287      10.0000000000
2876 1       7.2669821614      12.0000000000
2877 1       7.5113067522      10.0000000000
2878 1       7.1351345296       8.0000000000
2879 1       7.5596813018       7.0000000000
2880 1       7.4704244467       9.0000000000
2881 1       7.7612770717       7.0000000000
2882 1       7.1662486391      10.0000000000
2883 1       7.4701716344      11.0000000000
2884 1       7.7351569178       9.0000000000
2885 1       6.7560724761      10.0000000000
2886 1       7.5079800040      12.0000000000
2887 1       7.6516450546       9.0000000000
2888 1       7.2798596342       9.0000000000
2889 1       7.2110873644      11.0000000000
2890 1       7.0181261390       9.0000000000
2891 1       7.1595156958       9.0000000000
2892 1       7.3135115085       8.0000000000
2893 1       7.2004024066       9.0000000000
2894 1       7.5015085454      10.0000000000
2895 1       7.1855802421      11.0000000000
2896 1       6.9157874984       8.0000000000
2897 1       7.4186264061      10.0000000000
2898 1       7.2814355936       7.0000000000
2899 1       8.0006278228      10.0000000000
2900 1       7.2945967044       9.0000000000
2901 1       7.6463538820      11.0000000000
2902 1       7.1711302566       9.0000000000
2903 1       7.3810782794      11.0000000000
2904 1       7.4654772248       8.0000000000
2905 1       7.0875842932       8.0000000000
2906 1       7.0596477583       9.0000000000
2907 1       6.9599672838      10.0000000000
2908 1       7.4145700301       9.0000000000
2909 1       6.9548312283       8.0000000000
2910 1       7.4620700990      10.0000000000
2911 1       7.3840564719       9.0000000000
2912 1       7.2833259698       9.0000000000
2913 1       7.6969745576       9.0000000000
2914 1       7.0396776413       7.0000000000
2915 1       7.1699253239       8.0000000000
2916 1       6.8396737298       8.0000000000
2917 1       7.0364780442       9.0000000000
2918 1       7.2920141501       8.0000000000
2919 1       6.9133047825       8.0000000000
2920 1       7.0066874688       8.0000000000
2921 1       7.2658125012      10.0000000000
2922 1       7.4087628140       8.0000000000
2923 1       7.3413780836      10.0000000000
2924 1       6.8853677146       8.0000000000
2925 1       7.6590031626       8.0000000000
2926 1       7.4619532285       9.0000000000
2927 1       7.4045661604       9.0000000000
2928 1       7.0052036895       8.0000000000
2929 1       7.6043351015       9.0000000000
2930 1       7.4558983852       8.0000000000
2931 1       6.6629919562      10.0000000000
2932 1       7.5006189971       6.0000000000
2933 1       7.0757256013      11.0000000000
2934 1       7.8333517610       8.0000000000
2935 1       7.0095208727       8.0000000000
2936 1       7.6327632671       9.0000000000
2937 1       7.4386719124      11.0000000000
2938 1       7.0368660913       9.0000000000
2939 1       7.8381574067      10.0000000000
2940 1       7.2333401532      10.0000000000
2941 1       7.2541540055      11.0000000000
2942 1       7.0840293904       8.0000000000
2943 1       7.4855411933      10.0000000000
2944 1       7.1972519087      10.0000000000
2945 1       6.9538400702       9.0000000000
2946 1       6.4820116138       8.0000000000
2947 1       7.4373127421      10.0000000000
2948 1       7.6599349974      10.0000000000
2949 1       6.6311783394       9.0000000000
2950 1       7.1708523774      10.0000000000
2951 1       7.3668211272       9.0000000000
2952 1       7.9159333968      11.0000000000
2953 1       7.4090948959       8.0000000000
2954 1       7.7854318936      10.0000000000
2955 1       7.2019615031       8.0000000000
2956 1       7.1861707158       9.0000000000
2957 1       7.0538223977      10.0000000000
2958 1       7.1778068598      10.0000000000
2959 1       6.9407212318       9.0000000000
2960 1       7.2260044465      10.0000000000
2961 1       6.9456747027       8.0000000000
2962 1       7.2253307468       8.0000000000
2963 1       7.1579049328      11.0000000000
2964 1       7.7207612187      10.0000000000
2965 1       7.3835366296       7.0000000000
2966 1       7.1038234872       9.0000000000
2967 1       7.3962358800      10.0000000000
2968 1       7.2981550237       9.0000000000
2969 1       6.9099224620      10.0000000000
2970 1       7.6433499811      10.0000000000
2971 1       7.2947739921       9.0000000000
2972 1       7.5208349025      10.0000000000
2973 1       7.2882326252       9.0000000000
2974 1       7.2706622890       7.0000000000
2975 1       7.0404244209       8.0000000000
2976 1       7.1535740913      12.0000000000
2977 1       7.3808277548       7.0000000000
2978 1       7.4706034104      10.0000000000
2979 1       7.2927891384      10.0000000000
2980 1       8.0087839065      10.0000000000
2981 1       7.8737508141       8.0000000000
2982 1       7.2030689131      10.0000000000
2983 1       7.0872950998       9.0000000000
2984 1       7.4168227946      11.0000000000
2985 1       7.3393900806       9.0000000000
2986 1       6.9341643438       9.0000000000
2987 1       7.3188373170       7.0000000000
2988 1       7.2853245094       8.0000000000
2989 1       6.7385067984       8.0000000000
2990 1       7.0414660209       8.0000000000
2991 1       7.2089316595       9.0000000000
2992 1       7.0947303185       9.0000000000
2993 1       6.7411887295       9.0000000000
2994 1       7.1880031534       8.0000000000
2995 1       6.9275436203       9.0000000000
2996 1       7.6845282149      10.0000000000
2997 1       6.8477564810       9.0000000000
2998 1       7.0188084377       9.0000000000
2999 1       6.8720463839       7.0000000000
3000 1       6.8394955648       9.0000000000
3001 1       7.2795632161       8.0000000000
3002 1       8.2870258104       9.0000000000
3003 1       7.1888043076      10.0000000000
3004 1       7.3404910243       7.0000000000
3005 1       7.7950803276      10.0000000000
3006 1       7.0320236666       9.0000000000
3007 1       7.2112877634       9.0000000000
3008 1       7.3390936342      11.0000000000
3009 1       7.4139097776       7.0000000000
3010 1       6.9940088733      11.0000000000
3011 1       6.8028506265       9.0000000000
3012 1       7.3923760457      10.0000000000
3013 1       7.3470653786      10.0000000000
3014 1       7.2271299562      12.0000000000
3015 1       7.5687375434       9.0000000000
3016 1       7.4906250848       8.0000000000
3017 1       7.3840862434       9.0000000000
3018 1       7.4784969131       8.0000000000
3019 1       7.0631427691      10.0000000000
3020 1       7.2640947233       9.0000000000
3021 1       7.2401570174      10.0000000000
3022 1       6.5552211975       9.0000000000
3023 1       7.3399938995      10.0000000000
3024 1       7.2127397839       9.0000000000
3025 1       7.2609210003      12.0000000000
3026 1       7.2044111696      10.0000000000
3027 1       7.8536114694      10.0000000000
3028 1       6.8715164215      10.0000000000
3029 1       7.1798375205       9.0000000000
3030 1       7.7462200193       9.0000000000
3031 1       7.7515064393       8.0000000000
3032 1       7.5116556738       9.0000000000
3033 1       6.8832203752      11.0000000000
3034 1       7.4524919972      10.0000000000
3035 1       6.8783716425       8.0000000000
3036 1       7.2692628566       6.0000000000
3037 1       7.5398082597       7.0000000000
3038 1       6.9973255089       8.0000000000
3039 1       7.9714719443      10.0000000000
3040 1       7.1590459712      12.0000000000
3041 1       7.3869799978      13.0000000000
3042 1       6.9972884033       9.0000000000
3043 1       6.7444323704       8.0000000000
3044 1       7.4897603409       7.0000000000
3045 1       7.2465504780       8.0000000000
3046 1       7.6836174602       9.0000000000
3047 1       7.7012499435      10.0000000000
3048 1       7.4099054977       8.0000000000
3049 1       7.4331235306      11.0000000000
3050 1       6.8918634012      10.0000000000
3051 1       7.1486803018      10.0000000000
3052 1       7.4484490441      10.0000000000
3053 1       7.4876292535      11.0000000000
3054 1       6.9321363707      11.0000000000
3055 1       7.4875625007       9.0000000000
3056 1       7.8458796846       8.0000000000
3057 1       7.3188565530      11.0000000000
3058 1       6.3999342566       8.0000000000
3059 1       7.3431293168       9.0000000000
3060 1       7.2036730144       9.0000000000
3061 1       6.6191792168       8.0000000000
3062 1       7.2310058611      10.0000000000
3063 1       7.1979409794      11.0000000000
3064 1       7.3861749899       8.0000000000
3065 1       7.1723286881       8.0000000000
3066 1       6.7420880348       8.0000000000
3067 1       6.8790296021      11.0000000000
3068 1       7.0495703192       9.0000000000
3069 1       7.7303210562       7.0000000000
3070 1       7.5326995931       8.0000000000
3071 1       7.4206449013       8.0000000000
3072 1       6.7917816042      10.0000000000
3073 1       7.2316477598       9.0000000000
3074 1       7.0808769650       9.0000000000
3075 1       7.1947074295       9.0000000000
3076 1       7.3724999781      12.0000000000
3077 1       7.3358950055      10.0000000000
3078 1       6.7898453296       9.0000000000
3079 1       7.2808627844      10.0000000000
3080 1       7.1458808329       9.0000000000
3081 1       6.7623447490       8.0000000000
3082 1       6.9597250564       9.0000000000
3083 1       7.9107755756       9.0000000000
3084 1       7.1875404814       9.0000000000
3085 1       7.4789354455       8.0000000000
3086 1       7.4007504313       8.0000000000
3087 1       7.1317723586       8.0000000000
3088 1       7.3651256495      11.0000000000
3089 1       7.1442760301      10.0000000000
3090 1       7.2248369394       9.0000000000
3091 1       6.8006857052       8.0000000000
3092 1       7.5257641869       9.0000000000
3093 1       7.4901030093      10.0000000000
3094 1       7.1049686100      10.0000000000
3095 1       7.4629812226      10.0000000000
3096 1       7.1224182755       9.0000000000
3097 1       7.1036366412      10.0000000000
3098 1       7.0835634686      11.0000000000
3099 1       7.0384116533      10.0000000000
3100 1       7.6036181399      11.0000000000
3101 1       7.2750301689       9.0000000000
3102 1       6.8327758617       8.0000000000
3103 1       7.3396165865      10.0000000000
3104 1       6.7802797332       9.0000000000
3105 1       7.4446235535       9.0000000000
3106 1       7.1665536787       9.0000000000
3107 1       7.7693370033       9.0000000000
3108 1       7.1336850287       8.0000000000
3109 1       6.9754049584       8.0000000000
3110 1       6.8645500054       9.0000000000
3111 1       7.3931713926       9.0000000000
3112 1       7.8890562100       8.0000000000
3113 1       6.4859827334       9.0000000000
3114 1       7.1427831734       9.0000000000
3115 1       7.4793568840       9.0000000000
3116 1       7.3842683354       9.0000000000
3117 1       7.6854308935      10.0000000000
3118 1       8.0302113953       9.0000000000
3119 1       7.4416478889      10.0000000000
3120 1       7.5330932746      11.0000000000
3121 1       7.1249217771       9.0000000000
3122 1       7.4719074269       9.0000000000
3123 1       7.3885596719       9.0000000000
3124 1       7.0247855839       8.0000000000
3125 1       7.5561326809       9.0000000000
3126 1       7.0749206227      10.0000000000
3127 1       7.2069018468       9.0000000000
3128 1       7.4074836516       8.0000000000
3129 1       7.3734349504      10.0000000000
3130 1       7.0870213873       8.0000000000
3131 1       6.8140342134       9.0000000000
3132 1       7.2315573515       7.0000000000
3133 1       6.9351357094       9.0000000000
3134 1       6.9888617761      12.0000000000
3135 1       6.6556578518       7.0000000000
3136 1       7.7507863449       9.0000000000
3137 1       6.9125017488       9.0000000000
3138 1       6.9420912116       8.0000000000
3139 1       7.5434951438       9.0000000000
3140 1       7.7612723228      10.0000000000
3141 1       7.1484433534       9.0000000000
3142 1       7.3114718489      10.0000000000
3143 1       7.3661883785      10.0000000000
3144 1       7.5048629230       9.0000000000
3145 1       7.2481639502      10.0000000000
3146 1       6.5999047167      12.0000000000
3147 1       7.7836124353       9.0000000000
3148 1       7.0287460493       9.0000000000
3149 1       7.5100607268      12.0000000000
3150 1       8.3656602637      12.0000000000
3151 1       7.4995634044       9.0000000000
3152 1       7.5698752540       9.0000000000
3153 1       7.1901612502      10.0000000000
3154 1       6.6412994088       9.0000000000
3155 1       7.7635317816      10.0000000000
3156 1       8.0599955046      11.0000000000
3157 1       7.6489740049       9.0000000000
3158 1       7.1721680428      11.0000000000
3159 1       7.3332788609       7.0000000000
3160 1       7.0611582813       9.0000000000
3161 1       6.9461914504      10.0000000000
3162 1       7.5259040720       8.0000000000
3163 1       7.2221487774      11.0000000000
3164 1       6.8696055948       9.0000000000
3165 1       7.2466815054       9.0000000000
3166 1       7.3801766924       9.0000000000
3167 1       7.4984410853       7.0000000000
3168 1       6.8716599941      10.0000000000
3169 1       7.2561854677      11.0000000000
3170 1       7.3822608956      10.0000000000
3171 1       6.6593542751       9.0000000000
3172 1       7.3420346461      10.0000000000
3173 1       7.6839386721      13.0000000000
3174 1       6.9157327399      10.0000000000
3175 1       7.2597167511      10.0000000000
3176 1       7.3129325918       9.0000000000
3177 1       7.2651877572       9.0000000000
3178 1       7.3913939119       8.0000000000
3179 1       7.5562141815      11.0000000000
3180 1       7.1450962913      12.0000000000
3181 1       7.9806769522      10.0000000000
3182 1       7.4650432235       9.0000000000
3183 1       7.1525890765       8.0000000000
3184 1       7.1923705444       8.0000000000
3185 1       7.1942447506       9.0000000000
3186 1       6.9452326358       8.0000000000
3187 1       7.2371031748       7.0000000000
3188 1       7.1631718124       8.0000000000
3189 1       7.7409146499       9.0000000000
3190 1       7.3131637226      10.0000000000
3191 1       7.1355710346      12.0000000000
3192 1       6.7937772245       8.0000000000
3193 1       7.1663740398      10.0000000000
3194 1       7.3714199086       9.0000000000
3195 1       7.2514099582       9.0000000000
3196 1       7.0306137640      10.0000000000
3197 1       7.4399867003       8.0000000000
3198 1       7.4925506145       8.0000000000
3199 1       7.1776296652       7.0000000000
3200 1       7.2763344830       9.0000000000
3201 1       7.1528986321      12.0000000000
3202 1       7.3738940565      11.0000000000
3203 1       7.2249704094      10.0000000000
3204 1       7.6360193878      10.0000000000
3205 1       7.3789454832       9.0000000000
3206 1       7.3455694223       9.0000000000
3207 1       7.5123131842       9.0000000000
3208 1       7.0441384271       9.0000000000
3209 1       7.0244119468       8.0000000000
3210 1       7.3912627144       9.0000000000
3211 1       7.2221419292      10.0000000000
3212 1       7.4169882030       8.0000000000
3213 1       7.3933336098       9.0000000000
3214 1       7.3467636514       9.0000000000
3215 1       7.2712774590      10.0000000000
3216 1       7.4320898036       9.0000000000
3217 1       6.9513376196       8.0000000000
3218 1       8.0003784057      11.0000000000
3219 1       6.9081577836       8.0000000000
3220 1       7.7266174617      10.0000000000
3221 1       7.2937359121       9.0000000000
3222 1       7.2385283279       7.0000000000
3223 1       7.2454009437       8.0000000000
3224 1       7.5007430383       8.0000000000
3225 1       7.1165987737       9.0000000000
3226 1       7.3496051064       8.0000000000
3227 1       6.8703056437       8.0000000000
3228 1       7.7439634764      12.0000000000
3229 1       7.3477263865       9.0000000000
3230 1       7.0698248879       9.0000000000
3231 1       7.6219451325       9.0000000000
3232 1       7.4300547946      11.0000000000
3233 1       7.5318678520       8.0000000000
3234 1       6.9349704418       9.0000000000
3235 1       7.4755499966      10.0000000000
3236 1       7.5180041332       9.0000000000
3237 1       7.0011455842       9.0000000000
3238 1       7.9999999546      11.0000000000
3239 1       7.3827541738      10.0000000000
3240 1       6.6725739274       9.0000000000
3241 1       7.1935587097      11.0000000000
3242 1       7.4840334865       8.0000000000
3243 1       7.5529834156      11.0000000000
3244 1       6.6424918031       8.0000000000
3245 1       8.0073771164       9.0000000000
3246 1       6.7049611358      10.0000000000
3247 1       6.7651974982      10.0000000000
3248 1       7.3222247069       9.0000000000
3249 1       6.9170964386      10.0000000000
3250 1       7.0824498508       9.0000000000
3251 1       7.2738716181       7.0000000000
3252 1       7.3612499967       8.0000000000
3253 1       7.0752039376      10.0000000000
3254 1       7.2965451419       9.0000000000
3255 1       7.1107760865       9.0000000000
3256 1       7.4930514307      11.0000000000
3257 1       7.2982453383       9.0000000000
3258 1       6.3926459994       9.0000000000
3259 1       7.5237235338      10.0000000000
3260 1       7.0047733919       9.0000000000
3261 1       6.9060211609      10.0000000000
3262 1       6.8333167177      10.0000000000
3263 1       6.7165899409       9.0000000000
3264 1       7.1543948198      12.0000000000
3265 1       7.0371532600       9.0000000000
3266 1       7.2629835227       9.0000000000
3267 1       7.3313433977      11.0000000000
3268 1       7.4552145796       8.0000000000
3269 1       7.1405364855      11.0000000000
3270 1       7.2607478903      10.0000000000
3271 1       7.5896224373       8.0000000000
3272 1       7.2055082772       9.0000000000
3273 1       7.2157505928      11.0000000000
3274 1       7.5873618234      11.0000000000
3275 1       7.1257886285      11.0000000000
3276 1       7.7938915378       9.0000000000
3277 1       6.9997330224       7.0000000000
3278 1       8.0683542512      11.0000000000
3279 1       7.4801779771       9.0000000000
3280 1       7.1342780983       9.0000000000
3281 1       7.2308677236      12.0000000000
3282 1       6.9128029477       9.0000000000
3283 1       7.4318885285      10.0000000000
3284 1       7.5449025787       8.0000000000
3285 1       7.0407699397      12.0000000000
3286 1       8.0123768339      10.0000000000
3287 1       7.6222114777      11.0000000000
3288 1       7.7360610279      10.0000000000
3289 1       7.2164316844       8.0000000000
3290 1       7.1705094274      10.0000000000
3291 1       7.0473692726       8.0000000000
3292 1       7.0219364538      10.0000000000
3293 1       7.5203671605      12.0000000000
3294 1       7.3107281589      10.0000000000
3295 1       7.3038346766       9.0000000000
3296 1       7.4651713156      10.0000000000
3297 1       7.1852208283       9.0000000000
3298 1       7.8185541599       9.0000000000
3299 1       7.2109585499      11.0000000000
3300 1       8.0678212125      10.0000000000
3301 1       7.2535017722       9.0000000000
3302 1       7.1251345244       7.0000000000
3303 1       7.5630844485       9.0000000000
3304 1       7.3025152151       9.0000000000
3305 1       7.3277387400      11.0000000000
3306 1       7.6964813423      11.0000000000
3307 1       7.0296690413       9.0000000000
3308 1       7.8346470093      11.0000000000
3309 1       7.1033644406      10.0000000000
3310 1       7.7964934245       9.0000000000
3311 1       7.5338470577       8.0000000000
3312 1       8.1109082445      11.0000000000
3313 1       6.6686048787      10.0000000000
3314 1       7.1171531773      10.0000000000
3315 1       7.4021944811       9.0000000000
3316 1       8.0430049781       9.0000000000
3317 1       7.1768468116      10.0000000000
3318 1       6.5863624737       9.0000000000
3319 1       7.3404865634      12.0000000000
3320 1       7.5665817023       9.0000000000
3321 1       7.3917214196       9.0000000000
3322 1       7.4727661556       9.0000000000
3323 1       7.1475247836      10.0000000000
3324 1       7.4457807288       8.0000000000
3325 1       7.5856393287       8.0000000000
3326 1       7.3818007625       9.0000000000
3327 1       7.1909786197       9.0000000000
3328 1       7.1653362816       8.0000000000
3329 1       7.6999671149      11.0000000000
3330 1       7.6331292882      10.0000000000
3331 1       7.4470808753       9.0000000000
3332 1       6.7774270366       9.0000000000
3333 1       6.9704823531       9.0000000000
3334 1       6.8268871587       9.0000000000
3335 1       7.2845656694       8.0000000000
3336 1       6.8050293690       9.0000000000
3337 1       7.2458373400       8.0000000000
3338 1       6.8070991008      12.0000000000
3339 1       6.6537227287      11.0000000000
3340 1       7.1932621447      12.0000000000
3341 1       6.9580295013      10.0000000000
3342 1       6.7145708459       7.0000000000
3343 1       7.4076685094       8.0000000000
3344 1       6.9503239045      11.0000000000
3345 1       6.6994914437       8.0000000000
3346 1       6.8942472600       9.0000000000
3347 1       7.2498503421      11.0000000000
3348 1       7.2694203416      12.0000000000
3349 1       6.8854277989      11.0000000000
3350 1       7.0674971337       8.0000000000
3351 1       7.3107441102       9.0000000000
3352 1       7.4660569199       9.0000000000
3353 1       7.2031233164       9.0000000000
3354 1       7.6585520238      10.0000000000
3355 1       6.9850511669       8.0000000000
3356 1       7.4376485976       9.0000000000
3357 1       7.1284495487      10.0000000000
3358 1       7.7104576064       9.0000000000
3359 1       8.0992803306      10.0000000000
3360 1       7.7699300508       9.0000000000
3361 1       6.8160111274       9.0000000000
3362 1       7.2163436848      10.0000000000
3363 1       7.1267823889       8.0000000000
3364 1       7.7138900187      11.0000000000
3365 1       7.6682220001      12.0000000000
3366 1       7.6418720753       9.0000000000
3367 1       6.9357775622       8.0000000000
3368 1       7.2939911785      10.0000000000
3369 1       7.1416484864       8.0000000000
3370 1       7.4132930748       9.0000000000
3371 1       8.1321551498      10.0000000000
3372 1       7.3600872954      10.0000000000
3373 1       6.9384951568       8.0000000000
3374 1       7.6568072224      10.0000000000
3375 1       6.9565010280       8.0000000000
3376 1       7.3396228085       9.0000000000
3377 1       7.2865185074      10.0000000000
3378 1       7.5685158195       7.0000000000
3379 1       7.1345208105      10.0000000000
3380 1       7.4994574358       9.0000000000
3381 1       7.0020298682       9.0000000000
3382 1       7.4150746098       8.0000000000
3383 1       7.1712179897      10.0000000000
3384 1       6.8498739556       9.0000000000
3385 1       7.2418165258       9.0000000000
3386 1       7.2116348131       8.0000000000
3387 1       6.8328578927       8.0000000000
3388 1       7.2463147875      10.0000000000
3389 1       7.3642304499       9.0000000000
3390 1       7.2224309617      10.0000000000
3391 1       6.9220342758      10.0000000000
3392 1       7.3687839127       9.0000000000
3393 1       6.9918708428       8.0000000000
3394 1       7.2172125274      10.0000000000
3395 1       7.7033310141       9.0000000000
3396 1       7.1715285492      11.0000000000
3397 1       7.0573840130       8.0000000000
3398 1       7.3858846815       6.0000000000
3399 1       7.6900642047       8.0000000000
3400 1       7.0341040182      11.0000000000
3401 1       7.2772564689       9.0000000000
3402 1       7.0960657652       8.0000000000
3403 1       8.1499037350       7.0000000000
3404 1       7.5586913697      11.0000000000
3405 1       7.3962656452       9.0000000000
3406 1       7.3502676407       9.0000000000
3407 1       7.1082667147       8.0000000000
3408 1       7.0936866937       8.0000000000
3409 1       7.8473490285      11.0000000000
3410 1       6.9917904285       9.0000000000
3411 1       7.3851404524       9.0000000000
3412 1       7.6205071752      11.0000000000
3413 1       6.9010657379       7.0000000000
3414 1       7.9899326318      10.0000000000
3415 1       7.4182058768       9.0000000000
3416 1       6.9668298779       8.0000000000
3417 1       7.3943574568       9.0000000000
3418 1       7.0390121937       7.0000000000
3419 1       7.0887167970       7.0000000000
3420 1       7.7873306235      11.0000000000
3421 1       7.7343339120       8.0000000000
3422 1       7.2069387219      10.0000000000
3423 1       7.1620539831       9.0000000000
3424 1       7.4968044293       9.0000000000
3425 1       7.6153868982       8.0000000000
3426 1       7.5987143045      10.0000000000
3427 1       7.4512579991      10.0000000000
3428 1       7.2772576718       9.0000000000
3429 1       6.8426423546       8.0000000000
3430 1       6.5425422522      10.0000000000
3431 1       7.3290499281      10.0000000000
3432 1       6.9379808140       9.0000000000
3433 1       6.7707309599       8.0000000000
3434 1       7.3686600197       8.0000000000
3435 1       7.8303606060      10.0000000000
3436 1       7.2735765459       9.0000000000
3437 1       7.4677294048       9.0000000000
3438 1       8.0188174457       9.0000000000
3439 1       7.0098872116       7.0000000000
3440 1       7.5402748129       9.0000000000
3441 1       7.2439454189      12.0000000000
3442 1       7.3357014340      12.0000000000
3443 1       7.8940168159      11.0000000000
3444 1       7.4514894645       9.0000000000
3445 1       7.5544027825      10.0000000000
3446 1       7.2800610185       9.0000000000
3447 1       7.4069473201      11.0000000000
3448 1       7.5149942990      10.0000000000
3449 1       7.3988786682       9.0000000000
3450 1       7.5885441629      10.0000000000
3451 1       6.9319344801       8.0000000000
3452 1       7.3761072676      11.0000000000
3453 1       7.9291730324      11.0000000000
3454 1       6.9654003477       8.0000000000
3455 1       7.2792364339       9.0000000000
3456 1       7.1724482263       8.0000000000
3457 1       6.5174890291       8.0000000000
3458 1       7.3001850959       9.0000000000
3459 1       7.4912309731       9.0000000000
3460 1       7.3240840666       9.0000000000
3461 1       6.9721927147       8.0000000000
3462 1       7.5304119930       9.0000000000
3463 1       7.6067333293       9.0000000000
3464 1       6.7358225708       9.0000000000
3465 1       7.3626332069      10.0000000000
3466 1       7.3451282121       8.0000000000
3467 1       7.9449033787      11.0000000000
3468 1       7.4680908342       8.0000000000
3469 1       7.2799951335      12.0000000000
3470 1       7.7177690072      11.0000000000
3471 1       7.0796517239      10.0000000000
3472 1       7.4527593322      12.0000000000
3473 1       6.8054572774       7.0000000000
3474 1       7.3012110579      10.0000000000
3475 1       7.5032570397       8.0000000000
3476 1       7.2351771899       9.0000000000
3477 1       7.3623027640      11.0000000000
3478 1       7.3481702162       9.0000000000
3479 1       7.5195587114       7.0000000000
3480 1       7.9074417959      12.0000000000
3481 1       7.4741120195      12.0000000000
3482 1       6.9063219335       9.0000000000
3483 1       7.3071779250      11.0000000000
3484 1       7.9317249700      10.0000000000
3485 1       6.9843949651       8.0000000000
3486 1       7.2674479841       9.0000000000
3487 1       7.0373691834       9.0000000000
3488 1       7.2618521167       9.0000000000
3489 1       7.6994111272      10.0000000000
3490 1       7.3456679839      10.0000000000
3491 1       6.7803364945      10.0000000000
3492 1       7.4916617957       9.0000000000
3493 1       7.4947433675       8.0000000000
3494 1       6.8543235267      10.0000000000
3495 1       7.0309486734       8.0000000000
3496 1       7.6147566811       9.0000000000
3497 1       7.3479521530       8.0000000000
3498 1       7.6406829528      10.0000000000
3499 1       6.6662228038       8.0000000000
3500 1       7.0672892158       8.0000000000
3501 1       7.2891150320       9.0000000000
3502 1       7.1315968121      10.0000000000
3503 1       7.4945299990       9.0000000000
3504 1       6.8629562961       8.0000000000
3505 1       7.0778307994       9.0000000000
3506 1       7.5914832650       9.0000000000
3507 1       7.3025235715       9.0000000000
3508 1       7.2202441495       9.0000000000
3509 1       6.9757596994       9.0000000000
3510 1       7.5716775904       9.0000000000
3511 1       7.2369637913       7.0000000000
3512 1       7.3807632864      10.0000000000
3513 1       7.1673253244      10.0000000000
3514 1       6.6571652235       8.0000000000
3515 1       7.6338260589       7.0000000000
3516 1       7.2430707691       9.0000000000
3517 1       7.3299496793       9.0000000000
3518 1       6.6823067766       8.0000000000
3519 1       7.2684928286      10.0000000000
3520 1       7.4578739551      11.0000000000
3521 1       7.4104358793       9.0000000000
3522 1       7.6067487211       8.0000000000
3523 1       6.8375729956       9.0000000000
3524 1       7.4100144967       8.0000000000
3525 1       7.1085091255       8.0000000000
3526 1       6.9021194413      10.0000000000
3527 1       7.0643513971       9.0000000000
3528 1       7.3644199399       8.0000000000
3529 1       7.3064120342      11.0000000000
3530 1       7.1400699685       9.0000000000
3531 1       6.8182369889      11.0000000000
3532 1       7.2097816224       9.0000000000
3533 1       7.0412240229      10.0000000000
3534 1       7.4580982405       9.0000000000
3535 1       7.4234833092      11.0000000000
3536 1       7.4435820929      11.0000000000
3537 1       7.4358791759       8.0000000000
3538 1       7.3324183216      10.0000000000
3539 1       7.6084398186       8.0000000000
3540 1       7.4037777896      10.0000000000
3541 1       7.5193216198       7.0000000000
3542 1       6.7717290436       9.0000000000
3543 1       7.8960785758       9.0000000000
3544 1       6.9215173056      10.0000000000
3545 1       6.9937804943       8.0000000000
3546 1       7.4589470483      10.0000000000
3547 1       7.1152919303      11.0000000000
3548 1       7.5080294820       7.0000000000
3549 1       7.1585825405       9.0000000000
3550 1       6.9023193122       7.0000000000
3551 1       7.3450267273       9.0000000000
3552 1       7.2937134018       8.0000000000
3553 1       7.2859454254       8.0000000000
3554 1       7.1220377108       8.0000000000
3555 1       6.7439921884      10.0000000000
3556 1       7.1325724796       8.0000000000
3557 1       7.2857109940       7.0000000000
3558 1       7.3367449245       9.0000000000
3559 1       7.0272202779       9.0000000000
3560 1       7.5293580684      12.0000000000
3561 1       6.9625456455       9.0000000000
3562 1       7.1586009763       9.0000000000
3563 1       6.8967632594       8.0000000000
3564 1       7.5778274003      10.0000000000
3565 1       7.3774941672       7.0000000000
3566 1       6.9981100901       9.0000000000
3567 1       7.9745654345       9.0000000000
3568 1       8.3882764994      12.0000000000
3569 1       7.8322019201      11.0000000000
3570 1       7.1626793877       9.0000000000
3571 1       6.8045352981       7.0000000000
3572 1       6.8945441405       9.0000000000
3573 1       6.8903613966       8.0000000000
3574 1       7.3462440470      10.0000000000
3575 1       6.9499116506      11.0000000000
3576 1       7.8371368958      10.0000000000
3577 1       6.9830047704       7.0000000000
3578 1       7.2277476272      11.0000000000
3579 1       6.9727094124       9.0000000000
3580 1       7.2653590137       8.0000000000
3581 1       7.5429138713       9.0000000000
3582 1       7.4418561179      10.0000000000
3583 1       7.4485255321      10.0000000000
3584 1       7.5846927561      11.0000000000
3585 1       7.1486023481       7.0000000000
3586 1       7.1693269467      10.0000000000
3587 1       7.4483107518      12.0000000000
3588 1       7.1197335586       9.0000000000
3589 1       6.8481258784       8.0000000000
3590 1       7.0209184635      13.0000000000
3591 1       7.5246844547      11.0000000000
3592 1       7.1847543366       9.0000000000
3593 1       7.4971913099       8.0000000000
3594 1       6.9051879641       9.0000000000
3595 1       7.4299714350       9.0000000000
3596 1       7.1582043300      11.0000000000
3597 1       7.3231674186      10.0000000000
3598 1       7.2694613757       9.0000000000
3599 1       7.0191044164       8.0000000000
3600 1       7.3192717707       9.0000000000
3601 1       6.9180145917      12.0000000000
3602 1       7.4090084353      11.0000000000
3603 1       7.2802550015       7.0000000000
3604 1       7.2582498285      13.0000000000
3605 1       7.4738310614      11.0000000000
3606 1       7.2340363406       9.0000000000
3607 1       7.6420393096       9.0000000000
3608 1       7.5524714882       9.0000000000
3609 1       7.6267010641      10.0000000000
3610 1       7.2057123232      10.0000000000
3611 1       7.0008609837       8.0000000000
3612 1       6.9333402047       8.0000000000
3613 1       7.6161650990      10.0000000000
3614 1       8.0224112731      10.0000000000
3615 1       7.0982929591      10.0000000000
3616 1       7.2082683656       9.0000000000
3617 1       7.4928946230       9.0000000000
3618 1       6.6467036926      10.0000000000
3619 1       7.4986390680      10.0000000000
3620 1       7.5470368798       9.0000000000
3621 1       7.5079048298       9.0000000000
3622 1       7.9565898916       9.0000000000
3623 1       7.3455035439       9.0000000000
3624 1       7.1797017047       8.0000000000
3625 1       6.7750249269       8.0000000000
3626 1       7.1670236158       9.0000000000
3627 1       7.5187622347      10.0000000000
3628 1       6.9729270195      11.0000000000
3629 1       7.0764411364      10.0000000000
3630 1       7.1892962426       9.0000000000
3631 1       6.7715719043       8.0000000000
3632 1       7.1632431948      10.0000000000
3633 1       6.7634740417       9.0000000000
3634 1       8.2450253985       9.0000000000
3635 1       7.7294122777      10.0000000000
3636 1       6.8811281736       7.0000000000
3637 1       6.9885730020      11.0000000000
3638 1       7.2126102070      11.0000000000
3639 1       8.1395272854      11.0000000000
3640 1       6.8213351351       8.0000000000
3641 1       7.5794982354       9.0000000000
3642 1       7.5892794614      12.0000000000
3643 1       7.3202373741       9.0000000000
3644 1       7.3715534012       8.0000000000
3645 1       7.3686160813      11.0000000000
3646 1       7.5008172058      10.0000000000
3647 1       7.3202986949       9.0000000000
3648 1       6.9771243980       7.0000000000
3649 1       6.9618055801       8.0000000000
3650 1       7.3695825132       9.0000000000
3651 1       7.4709425843      11.0000000000
3652 1       7.7713355795      11.0000000000
3653 1       7.6476256164       8.0000000000
3654 1       7.1061578631      10.0000000000
3655 1       7.0812895758       9.0000000000
3656 1       7.3397589697       8.0000000000
3657 1       6.8968852236      10.0000000000
3658 1       7.5432310909       8.0000000000
3659 1       7.8861173854      10.0000000000
3660 1       7.6864623634      13.0000000000
3661 1       7.4075402910      11.0000000000
3662 1       6.9976919711       9.0000000000
3663 1       7.5232759984       8.0000000000
3664 1       7.7955504097      11.0000000000
3665 1       7.3396885750       9.0000000000
3666 1       7.4495710139       9.0000000000
3667 1       6.9458216601      10.0000000000
3668 1       7.5457364360      11.0000000000
3669 1       7.4840207651       8.0000000000
3670 1       7.4017556964       9.0000000000
3671 1       6.9875284445       7.0000000000
3672 1       7.1696975256       8.0000000000
3673 1       7.2347855438      10.0000000000
3674 1       7.2087869784      10.0000000000
3675 1       7.2254554955       9.0000000000
3676 1       6.8604055779      12.0000000000
3677 1       7.1168999050       8.0000000000
3678 1       7.0795730904       9.0000000000
3679 1       7.0112508511       7.0000000000
3680 1       7.1714243748       8.0000000000
3681 1       6.6494186669       6.0000000000
3682 1       7.4618993120       9.0000000000
3683 1       7.5549516660       9.0000000000
3684 1       7.6653372493       9.0000000000
3685 1       7.2527591598       9.0000000000
3686 1       6.8396205504       8.0000000000
3687 1       6.6772524655       9.0000000000
3688 1       6.9766939017       8.0000000000
3689 1       7.7899516943      10.0000000000
3690 1       7.2947013738       8.0000000000
3691 1       7.2271155303      12.0000000000
3692 1       7.3898958808      11.0000000000
3693 1       7.2871695256      10.0000000000
3694 1       7.1138444007       8.0000000000
3695 1       7.5753343400       9.0000000000
3696 1       7.6103349953       8.0000000000
3697 1       7.0558653537       9.0000000000
3698 1       6.9984190121       8.0000000000
3699 1       6.9092933719      10.0000000000
3700 1       7.4618838826       8.0000000000
3701 1       7.8437932634      10.0000000000
3702 1       7.3300426712      12.0000000000
3703 1       7.5957351658      11.0000000000
3704 1       7.4099202362       9.0000000000
3705 1       7.5384042130       7.0000000000
3706 1       7.6615875688       8.0000000000
3707 1       7.6035422111       8.0000000000
3708 1       7.9525308467      10.0000000000
3709 1       7.5019120055       9.0000000000
3710 1       7.4795498843       9.0000000000
3711 1       7.4843949450      11.0000000000
3712 1       7.6774395401       9.0000000000
3713 1       6.8682831999       8.0000000000
3714 1       7.4248546295      10.0000000000
3715 1       7.7017084615       9.0000000000
3716 1       7.9932598179      10.0000000000
3717 1       7.3709220492      10.0000000000
3718 1       7.2494476818       9.0000000000
3719 1       7.3860658278       9.0000000000
3720 1       7.0739099722      11.0000000000
3721 1       7.7330062175      11.0000000000
3722 1       6.9796045594      10.0000000000
3723 1       7.1009071850       7.0000000000
3724 1       7.1310257691       9.0000000000
3725 1       7.1587612627      10.0000000000
3726 1       7.6035826422      10.0000000000
3727 1       7.9480313850      11.0000000000
3728 1       7.2930931442      10.0000000000
3729 1       7.1942456337      10.0000000000
3730 1       7.4573704941      10.0000000000
3731 1       6.9284267949      10.0000000000
3732 1       7.4786510679       9.0000000000
3733 1       7.1983931541       8.0000000000
3734 1       6.8886224704       9.0000000000
3735 1       7.7350274403      11.0000000000
3736 1       7.6368654589       8.0000000000
3737 1       7.1616735454      11.0000000000
3738 1       7.3196775985       9.0000000000
3739 1       7.5251014576      10.0000000000
3740 1       7.2960235968       9.0000000000
3741 1       7.1833136172       9.0000000000
3742 1       7.2876794796       8.0000000000
3743 1       7.7427930719       8.0000000000
3744 1       7.1487863399       9.0000000000
3745 1       7.4388101832      10.0000000000
3746 1       7.0629220237      11.0000000000
3747 1       7.1790087426       7.0000000000
3748 1       7.4312365556       9.0000000000
3749 1       7.2837552918       9.0000000000
3750 1       7.8117502940       8.0000000000
3751 2      16.0256767050      18.0000000000
3752 2      16.5054608718      19.0000000000
3753 2      15.0182264665      17.0000000000
3754 2      14.2489145561      14.0000000000
3755 2      14.6074257832      18.0000000000
3756 2      14.7889388567      21.0000000000
3757 2      15.6228567138      17.0000000000
3758 2      16.3763454937      19.0000000000
3759 2      11.2330494300      17.0000000000
3760 2      14.6906905823      19.0000000000
3761 2      16.0283687296      20.0000000000
3762 2      18.3296685003      18.0000000000
3763 2      13.3300207243      22.0000000000
3764 2      15.9164406097      21.0000000000
3765 2      13.8944068166      17.0000000000
3766 2      15.1073670662      17.0000000000
3767 2      12.1868000086      15.0000000000
3768 2      15.9718857077      16.0000000000
3769 2      17.9168045020      18.0000000000
3770 2      13.8031290349      14.0000000000
3771 2      15.0946487714      17.0000000000
3772 2      15.3219067953      18.0000000000
3773 2      15.9062928003      20.0000000000
3774 2      16.2261071970      18.0000000000
3775 2      15.7787582663      17.0000000000
3776 2      15.4844528176      17.0000000000
3777 2      17.0396956197      22.0000000000
3778 2      14.2563399082      17.0000000000
3779 2      16.6115329141      19.0000000000
3780 2      14.1226673344      20.0000000000
3781 2      13.7369353118      19.0000000000
3782 2      16.6462707702      16.0000000000
3783 2      16.3193883684      19.0000000000
3784 2      16.5812371927      22.0000000000
3785 2      15.7445618678      16.0000000000
3786 2      15.6057652595      23.0000000000
3787 2      13.7483772971      17.0000000000
3788 2      17.5600098832      17.0000000000
3789 2      15.8155632874      18.0000000000
3790 2      14.9776902804      17.0000000000
3791 2      13.3694911455      17.0000000000
3792 2      16.6796239336      20.0000000000
3793 2      16.4032169853      18.0000000000
3794 2      17.2796046026      17.0000000000
3795 2      15.1306495445      19.0000000000
3796 2      14.1689147924      15.0000000000
3797 2      13.2201698636      16.0000000000
3798 2      17.2062196025      16.0000000000
3799 2      18.5786614034      19.0000000000
3800 2      15.9078902745      18.0000000000
3801 2      15.3282976881      19.0000000000
3802 2      14.3334429023      14.0000000000
3803 2      16.6891366020      18.0000000000
3804 2      12.7780927493      16.0000000000
3805 2      15.5269078839      15.0000000000
3806 2      15.8035140712      19.0000000000
3807 2      15.0121972188      17.0000000000
3808 2      18.4504138178      19.0000000000
3809 2      15.1245413535      18.0000000000
3810 2      13.4626283228      18.0000000000
3811 2      15.9987770368      17.0000000000
3812 2      15.5804398937      16.0000000000
3813 2      13.0476510492      14.0000000000
3814 2      14.4105995495      19.0000000000
3815 2      12.7267419361      17.0000000000
3816 2      17.5394758718      23.0000000000
3817 2      13.9932494444      16.0000000000
3818 2      13.7956740735      19.0000000000
3819 2      13.8335280569      15.0000000000
3820 2      14.8786331169      19.0000000000
3821 2      13.7404665930      17.0000000000
3822 2      12.6243643564      16.0000000000
3823 2      15.4646467189      14.0000000000
3824 2      14.9502510630      18.0000000000
3825 2      16.2485071211      18.0000000000
3826 2      14.0976222652      15.0000000000
3827 2      14.2569914002      17.0000000000
3828 2      17.2384744343      19.0000000000
3829 2      13.9137785510      15.0000000000
3830 2      12.7309421653      14.0000000000
3831 2      16.8525621668      20.0000000000
3832 2      15.5414697428      16.0000000000
3833 2      17.0778512540      23.0000000000
3834 2      17.7241329563      22.0000000000
3835 2      12.7399354127      15.0000000000
3836 2      15.3414815642      17.0000000000
3837 2      14.2331529709      18.0000000000
3838 2      13.7399233556      14.0000000000
3839 2      14.6903570539      22.0000000000
3840 2      14.6824901216      22.0000000000
3841 2      17.0723270144      21.0000000000
3842 2      12.6105029738      13.0000000000
3843 2      14.1204833577      19.0000000000
3844 2      17.3391901615      21.0000000000
3845 2      14.1117302668      18.0000000000
3846 2      15.6336916480      19.0000000000
3847 2      14.6526660832      18.0000000000
3848 2      13.9647145305      19.0000000000
3849 2      14.8438578089      18.0000000000
3850 2      14.4167143865      18.0000000000
3851 2      15.7831471144      18.0000000000
3852 2      13.4903886675      15.0000000000
3853 2      14.1310497736      13.0000000000
3854 2      12.0997051993      19.0000000000
3855 2      15.3537432714      17.0000000000
3856 2      16.5557734162      21.0000000000
3857 2      15.1440084145      15.0000000000
3858 2      15.8801484211      21.0000000000
3859 2      16.1398117810      14.0000000000
3860 2      14.0148440873      16.0000000000
3861 2      17.3023478500      17.0000000000
3862 2      12.8717783773      19.0000000000
3863 2      14.9076584282      21.0000000000
3864 2      15.3829389207      18.0000000000
3865 2      13.2926431334      20.0000000000
3866 2      14.5134444967      18.0000000000
3867 2      13.6685057839      16.0000000000
3868 2      16.0932125122      17.0000000000
3869 2      14.7280714692      19.0000000000
3870 2      15.4908780491      16.0000000000
3871 2      13.4420766517      14.0000000000
3872 2      13.8475759473      15.0000000000
3873 2      12.8779560904      17.0000000000
3874 2      15.9376579257      18.0000000000
3875 2      15.2952211241      17.0000000000
3876 2      13.1349356679      19.0000000000
3877 2      14.8827877706      17.0000000000
3878 2      15.6157098121      19.0000000000
3879 2      13.5683514719      14.0000000000
3880 2      16.6011994160      21.0000000000
3881 2      15.1353339692      18.0000000000
3882 2      17.2213528638      19.0000000000
3883 2      13.3355421391      13.0000000000
3884 2      11.5991598127      13.0000000000
3885 2      15.5319263234      18.0000000000
3886 2      15.2326500799      21.0000000000
3887 2      14.3885557859      19.0000000000
3888 2      13.9489803006      17.0000000000
3889 2      15.8824799944      22.0000000000
3890 2      15.1944326356      18.0000000000
3891 2      16.3298353935      19.0000000000
3892 2      13.5434384128      14.0000000000
3893 2      12.1747264427      15.0000000000
3894 2      16.3168719954      22.0000000000
3895 2      15.7205320254      19.0000000000
3896 2      14.1562604142      16.0000000000
3897 2      17.6599110017      21.0000000000
3898 2      13.6703877800      20.0000000000
3899 2      12.9534126667      14.0000000000
3900 2      14.7167915659      17.0000000000
3901 2      15.9882360746      18.0000000000
3902 2      16.6462374805      17.0000000000
3903 2      16.1870401654      17.0000000000
3904 2      16.1333146366      20.0000000000
3905 2      15.1216234634      17.0000000000
3906 2      15.8544793613      21.0000000000
3907 2      18.4793183348      24.0000000000
3908 2      13.8403391631      16.0000000000
3909 2      12.4970868392      13.0000000000
3910 2      15.6853685961      18.0000000000
3911 2      17.2493574912      18.0000000000
3912 2      19.1541356928      19.0000000000
3913 2      15.9673190912      22.0000000000
3914 2      15.0958778195      18.0000000000
3915 2      12.3293175261      14.0000000000
3916 2      13.8350367290      15.0000000000
3917 2      14.4388880799      14.0000000000
3918 2      17.0634826650      23.0000000000
3919 2      16.8640061712      19.0000000000
3920 2      13.1461939104      17.0000000000
3921 2      14.6857363285      19.0000000000
3922 2      16.7988225264      20.0000000000
3923 2      11.8738983171      17.0000000000
3924 2      14.0714291069      19.0000000000
3925 2      18.4903362135      20.0000000000
3926 2      12.5598504417      13.0000000000
3927 2      15.5011634423      19.0000000000
3928 2      16.4316305086      20.0000000000
3929 2      17.2091580645      16.0000000000
3930 2      13.6136882609      16.0000000000
3931 2      15.0244152075      19.0000000000
3932 2      16.5084574712      21.0000000000
3933 2      14.0605001063      16.0000000000
3934 2      14.9700831958      20.0000000000
3935 2      16.7275156717      17.0000000000
3936 2      16.0130510344      17.0000000000
3937 2      13.6788624999      17.0000000000
3938 2      14.0929219037      15.0000000000
3939 2      14.3751749253      18.0000000000
3940 2      16.4328237487      20.0000000000
3941 2      13.8039331232      18.0000000000
3942 2      15.1077001681      18.0000000000
3943 2      14.6182681348      17.0000000000
3944 2      16.8376924567      21.0000000000
3945 2      15.2886228362      18.0000000000
3946 2      14.4953950963      18.0000000000
3947 2      14.0818095921      17.0000000000
3948 2      15.9010588145      22.0000000000
3949 2      14.5729239622      19.0000000000
3950 2      16.2772136133      22.0000000000
3951 2      13.7853500422      16.0000000000
3952 2      13.7084161403      16.0000000000
3953 2      17.7451057030      19.0000000000
3954 2      15.1447621645      16.0000000000
3955 2      15.1037976204      20.0000000000
3956 2      14.9172279847      17.0000000000
3957 2      15.6435878550      22.0000000000
3958 2      11.3004545113      13.0000000000
3959 2      14.7083950587      20.0000000000
3960 2      14.5743258292      16.0000000000
3961 2      16.1816828571      18.0000000000
3962 2      17.2579627335      23.0000000000
3963 2      15.2950558265      14.0000000000
3964 2      12.2005653437      15.0000000000
3965 2      15.0893254288      19.0000000000
3966 2      16.5993346104      15.0000000000
3967 2      13.8795267098      18.0000000000
3968 2      13.3084440674      15.0000000000
3969 2      16.4047981795      17.0000000000
3970 2      17.9813869695      21.0000000000
3971 2      13.5631719193      17.0000000000
3972 2      16.0210193312      19.0000000000
3973 2      16.1016198931      18.0000000000
3974 2      15.2128442518      20.0000000000
3975 2      14.2112669035      17.0000000000
3976 2      14.9322632065      18.0000000000
3977 2      18.3782585565      22.0000000000
3978 2      13.6316032689      20.0000000000
3979 2      13.7409216135      15.0000000000
3980 2      14.7197154332      20.0000000000
3981 2      15.9955901516      21.0000000000
3982 2      12.8965351981      17.0000000000
3983 2      15.1543433753      21.0000000000
3984 2      15.3710219241      17.0000000000
3985 2      15.6693135114      18.0000000000
3986 2      16.4593879140      18.0000000000
3987 2      17.9941854221      17.0000000000
3988 2      15.7576932876      21.0000000000
3989 2      12.9608302848      15.0000000000
3990 2      16.9052184215      19.0000000000
3991 2      15.0364401674      23.0000000000
3992 2      16.1417584602      19.0000000000
3993 2      14.7672168949      17.0000000000
3994 2      13.2829855823      16.0000000000
3995 2      16.1170172743      19.0000000000
3996 2      16.1657558961      15.0000000000
3997 2      12.8306594119      18.0000000000
3998 2      15.4614555905      19.0000000000
3999 2      16.6397542217      18.0000000000
4000 2      15.4808565669      21.0000000000
4001 2      19.1446805616      20.0000000000
4002 2      15.7731707468      21.0000000000
4003 2      13.9568208954      18.0000000000
4004 2      13.1379906291      16.0000000000
4005 2      15.6497569697      17.0000000000
4006 2      16.0614956544      16.0000000000
4007 2      14.6260256588      17.0000000000
4008 2      13.2056583212      16.0000000000
4009 2      15.2681314398      17.0000000000
4010 2      14.8607251541      15.0000000000
4011 2      15.8536599655      18.0000000000
4012 2      14.2122288098      14.0000000000
4013 2      15.5104560570      17.0000000000
4014 2      15.6846082580      17.0000000000
4015 2      15.5470133972      19.0000000000
4016 2      13.0247025881      16.0000000000
4017 2      12.0697473427      17.0000000000
4018 2      14.8719353745      17.0000000000
4019 2      15.2124226180      19.0000000000
4020 2      14.1882606972      18.0000000000
4021 2      12.8869555111      16.0000000000
4022 2      15.5229077629      18.0000000000
4023 2      14.7069451240      16.0000000000
4024 2      14.8804943959      18.0000000000
4025 2      15.9303098308      19.0000000000
4026 2      16.0327277743      25.0000000000
4027 2      16.0999207401      19.0000000000
4028 2      13.6158741135      17.0000000000
4029 2      14.8556631554      18.0000000000
4030 2      16.3778609079      18.0000000000
4031 2      16.7776143984      17.0000000000
4032 2      13.1653761912      17.0000000000
4033 2      14.5271169576      19.0000000000
4034 2      15.4901950231      17.0000000000
4035 2      13.5228433356      15.0000000000
4036 2      17.2394070912      19.0000000000
4037 2      13.5582611469      18.0000000000
4038 2      16.7524996315      16.0000000000
4039 2      15.9606274455      21.0000000000
4040 2      12.8122641681      16.0000000000
4041 2      14.7859599568      17.0000000000
4042 2      12.6549799201      17.0000000000
4043 2      14.1140996022      19.0000000000
4044 2      17.4696077061      23.0000000000
4045 2      15.3878097687      17.0000000000
4046 2      12.8705204077      15.0000000000
4047 2      14.7364908422      16.0000000000
4048 2      13.3506907129      19.0000000000
4049 2      16.8276374831      17.0000000000
4050 2      15.4041030419      20.0000000000
4051 2      15.3310117472      16.0000000000
4052 2      14.2101199103      18.0000000000
4053 2      15.5543874692      17.0000000000
4054 2      15.4997989619      18.0000000000
4055 2      14.1305406626      19.0000000000
4056 2      14.1481551985      20.0000000000
4057 2      15.7423883828      17.0000000000
4058 2      14.8484043790      16.0000000000
4059 2      16.7984856156      18.0000000000
4060 2      16.9519765037      24.0000000000
4061 2      14.7760837839      21.0000000000
4062 2      13.6997627641      16.0000000000
4063 2      16.8842345254      23.0000000000
4064 2      14.0010635342      13.0000000000
4065 2      15.4470947333      18.0000000000
4066 2      15.3933570920      19.0000000000
4067 2      15.7584873391      18.0000000000
4068 2      14.0773160603      15.0000000000
4069 2      14.4021600765      16.0000000000
4070 2      13.6917193368      16.0000000000
4071 2      14.4280471998      17.0000000000
4072 2      15.1416606801      16.0000000000
4073 2      13.2124084742      16.0000000000
4074 2      16.6651669880      18.0000000000
4075 2      14.5707468387      19.0000000000
4076 2      15.5780835037      23.0000000000
4077 2      14.9632013800      20.0000000000
4078 2      18.0853794342      20.0000000000
4079 2      14.5450124116      17.0000000000
4080 2      14.6244898095      20.0000000000
4081 2      14.3930520105      19.0000000000
4082 2      13.2356882037      16.0000000000
4083 2      13.0223880031      19.0000000000
4084 2      15.9529338986      20.0000000000
4085 2      14.8258240567      20.0000000000
4086 2      15.1011939724      17.0000000000
4087 2      14.2157383768      19.0000000000
4088 2      16.0886169533      20.0000000000
4089 2      13.8891127300      20.0000000000
4090 2      14.5326214652      19.0000000000
4091 2      15.6814339629      17.0000000000
4092 2      17.1431752984      24.0000000000
4093 2      16.1555800716      14.0000000000
4094 2      16.9020245832      18.0000000000
4095 2      15.1944113077      18.0000000000
4096 2      13.5848956850      16.0000000000
4097 2      14.1488441315      19.0000000000
4098 2      13.9611662069      16.0000000000
4099 2      15.7795813877      20.0000000000
4100 2      15.8780522551      20.0000000000
4101 2      16.1193647653      20.0000000000
4102 2      15.7513846528      18.0000000000
4103 2      15.0490097459      18.0000000000
4104 2      16.8513873566      23.0000000000
4105 2      12.7585727827      15.0000000000
4106 2      15.9419601732      18.0000000000
4107 2      14.6430832615      19.0000000000
4108 2      14.6594728311      20.0000000000
4109 2      14.8117843336      17.0000000000
4110 2      12.8627873288      14.0000000000
4111 2      14.6434340338      18.0000000000
4112 2      14.3456574027      17.0000000000
4113 2      17.4090640626      21.0000000000
4114 2      14.9450314708      18.0000000000
4115 2      17.3070762791      17.0000000000
4116 2      14.7189221557      21.0000000000
4117 2      15.6052229835      19.0000000000
4118 2      13.4361289735      14.0000000000
4119 2      14.3647254240      15.0000000000
4120 2      15.9527022517      22.0000000000
4121 2      14.3554697138      16.0000000000
4122 2      14.5333024747      17.0000000000
4123 2      17.1626669105      20.0000000000
4124 2      13.9271903240      18.0000000000
4125 2      14.5652639178      18.0000000000
4126 2      14.7349362859      17.0000000000
4127 2      15.8894077936      17.0000000000
4128 2      14.6919027367      18.0000000000
4129 2      13.7292522338      18.0000000000
4130 2      14.5568007923      17.0000000000
4131 2      16.5305764616      20.0000000000
4132 2      13.7489107045      15.0000000000
4133 2      15.3744494579      18.0000000000
4134 2      13.9157850018      22.0000000000
4135 2      15.1453593510      19.0000000000
4136 2      14.5049771140      20.0000000000
4137 2      17.0934430451      19.0000000000
4138 2      11.8904981302      15.0000000000
4139 2      14.1619533662      19.0000000000
4140 2      14.4110530966      20.0000000000
4141 2      11.9058913287      16.0000000000
4142 2      16.7311830970      17.0000000000
4143 2      14.2722401597      16.0000000000
4144 2      12.0746724991      15.0000000000
4145 2      14.5367793089      18.0000000000
4146 2      13.8831511608      19.0000000000
4147 2      15.4583199138      18.0000000000
4148 2      15.6414119539      21.0000000000
4149 2      14.3711268830      17.0000000000
4150 2      16.0278963576      20.0000000000
4151 2      16.1301435809      19.0000000000
4152 2      13.8915377239      17.0000000000
4153 2      18.2971770754      21.0000000000
4154 2      14.4121508291      19.0000000000
4155 2      16.2039548664      22.0000000000
4156 2      14.6765631666      16.0000000000
4157 2      15.0774302584      21.0000000000
4158 2      15.2447842633      14.0000000000
4159 2      12.8031555273      16.0000000000
4160 2      14.8462340181      16.0000000000
4161 2      15.3025097918      16.0000000000
4162 2      12.8819443972      17.0000000000
4163 2      16.0352030060      19.0000000000
4164 2      14.2719884618      19.0000000000
4165 2      15.7643371087      19.0000000000
4166 2      13.8700899835      20.0000000000
4167 2      15.1586031327      19.0000000000
4168 2      12.7416534565      16.0000000000
4169 2      14.0207140315      18.0000000000
4170 2      14.5562773593      15.0000000000
4171 2      15.2281374127      17.0000000000
4172 2      17.6184345234      19.0000000000
4173 2      15.5949169912      18.0000000000
4174 2      15.3772831315      17.0000000000
4175 2      16.2926573250      20.0000000000
4176 2      13.4935926815      15.0000000000
4177 2      16.1264600352      17.0000000000
4178 2      15.1745391449      16.0000000000
4179 2      14.1419078865      19.0000000000
4180 2      14.3211379013      16.0000000000
4181 2      15.0875879929      18.0000000000
4182 2      18.2409264335      20.0000000000
4183 2      15.7827912307      19.0000000000
4184 2      15.6514075649      18.0000000000
4185 2      14.8373083107      17.0000000000
4186 2      14.4073904295      17.0000000000
4187 2      14.8020938789      20.0000000000
4188 2      13.8198836351      15.0000000000
4189 2      16.1398405025      16.0000000000
4190 2      17.2855623886      21.0000000000
4191 2      13.1862692999      16.0000000000
4192 2      12.9425571569      15.0000000000
4193 2      13.6537216451      19.0000000000
4194 2      14.6130481026      20.0000000000
4195 2      15.2083666435      18.0000000000
4196 2      14.8006101609      19.0000000000
4197 2      13.8184251752      14.0000000000
4198 2      15.2235710931      14.0000000000
4199 2      14.2078997377      20.0000000000
4200 2      15.5341633220      21.0000000000
4201 2      16.9539651029      20.0000000000
4202 2      13.8785429594      16.0000000000
4203 2      14.8859795714      13.0000000000
4204 2      13.7745213590      16.0000000000
4205 2      18.8290855703      22.0000000000
4206 2      13.4529572097      15.0000000000
4207 2      13.3529067267      15.0000000000
4208 2      14.2666145259      17.0000000000
4209 2      15.9823646727      17.0000000000
4210 2      15.1574894478      21.0000000000
4211 2      15.1005167581      17.0000000000
4212 2      15.7166281688      18.0000000000
4213 2      13.6292516082      16.0000000000
4214 2      15.1087212475      16.0000000000
4215 2      12.2243809809      16.0000000000
4216 2      13.1544049243      13.0000000000
4217 2      14.2248540863      17.0000000000
4218 2      17.1750836299      16.0000000000
4219 2      13.7824736803      17.0000000000
4220 2      13.0696621110      14.0000000000
4221 2      17.1265441007      19.0000000000
4222 2      16.6605525492      21.0000000000
4223 2      17.3295651186      18.0000000000
4224 2      15.1558796910      19.0000000000
4225 2      13.7829971930      15.0000000000
4226 2      18.5150873807      20.0000000000
4227 2      13.9133437037      19.0000000000
4228 2      14.9518542705      18.0000000000
4229 2      14.0343641915      19.0000000000
4230 2      15.3871141963      19.0000000000
4231 2      15.5132895778      16.0000000000
4232 2      15.0177526366      18.0000000000
4233 2      13.8778560608      18.0000000000
4234 2      15.8160900379      18.0000000000
4235 2      15.0848521812      19.0000000000
4236 2      14.6200811407      17.0000000000
4237 2      14.2458040885      17.0000000000
4238 2      13.4834263622      16.0000000000
4239 2      16.0776657649      18.0000000000
4240 2      15.0485442822      16.0000000000
4241 2      15.2585489112      15.0000000000
4242 2      16.9009454496      18.0000000000
4243 2      13.8117215963      18.0000000000
4244 2      16.5728544749      21.0000000000
4245 2      14.6530921235      19.0000000000
4246 2      15.6370790387      18.0000000000
4247 2      14.5889013949      16.0000000000
4248 2      17.0290532009      22.0000000000
4249 2      14.0183485681      18.0000000000
4250 2      12.4774547540      17.0000000000
4251 2      13.9544517205      21.0000000000
4252 2      14.4308669338      16.0000000000
4253 2      16.3154401110      16.0000000000
4254 2      15.3786469584      18.0000000000
4255 2      15.0783705144      17.0000000000
4256 2      13.9989104940      20.0000000000
4257 2      13.8059044180      18.0000000000
4258 2      11.8554345967      15.0000000000
4259 2      14.9102037950      22.0000000000
4260 2      15.1153253569      16.0000000000
4261 2      16.0979271384      18.0000000000
4262 2      13.2799241482      14.0000000000
4263 2      14.8509306811      18.0000000000
4264 2      13.6094199621      16.0000000000
4265 2      18.6338078843      21.0000000000
4266 2      13.5151568726      17.0000000000
4267 2      16.7969506441      21.0000000000
4268 2      15.8885680891      17.0000000000
4269 2      17.1483405189      19.0000000000
4270 2      18.1076789363      17.0000000000
4271 2      14.4889222110      19.0000000000
4272 2      18.7459899822      23.0000000000
4273 2      18.0061732578      19.0000000000
4274 2      14.4527214897      16.0000000000
4275 2      13.8366788677      16.0000000000
4276 2      12.1644013437      14.0000000000
4277 2      14.7322174444      16.0000000000
4278 2      14.7526333417      17.0000000000
4279 2      16.6281848969      23.0000000000
4280 2      14.4698949938      19.0000000000
4281 2      17.7119692250      24.0000000000
4282 2      15.7781811324      21.0000000000
4283 2      16.2725253271      20.0000000000
4284 2      15.6176423970      16.0000000000
4285 2      12.5501471531      15.0000000000
4286 2      17.9553067849      22.0000000000
4287 2      13.4502116412      15.0000000000
4288 2      16.1589143508      22.0000000000
4289 2      19.2569414461      21.0000000000
4290 2      15.1802527569      15.0000000000
4291 2      14.2314951782      21.0000000000
4292 2      14.2721061949      17.0000000000
4293 2      15.0095309114      17.0000000000
4294 2      15.6076700760      18.0000000000
4295 2      13.4138906461      17.0000000000
4296 2      13.1217219001      16.0000000000
4297 2      14.5043555096      18.0000000000
4298 2      15.7578326498      18.0000000000
4299 2      13.6863960931      17.0000000000
4300 2      16.4639457729      19.0000000000
4301 2      18.6649461471      20.0000000000
4302 2      15.6509638700      18.0000000000
4303 2      15.4650395861      18.0000000000
4304 2      14.2106678363      16.0000000000
4305 2      14.7506766381      19.0000000000
4306 2      15.6823980704      19.0000000000
4307 2      15.7521910215      20.0000000000
4308 2      14.7884305261      19.0000000000
4309 2      15.7989537375      20.0000000000
4310 2      13.4664909195      15.0000000000
4311 2      16.1040541128      19.0000000000
4312 2      18.2049312685      19.0000000000
4313 2      16.4642871418      20.0000000000
4314 2      14.4334483372      19.0000000000
4315 2      14.5164726210      18.0000000000
4316 2      14.2319664823      20.0000000000
4317 2      16.1501202160      20.0000000000
4318 2      14.0512981446      18.0000000000
4319 2      15.1693417202      16.0000000000
4320 2      16.4183570883      21.0000000000
4321 2      13.2930653029      18.0000000000
4322 2      17.8201815594      21.0000000000
4323 2      14.9565984600      17.0000000000
4324 2      17.5247174330      21.0000000000
4325 2      14.0639408055      18.0000000000
4326 2      14.9079386438      19.0000000000
4327 2      13.9072125637      17.0000000000
4328 2      17.5539291516      20.0000000000
4329 2      16.3793989752      21.0000000000
4330 2      15.8191143304      19.0000000000
4331 2      14.3825940908      16.0000000000
4332 2      15.9736069416      19.0000000000
4333 2      14.4541804639      14.0000000000
4334 2      15.3205070655      15.0000000000
4335 2      15.4560494435      20.0000000000
4336 2      12.3870941888      16.0000000000
4337 2      14.7287425625      19.0000000000
4338 2      15.3253188242      22.0000000000
4339 2      14.6783049245      17.0000000000
4340 2      19.1245573245      20.0000000000
4341 2      13.9130862885      17.0000000000
4342 2      13.8066966158      17.0000000000
4343 2      15.8278019788      19.0000000000
4344 2      18.7584298876      21.0000000000
4345 2      12.6710832722      16.0000000000
4346 2      16.1878448323      20.0000000000
4347 2      15.6518003797      25.0000000000
4348 2      16.2039362129      19.0000000000
4349 2      15.0273481680      19.0000000000
4350 2      13.2324698694      17.0000000000
4351 2      13.4032138847      16.0000000000
4352 2      13.6580400912      20.0000000000
4353 2      14.0431798622      19.0000000000
4354 2      16.0676619797      18.0000000000
4355 2      14.3280383763      18.0000000000
4356 2      16.3204564707      18.0000000000
4357 2      15.7992864094      15.0000000000
4358 2      15.7617974790      20.0000000000
4359 2      14.8447970398      19.0000000000
4360 2      15.6419865336      16.0000000000
4361 2      14.3302160325      20.0000000000
4362 2      16.2397149987      17.0000000000
4363 2      14.6100299578      18.0000000000
4364 2      15.1009015181      18.0000000000
4365 2      11.7908717185      14.0000000000
4366 2      14.1246174075      16.0000000000
4367 2      14.9908984684      19.0000000000
4368 2      13.5716990958      17.0000000000
4369 2      14.3551863989      15.0000000000
4370 2      14.4811941824      19.0000000000
4371 2      13.7161477150      12.0000000000
4372 2      13.4613304213      15.0000000000
4373 2      14.1519577639      18.0000000000
4374 2      14.1596964869      17.0000000000
4375 2      13.6121027801      17.0000000000
4376 2      14.3266835372      17.0000000000
4377 2      14.1323279519      18.0000000000
4378 2      15.1188391946      19.0000000000
4379 2      18.6697837442      20.0000000000
4380 2      14.8232730002      19.0000000000
4381 2      14.6026373217      17.0000000000
4382 2      13.7632375188      19.0000000000
4383 2      14.1743102841      19.0000000000
4384 2      12.5223001871      16.0000000000
4385 2      12.9643948702      16.0000000000
4386 2      14.3238657550      17.0000000000
4387 2      15.6239386660      17.0000000000
4388 2      17.4942798083      20.0000000000
4389 2      15.7311855441      18.0000000000
4390 2      12.6903565959      17.0000000000
4391 2      15.6875671522      17.0000000000
4392 2      16.3232976234      16.0000000000
4393 2      14.2998004429      17.0000000000
4394 2      15.8161663782      19.0000000000
4395 2      14.0175927182      17.0000000000
4396 2      12.9570501446      13.0000000000
4397 2      13.4798870910      15.0000000000
4398 2      13.9458371682      17.0000000000
4399 2      14.4596292911      17.0000000000
4400 2      16.2146969689      19.0000000000
4401 2      15.2026860912      21.0000000000
4402 2      15.1385616357      17.0000000000
4403 2      13.3922119246      15.0000000000
4404 2      14.5956073740      19.0000000000
4405 2      16.7768163846      18.0000000000
4406 2      14.4444641990      18.0000000000
4407 2      12.0805189021      16.0000000000
4408 2      14.3471461471      17.0000000000
4409 2      12.1407965455      15.0000000000
4410 2      14.5922178416      20.0000000000
4411 2      15.8908220281      20.0000000000
4412 2      15.8502409521      19.0000000000
4413 2      15.4708160296      23.0000000000
4414 2      13.9230446067      16.0000000000
4415 2      15.4607574481      19.0000000000
4416 2      18.9731017683      21.0000000000
4417 2      14.7582173481      19.0000000000
4418 2      15.4641199962      18.0000000000
4419 2      16.4517743741      17.0000000000
4420 2      15.0356485742      18.0000000000
4421 2      15.6524936793      23.0000000000
4422 2      13.8834940841      16.0000000000
4423 2      12.4787713550      17.0000000000
4424 2      13.7170491988      16.0000000000
4425 2      13.5487110435      16.0000000000
4426 2      16.4570425689      16.0000000000
4427 2      14.1080580858      17.0000000000
4428 2      15.2304688793      15.0000000000
4429 2      15.6310881823      22.0000000000
4430 2      17.5132946799      17.0000000000
4431 2      15.6238617064      18.0000000000
4432 2      16.0451254275      22.0000000000
4433 2      15.8189579951      18.0000000000
4434 2      13.8952952933      16.0000000000
4435 2      18.8425321717      20.0000000000
4436 2      15.8733669445      18.0000000000
4437 2      13.6862024755      20.0000000000
4438 2      14.9295985513      18.0000000000
4439 2      13.2174958212      17.0000000000
4440 2      12.9592315294      19.0000000000
4441 2      15.2724676762      21.0000000000
4442 2      15.9871407564      17.0000000000
4443 2      14.1050307850      16.0000000000
4444 2      13.0736926357      13.0000000000
4445 2      15.5927919790      20.0000000000
4446 2      13.1718548717      19.0000000000
4447 2      16.9941893464      18.0000000000
4448 2      14.2981425160      20.0000000000
4449 2      15.1266578323      17.0000000000
4450 2      18.9059474720      21.0000000000
4451 2      14.8301449398      14.0000000000
4452 2      12.8851966437      16.0000000000
4453 2      16.2892603711      18.0000000000
4454 2      13.3504909824      18.0000000000
4455 2      13.2240569017      17.0000000000
4456 2      16.0768029552      19.0000000000
4457 2      13.4437565003      16.0000000000
4458 2      15.7706794730      16.0000000000
4459 2      12.9635306114      19.0000000000
4460 2      17.3300036554      18.0000000000
4461 2      13.1098668302      17.0000000000
4462 2      18.2751410352      21.0000000000
4463 2      13.8013274673      16.0000000000
4464 2      12.9297961304      17.0000000000
4465 2      15.1376280957      17.0000000000
4466 2      12.1936944072      16.0000000000
4467 2      14.7059667045      20.0000000000
4468 2      16.2483343443      17.0000000000
4469 2      13.5754421875      19.0000000000
4470 2      15.2399566932      18.0000000000
4471 2      16.5275984963      22.0000000000
4472 2      13.1563780549      17.0000000000
4473 2      12.8857848720      14.0000000000
4474 2      13.9020941148      19.0000000000
4475 2      13.4875321456      20.0000000000
4476 2      16.1369016707      18.0000000000
4477 2      17.1277719226      20.0000000000
4478 2      13.6674958553      16.0000000000
4479 2      13.3021376869      19.0000000000
4480 2      15.9041884442      20.0000000000
4481 2      14.5834954198      18.0000000000
4482 2      12.4394366749      16.0000000000
4483 2      14.5563886858      17.0000000000
4484 2      16.4300297669      18.0000000000
4485 2      15.6321718054      21.0000000000
4486 2      15.7701838977      19.0000000000
4487 2      16.1397257106      21.0000000000
4488 2      14.4681796777      19.0000000000
4489 2      13.3103538689      15.0000000000
4490 2      15.5736937211      20.0000000000
4491 2      17.1641080410      18.0000000000
4492 2      12.9608759163      16.0000000000
4493 2      15.2626429795      18.0000000000
4494 2      16.0601941409      16.0000000000
4495 2      15.8303733167      22.0000000000
4496 2      16.2273616755      19.0000000000
4497 2      15.5668633107      20.0000000000
4498 2      15.8034124963      21.0000000000
4499 2      15.9245692615      23.0000000000
4500 2      14.5709153492      19.0000000000
4501 2      16.7086202286      19.0000000000
4502 2      14.4765940728      16.0000000000
4503 2      15.2004803457      20.0000000000
4504 2      12.7353136585      19.0000000000
4505 2      12.6362291502      14.0000000000
4506 2      15.0591581326      17.0000000000
4507 2      16.5761791099      19.0000000000
4508 2      12.6178483599      18.0000000000
4509 2      14.8054692414      17.0000000000
4510 2      14.4805043260      16.0000000000
4511 2      13.0537628887      15.0000000000
4512 2      13.4476901644      16.0000000000
4513 2      17.1017430441      24.0000000000
4514 2      14.6903477588      19.0000000000
4515 2      16.7500843023      19.0000000000
4516 2      13.2235645871      19.0000000000
4517 2      13.3378829605      16.0000000000
4518 2      13.4852285223      18.0000000000
4519 2      16.7215914830      17.0000000000
4520 2      13.6426404351      19.0000000000
4521 2      15.6965654807      18.0000000000
4522 2      14.4241250285      19.0000000000
4523 2      14.6155007004      17.0000000000
4524 2      18.1827032417      19.0000000000
4525 2      15.7835616080      17.0000000000
4526 2      16.9393189945      19.0000000000
4527 2      14.2697433220      16.0000000000
4528 2      16.9701241437      20.0000000000
4529 2      11.4901121663      16.0000000000
4530 2      14.1311664599      19.0000000000
4531 2      15.8718663267      20.0000000000
4532 2      20.7231661834      22.0000000000
4533 2      13.0059822990      19.0000000000
4534 2      16.1890441912      17.0000000000
4535 2      14.6071401019      16.0000000000
4536 2      14.9972704899      21.0000000000
4537 2      13.2532435614      17.0000000000
4538 2      15.0051193450      24.0000000000
4539 2      15.2432837929      18.0000000000
4540 2      13.0504408477      15.0000000000
4541 2      11.8414984929      14.0000000000
4542 2      11.9703047586      15.0000000000
4543 2      18.4100694335      19.0000000000
4544 2      15.1603254866      16.0000000000
4545 2      16.0410970326      20.0000000000
4546 2      14.9649144588      21.0000000000
4547 2      12.9415847784      14.0000000000
4548 2      14.6686754317      14.0000000000
4549 2      16.3654962142      18.0000000000
4550 2      16.2307186567      23.0000000000
4551 2      14.3740121356      15.0000000000
4552 2      15.7319360278      19.0000000000
4553 2      13.8827053100      17.0000000000
4554 2      14.5144610737      20.0000000000
4555 2      14.3484485176      19.0000000000
4556 2      13.9617451044      18.0000000000
4557 2      13.3675390505      17.0000000000
4558 2      15.3746278487      17.0000000000
4559 2      18.5210722118      18.0000000000
4560 2      14.8078100371      18.0000000000
4561 2      14.9966550500      17.0000000000
4562 2      16.3093567933      20.0000000000
4563 2      18.8861133179      22.0000000000
4564 2      16.5413966303      16.0000000000
4565 2      16.4823001362      18.0000000000
4566 2      13.8410787956      17.0000000000
4567 2      15.1727023087      21.0000000000
4568 2      15.5290750819      22.0000000000
4569 2      15.9898081777      20.0000000000
4570 2      17.7489108582      19.0000000000
4571 2      18.4822328336      22.0000000000
4572 2      13.9986526398      18.0000000000
4573 2      12.1406344119      16.0000000000
4574 2      13.5676043210      18.0000000000
4575 2      15.1550476246      18.0000000000
4576 2      15.7833610879      18.0000000000
4577 2      13.6525699364      16.0000000000
4578 2      12.9741160191      15.0000000000
4579 2      13.7255174699      15.0000000000
4580 2      13.8874980699      17.0000000000
4581 2      13.9990764775      17.0000000000
4582 2      21.5274035827      19.0000000000
4583 2      16.3110455441      18.0000000000
4584 2      14.8820812182      14.0000000000
4585 2      18.0524539603      18.0000000000
4586 2      15.8109783168      18.0000000000
4587 2      15.2374429470      17.0000000000
4588 2      13.3101247935      16.0000000000
4589 2      14.3138507321      19.0000000000
4590 2      14.2228633861      14.0000000000
4591 2      14.0175952439      14.0000000000
4592 2      16.5346272458      21.0000000000
4593 2      15.8545134860      20.0000000000
4594 2      15.2099945482      22.0000000000
4595 2      14.4339979720      19.0000000000
4596 2      16.6746688685      17.0000000000
4597 2      17.6438294882      17.0000000000
4598 2      18.3590958819      18.0000000000
4599 2      12.1739118534      15.0000000000
4600 2      15.4006009035      20.0000000000
4601 2      12.9514764209      14.0000000000
4602 2      13.9607762643      17.0000000000
4603 2      16.5529235371      16.0000000000
4604 2      14.8415680612      19.0000000000
4605 2      15.6581860470      20.0000000000
4606 2      17.5570257656      20.0000000000
4607 2      15.4549702398      20.0000000000
4608 2      11.4605954841      15.0000000000
4609 2      15.3208082715      20.0000000000
4610 2      13.7802074164      16.0000000000
4611 2      10.9940631911      16.0000000000
4612 2      16.2130572425      18.0000000000
4613 2      15.1923300224      18.0000000000
4614 2      13.8580568252      19.0000000000
4615 2      16.5269631221      18.0000000000
4616 2      16.3715116926      18.0000000000
4617 2      14.4911890521      16.0000000000
4618 2      14.7905703068      23.0000000000
4619 2      13.3349890680      20.0000000000
4620 2      14.7805162257      18.0000000000
4621 2      16.4540926874      19.0000000000
4622 2      16.3799793353      19.0000000000
4623 2      13.8886206044      18.0000000000
4624 2      16.6224478890      17.0000000000
4625 2      18.3244254219      19.0000000000
4626 2      12.2631229629      19.0000000000
4627 2      17.0693082812      19.0000000000
4628 2      13.8647929380      19.0000000000
4629 2      15.6812029745      19.0000000000
4630 2      13.1653716582      17.0000000000
4631 2      14.0931529309      15.0000000000
4632 2      15.0175007684      18.0000000000
4633 2      14.2600048827      15.0000000000
4634 2      16.7214752823      21.0000000000
4635 2      15.1758990229      17.0000000000
4636 2      16.6194402930      18.0000000000
4637 2      16.5859174254      20.0000000000
4638 2      14.2147568054      15.0000000000
4639 2      13.7574603510      16.0000000000
4640 2      14.4725364126      15.0000000000
4641 2      13.9010259831      17.0000000000
4642 2      13.6761324132      15.0000000000
4643 2      17.2700642831      21.0000000000
4644 2      13.5899370195      18.0000000000
4645 2      15.3968857551      17.0000000000
4646 2      13.9533442069      16.0000000000
4647 2      14.1320960449      20.0000000000
4648 2      17.2826929312      20.0000000000
4649 2      14.8550487398      18.0000000000
4650 2      17.5520453609      20.0000000000
4651 2      16.4864510434      17.0000000000
4652 2      15.0385125546      19.0000000000
4653 2      14.7222184078      19.0000000000
4654 2      12.9582994494      14.0000000000
4655 2      13.4434989509      14.0000000000
4656 2      15.3807461470      19.0000000000
4657 2      14.0081114194      19.0000000000
4658 2      14.5404600362      17.0000000000
4659 2      17.3761809151      17.0000000000
4660 2      12.9461101252      18.0000000000
4661 2      12.3379002365      15.0000000000
4662 2      15.4887440700      20.0000000000
4663 2      16.5938964022      19.0000000000
4664 2      16.2601851345      15.0000000000
4665 2      13.6161854049      18.0000000000
4666 2      15.1021189392      17.0000000000
4667 2      16.9742223120      24.0000000000
4668 2      17.3990848189      25.0000000000
4669 2      13.4180270566      17.0000000000
4670 2      13.4299492662      15.0000000000
4671 2      16.3781632529      19.0000000000
4672 2      16.0724614327      16.0000000000
4673 2      14.5032623573      19.0000000000
4674 2      14.4345257111      17.0000000000
4675 2      15.5690799030      21.0000000000
4676 2      14.8897311742      17.0000000000
4677 2      13.6017441248      17.0000000000
4678 2      14.2022015542      18.0000000000
4679 2      15.5597235925      19.0000000000
4680 2      16.4678403332      19.0000000000
4681 2      17.3630858376      22.0000000000
4682 2      15.4880888297      17.0000000000
4683 2      15.7842047281      20.0000000000
4684 2      16.0844844712      20.0000000000
4685 2      15.5821018216      20.0000000000
4686 2      15.2096411275      16.0000000000
4687 2      15.8009787200      19.0000000000
4688 2      18.8609316373      21.0000000000
4689 2      15.0183493256      20.0000000000
4690 2      14.6847197139      18.0000000000
4691 2      14.5574952039      21.0000000000
4692 2      15.4180531590      16.0000000000
4693 2      13.5383795052      16.0000000000
4694 2      14.2452317517      15.0000000000
4695 2      13.7424918844      16.0000000000
4696 2      13.5549574025      18.0000000000
4697 2      12.6019713966      17.0000000000
4698 2      15.7076997115      17.0000000000
4699 2      14.2163132819      19.0000000000
4700 2      12.5191834407      15.0000000000
4701 2      11.9782547724      16.0000000000
4702 2      14.9328738949      19.0000000000
4703 2      17.1738714000      20.0000000000
4704 2      18.7035229817      19.0000000000
4705 2      13.6346307072      17.0000000000
4706 2      15.4932797947      14.0000000000
4707 2      15.0968044110      18.0000000000
4708 2      11.9624613419      15.0000000000
4709 2      15.8187042114      19.0000000000
4710 2      15.9462913287      18.0000000000
4711 2      12.8107674770      18.0000000000
4712 2      14.3787144022      19.0000000000
4713 2      13.6734610031      18.0000000000
4714 2      16.3365763009      16.0000000000
4715 2      17.3119097468      18.0000000000
4716 2      13.4680854855      19.0000000000
4717 2      17.8617427421      21.0000000000
4718 2      14.6841335918      20.0000000000
4719 2      15.9536425602      20.0000000000
4720 2      15.6873577447      20.0000000000
4721 2      15.9609990509      19.0000000000
4722 2      15.5237678126      22.0000000000
4723 2      15.6178210201      17.0000000000
4724 2      16.7418789971      18.0000000000
4725 2      14.6577574584      16.0000000000
4726 2      17.9409500146      19.0000000000
4727 2      15.3505621341      18.0000000000
4728 2      18.3854799021      24.0000000000
4729 2      15.5207057344      17.0000000000
4730 2      15.7203301516      19.0000000000
4731 2      19.1027752940      17.0000000000
4732 2      15.6687623852      19.0000000000
4733 2      15.1293677800      20.0000000000
4734 2      14.0532448843      16.0000000000
4735 2      15.4788919381      18.0000000000
4736 2      12.8963417967      16.0000000000
4737 2      13.6171822569      15.0000000000
4738 2      12.5787146258      18.0000000000
4739 2      14.6426809790      15.0000000000
4740 2      14.0364566153      16.0000000000
4741 2      12.5155663020      17.0000000000
4742 2      16.1584144902      19.0000000000
4743 2      14.9085832435      20.0000000000
4744 2      14.2102559568      19.0000000000
4745 2      13.1104657933      17.0000000000
4746 2      13.0311151242      18.0000000000
4747 2      13.9059044234      19.0000000000
4748 2      15.4045030728      18.0000000000
4749 2      14.1972032554      18.0000000000
4750 2      16.0826835833      20.0000000000
4751 2      14.0552237950      20.0000000000
4752 2      15.9683635196      17.0000000000
4753 2      13.1223093386      18.0000000000
4754 2      16.7315842246      19.0000000000
4755 2      15.6945544587      19.0000000000
4756 2      17.4905760905      19.0000000000
4757 2      15.7764043990      20.0000000000
4758 2      14.3522577685      17.0000000000
4759 2      16.1024467633      21.0000000000
4760 2      14.8264767940      18.0000000000
4761 2      14.9716523805      17.0000000000
4762 2      16.1559967832      19.0000000000
4763 2      13.3727468159      15.0000000000
4764 2      16.0640390422      19.0000000000
4765 2      14.5183203331      16.0000000000
4766 2      14.1708646689      19.0000000000
4767 2      13.1631656204      20.0000000000
4768 2      16.5172271931      20.0000000000
4769 2      13.6289875592      17.0000000000
4770 2      13.3513943029      18.0000000000
4771 2      12.2044441481      15.0000000000
4772 2      15.2296647140      18.0000000000
4773 2      12.9557793029      16.0000000000
4774 2      12.9654363363      17.0000000000
4775 2      14.7131900022      17.0000000000
4776 2      16.0836943737      23.0000000000
4777 2      15.0414851243      18.0000000000
4778 2      16.6455594173      24.0000000000
4779 2      15.7482109165      20.0000000000
4780 2      14.9006020020      19.0000000000
4781 2      15.7209461067      21.0000000000
4782 2      14.4561833291      18.0000000000
4783 2      18.3707519108      18.0000000000
4784 2      13.2306898550      17.0000000000
4785 2      16.1000146202      21.0000000000
4786 2      13.1768043643      15.0000000000
4787 2      16.8945382242      20.0000000000
4788 2      12.9600357865      15.0000000000
4789 2      13.0864760094      17.0000000000
4790 2      14.2722575568      18.0000000000
4791 2      17.3673523065      19.0000000000
4792 2      14.7459817486      19.0000000000
4793 2      14.9914059447      18.0000000000
4794 2      14.1199196044      13.0000000000
4795 2      12.7747036742      17.0000000000
4796 2      15.9679686750      17.0000000000
4797 2      13.9753592385      20.0000000000
4798 2      13.2309103892      17.0000000000
4799 2      15.2863434752      21.0000000000
4800 2      13.7985180011      17.0000000000
4801 2      12.9105199919      17.0000000000
4802 2      14.7065961297      16.0000000000
4803 2      15.6478062824      19.0000000000
4804 2      15.0450730813      19.0000000000
4805 2      16.2478139884      19.0000000000
4806 2      16.7877824435      15.0000000000
4807 2      16.1089665364      17.0000000000
4808 2      12.5445293975      16.0000000000
4809 2      12.4494156340      16.0000000000
4810 2      16.5281097558      18.0000000000
4811 2      14.0746426904      16.0000000000
4812 2      12.9973587286      19.0000000000
4813 2      13.7896234030      15.0000000000
4814 2      20.2734962704      19.0000000000
4815 2      16.9535339308      19.0000000000
4816 2      16.6628896033      20.0000000000
4817 2      17.5754472423      18.0000000000
4818 2      15.4299095017      20.0000000000
4819 2      15.7471893281      18.0000000000
4820 2      14.8072068554      15.0000000000
4821 2      17.3845842114      19.0000000000
4822 2      15.3685441632      17.0000000000
4823 2      15.6822266968      18.0000000000
4824 2      14.9643923394      19.0000000000
4825 2      15.4404676095      20.0000000000
4826 2      15.1528750509      18.0000000000
4827 2      14.1995283130      15.0000000000
4828 2      18.3143274677      21.0000000000
4829 2      14.6822557625      18.0000000000
4830 2      15.3240420133      16.0000000000
4831 2      13.3450693599      16.0000000000
4832 2      13.8129739330      15.0000000000
4833 2      15.0461542817      19.0000000000
4834 2      15.7842308905      16.0000000000
4835 2      16.3253626313      19.0000000000
4836 2      15.4970958157      18.0000000000
4837 2      16.4683931906      16.0000000000
4838 2      18.6030428973      21.0000000000
4839 2      14.4876732467      19.0000000000
4840 2      12.8718814685      14.0000000000
4841 2      17.4131902106      19.0000000000
4842 2      14.8166462353      18.0000000000
4843 2      15.8390926683      16.0000000000
4844 2      14.1956239101      16.0000000000
4845 2      15.0735055286      21.0000000000
4846 2      15.9812009373      21.0000000000
4847 2      16.5311176386      23.0000000000
4848 2      15.1385956329      18.0000000000
4849 2      13.2049335521      15.0000000000
4850 2      15.2264703943      21.0000000000
4851 2      17.2247075884      23.0000000000
4852 2      13.8143516447      13.0000000000
4853 2      12.4348946618      16.0000000000
4854 2      15.7908318090      18.0000000000
4855 2      14.3795792480      18.0000000000
4856 2      14.4523335174      14.0000000000
4857 2      13.9861635673      15.0000000000
4858 2      17.9862594642      24.0000000000
4859 2      14.0972254287      17.0000000000
4860 2      15.0229517729      18.0000000000
4861 2      15.1500022108      19.0000000000
4862 2      13.9515547070      20.0000000000
4863 2      16.4496386037      18.0000000000
4864 2      14.1285632402      16.0000000000
4865 2      16.6386858210      19.0000000000
4866 2      15.5634818322      21.0000000000
4867 2      16.3613245801      22.0000000000
4868 2      12.8254878500      17.0000000000
4869 2      14.1226665209      19.0000000000
4870 2      15.5133368579      18.0000000000
4871 2      13.6077588087      15.0000000000
4872 2      14.5291011169      17.0000000000
4873 2      15.4209003297      18.0000000000
4874 2      15.9175143081      17.0000000000
4875 2      15.4246342849      17.0000000000
4876 2      16.4880368069      19.0000000000
4877 2      14.8080615721      18.0000000000
4878 2      16.2815815492      18.0000000000
4879 2      15.2072519507      20.0000000000
4880 2      12.4093973196      18.0000000000
4881 2      16.5343618787      20.0000000000
4882 2      19.8932897039      20.0000000000
4883 2      12.4185996478      14.0000000000
4884 2      17.7715397818      18.0000000000
4885 2      14.7605405487      16.0000000000
4886 2      13.5901382755      16.0000000000
4887 2      14.5142189703      16.0000000000
4888 2      14.3627789967      18.0000000000
4889 2      15.3243699077      18.0000000000
4890 2      13.3947794146      17.0000000000
4891 2      14.2017579673      18.0000000000
4892 2      14.2641190940      20.0000000000
4893 2      15.9611271910      17.0000000000
4894 2      14.1210014844      17.0000000000
4895 2      14.7655204359      18.0000000000
4896 2      14.2743129516      17.0000000000
4897 2      13.8467372378      17.0000000000
4898 2      14.3469847317      15.0000000000
4899 2      15.7089152066      20.0000000000
4900 2      16.5750454829      20.0000000000
4901 2      13.2973145748      18.0000000000
4902 2      14.1647003813      20.0000000000
4903 2      14.6578165050      16.0000000000
4904 2      14.1883294497      17.0000000000
4905 2      15.4146293278      18.0000000000
4906 2      12.9692576468      13.0000000000
4907 2      15.0556430943      21.0000000000
4908 2      14.1026698378      19.0000000000
4909 2      15.8546936566      18.0000000000
4910 2      14.3912817812      15.0000000000
4911 2      12.2568115009      15.0000000000
4912 2      15.9126230548      18.0000000000
4913 2      12.1900414468      14.0000000000
4914 2      15.8312042049      17.0000000000
4915 2      16.7295537075      16.0000000000
4916 2      14.5660363778      16.0000000000
4917 2      17.3588647321      19.0000000000
4918 2      16.2027076549      21.0000000000
4919 2      13.0982547803      19.0000000000
4920 2      14.7713359134      22.0000000000
4921 2      13.4678986627      17.0000000000
4922 2      14.6330103045      20.0000000000
4923 2      16.1696851182      22.0000000000
4924 2      14.7472071661      16.0000000000
4925 2      12.0777619232      15.0000000000
4926 2      13.3107359922      16.0000000000
4927 2      15.8489411238      18.0000000000
4928 2      13.9627403449      14.0000000000
4929 2      13.9568384973      20.0000000000
4930 2      16.7140127234      18.0000000000
4931 2      16.4589695548      23.0000000000
4932 2      14.0796379207      13.0000000000
4933 2      13.8523739419      16.0000000000
4934 2      14.9548496479      17.0000000000
4935 2      15.8785752441      16.0000000000
4936 2      15.0894190783      16.0000000000
4937 2      13.3938566359      16.0000000000
4938 2      17.2732457240      21.0000000000
4939 2      15.4128049018      17.0000000000
4940 2      15.3613286594      20.0000000000
4941 2      16.0727640128      19.0000000000
4942 2      15.0323035145      20.0000000000
4943 2      16.0714528471      20.0000000000
4944 2      15.6795950135      19.0000000000
4945 2      17.3290572063      16.0000000000
4946 2      14.9436493728      18.0000000000
4947 2      13.8897971818      17.0000000000
4948 2      14.5171945134      18.0000000000
4949 2      14.5661563547      18.0000000000
4950 2      13.7316786395      19.0000000000
4951 2      16.7922289729      20.0000000000
4952 2      13.6094154622      17.0000000000
4953 2      16.6453761445      19.0000000000
4954 2      15.0097977628      16.0000000000
4955 2      16.1296537029      17.0000000000
4956 2      14.5146476025      16.0000000000
4957 2      15.4421395551      19.0000000000
4958 2      16.9784373698      21.0000000000
4959 2      13.8468077763      17.0000000000
4960 2      16.1024818189      19.0000000000
4961 2      15.8459737118      15.0000000000
4962 2      11.2342820617      14.0000000000
4963 2      14.1894233648      20.0000000000
4964 2      12.7431157739      16.0000000000
4965 2      14.8143238956      17.0000000000
4966 2      14.0807230878      17.0000000000
4967 2      16.5776670341      19.0000000000
4968 2      14.7053956917      19.0000000000
4969 2      18.5358106892      15.0000000000
4970 2      15.8136143105      22.0000000000
4971 2      14.6097053924      19.0000000000
4972 2      15.1275106481      18.0000000000
4973 2      16.8716924449      20.0000000000
4974 2      13.5008867382      16.0000000000
4975 2      14.2722763686      16.0000000000
4976 2      11.6669130730      15.0000000000
4977 2      16.2347832048      19.0000000000
4978 2      14.4081852578      15.0000000000
4979 2      15.0277696569      19.0000000000
4980 2      12.1330369712      15.0000000000
4981 2      16.8760198829      26.0000000000
4982 2      15.7094638177      14.0000000000
4983 2      14.1352632091      16.0000000000
4984 2      14.5401396777      15.0000000000
4985 2      15.1391862326      17.0000000000
4986 2      14.6564410208      21.0000000000
4987 2      12.3592421360      14.0000000000
4988 2      16.0099227077      16.0000000000
4989 2      11.6221372985      16.0000000000
4990 2      15.5875830510      18.0000000000
4991 2      16.1642483404      18.0000000000
4992 2      13.8337661650      15.0000000000
4993 2      15.9739632608      19.0000000000
4994 2      18.0618061275      21.0000000000
4995 2      15.3424370979      18.0000000000
4996 2      13.8013860579      17.0000000000
4997 2      16.3256237745      19.0000000000
4998 2      13.1860446094      19.0000000000
4999 2      15.8971900426      14.0000000000
5000 2      12.6464969953      14.0000000000
5001 2      17.3550738345      19.0000000000
5002 2      17.4800020328      22.0000000000
5003 2      15.7670543043      21.0000000000
5004 2      14.3144969527      22.0000000000
5005 2      15.4241628257      16.0000000000
5006 2      14.6216219016      18.0000000000
5007 2      15.8654024990      17.0000000000
5008 2      13.7547920729      18.0000000000
5009 2      14.9980148116      18.0000000000
5010 2      14.1854765731      17.0000000000
5011 2      13.4128368648      18.0000000000
5012 2      15.4141750029      19.0000000000
5013 2      15.5746837379      20.0000000000
5014 2      15.9376592398      19.0000000000
5015 2      15.1084837906      20.0000000000
5016 2      15.9517385420      20.0000000000
5017 2      14.0509791514      19.0000000000
5018 2      14.9365097629      18.0000000000
5019 2      13.4379072394      18.0000000000
5020 2      15.1661727749      18.0000000000
5021 2      15.0616256811      17.0000000000
5022 2      16.0551508614      20.0000000000
5023 2      14.1357149404      18.0000000000
5024 2      14.7449206882      19.0000000000
5025 2      14.8536230387      18.0000000000
5026 2      15.0899092532      16.0000000000
5027 2      17.8110833069      17.0000000000
5028 2      13.6662889727      15.0000000000
5029 2      16.0478894823      20.0000000000
5030 2      13.2801971061      16.0000000000
5031 2      16.1060248304      22.0000000000
5032 2      14.0718111589      16.0000000000
5033 2      13.4727730585      16.0000000000
5034 2      15.1947883774      16.0000000000
5035 2      12.8785388486      19.0000000000
5036 2      17.3523903767      18.0000000000
5037 2      17.2220230623      18.0000000000
5038 2      15.2382441146      20.0000000000
5039 2      13.0804317759      15.0000000000
5040 2      16.1856514138      19.0000000000
5041 2      14.7648927691      15.0000000000
5042 2      12.9404623987      17.0000000000
5043 2      14.9889389639      16.0000000000
5044 2      14.3916081792      15.0000000000
5045 2      15.0425519737      19.0000000000
5046 2      15.5626369109      20.0000000000
5047 2      18.0322613653      22.0000000000
5048 2      13.2308163327      18.0000000000
5049 2      12.5602160587      17.0000000000
5050 2      14.3181015349      18.0000000000
5051 2      13.5723604232      16.0000000000
5052 2      15.5049430685      15.0000000000
5053 2      14.5360805316      18.0000000000
5054 2      17.4241299823      17.0000000000
5055 2      15.9218691874      21.0000000000
5056 2      13.8670127919      17.0000000000
5057 2      12.4910744886      16.0000000000
5058 2      15.6530862184      21.0000000000
5059 2      15.2128357093      18.0000000000
5060 2      14.5859513216      20.0000000000
5061 2      15.2516811016      16.0000000000
5062 2      13.8360758359      18.0000000000
5063 2      15.4090144993      21.0000000000
5064 2      16.2815981274      20.0000000000
5065 2      17.0010006142      20.0000000000
5066 2      12.0718832173      17.0000000000
5067 2      15.4873862662      17.0000000000
5068 2      17.2679724685      20.0000000000
5069 2      14.2582775646      18.0000000000
5070 2      16.6885681726      15.0000000000
5071 2      17.1923880781      23.0000000000
5072 2      14.5145714830      20.0000000000
5073 2      15.0340999951      21.0000000000
5074 2      14.3075057610      20.0000000000
5075 2      18.3481682193      22.0000000000
5076 2      14.4393690803      19.0000000000
5077 2      11.9908278135      16.0000000000
5078 2      14.3605306775      16.0000000000
5079 2      16.6478865640      19.0000000000
5080 2      14.4771135671      18.0000000000
5081 2      13.4331919224      17.0000000000
5082 2      16.8873686975      17.0000000000
5083 2      12.7619788508      16.0000000000
5084 2      14.5489970132      18.0000000000
5085 2      15.0432390173      19.0000000000
5086 2      15.6151913522      18.0000000000
5087 2      13.6629732648      17.0000000000
5088 2      15.6740243729      20.0000000000
5089 2      13.4822034492      18.0000000000
5090 2      17.5112597433      19.0000000000
5091 2      13.4296354524      21.0000000000
5092 2      15.0695736302      19.0000000000
5093 2      16.1317800809      22.0000000000
5094 2      14.7631985707      20.0000000000
5095 2      13.0409729902      12.0000000000
5096 2      12.3337349210      14.0000000000
5097 2      14.9691120293      19.0000000000
5098 2      16.2947077895      20.0000000000
5099 2      16.4264006158      19.0000000000
5100 2      13.9893622674      19.0000000000
5101 2      16.9737156042      21.0000000000
5102 2      15.7154887976      17.0000000000
5103 2      14.9211485180      18.0000000000
5104 2      15.0117761001      18.0000000000
5105 2      15.8406915615      16.0000000000
5106 2      15.9198142385      18.0000000000
5107 2      15.1801574805      18.0000000000
5108 2      13.6347216682      17.0000000000
5109 2      18.2483036039      19.0000000000
5110 2      15.6327058499      16.0000000000
5111 2      15.2133044652      19.0000000000
5112 2      16.6237558977      16.0000000000
5113 2      14.4344101804      16.0000000000
5114 2      16.1010618076      16.0000000000
5115 2      17.0485662414      21.0000000000
5116 2      15.2602671994      18.0000000000
5117 2      15.3281674341      17.0000000000
5118 2      16.2456239121      22.0000000000
5119 2      17.4223693190      21.0000000000
5120 2      13.0455022336      16.0000000000
5121 2      12.4267201951      14.0000000000
5122 2      16.2840001703      16.0000000000
5123 2      16.6418247530      19.0000000000
5124 2      14.0203046314      18.0000000000
5125 2      17.7917113062      19.0000000000
5126 2      17.2637037796      17.0000000000
5127 2      14.2107651478      17.0000000000
5128 2      13.3238024445      19.0000000000
5129 2      12.7831468046      17.0000000000
5130 2      16.2402022539      18.0000000000
5131 2      17.7925178456      23.0000000000
5132 2      14.7367391774      18.0000000000
5133 2      15.7716435739      21.0000000000
5134 2      17.0486954010      18.0000000000
5135 2      12.0045690573      18.0000000000
5136 2      19.2230032799      21.0000000000
5137 2      16.2504417948      21.0000000000
5138 2      15.7413965946      17.0000000000
5139 2      13.0188719699      16.0000000000
5140 2      14.5837837134      18.0000000000
5141 2      14.6596883328      20.0000000000
5142 2      15.0627783950      19.0000000000
5143 2      13.5534865507      19.0000000000
5144 2      17.6958092109      19.0000000000
5145 2      16.8818748281      19.0000000000
5146 2      16.4649910781      19.0000000000
5147 2      16.6279221660      16.0000000000
5148 2      14.8424916683      19.0000000000
5149 2      14.8342075910      15.0000000000
5150 2      16.8487862857      23.0000000000
5151 2      15.2753566004      15.0000000000
5152 2      12.4607602496      16.0000000000
5153 2      14.3012961811      17.0000000000
5154 2      13.9382396826      17.0000000000
5155 2      16.0580125048      19.0000000000
5156 2      11.9375018617      17.0000000000
5157 2      16.2026443936      20.0000000000
5158 2      15.9330386545      22.0000000000
5159 2      19.4164238134      25.0000000000
5160 2      18.4283389091      21.0000000000
5161 2      16.4645901765      17.0000000000
5162 2      16.1015377422      17.0000000000
5163 2      14.0205141003      17.0000000000
5164 2      15.4315329931      20.0000000000
5165 2      15.4372569090      19.0000000000
5166 2      16.7859036639      21.0000000000
5167 2      13.3227884235      19.0000000000
5168 2      13.8856394495      14.0000000000
5169 2      14.0959597325      16.0000000000
5170 2      14.7850065710      17.0000000000
5171 2      17.5388903399      20.0000000000
5172 2      14.1559956698      18.0000000000
5173 2      17.9588946272      24.0000000000
5174 2      17.2336646329      18.0000000000
5175 2      15.3834813489      18.0000000000
5176 2      14.7752403808      17.0000000000
5177 2      15.9493397226      17.0000000000
5178 2      12.5838961741      13.0000000000
5179 2      11.9868129385      14.0000000000
5180 2      14.6891031194      20.0000000000
5181 2      14.9092185393      16.0000000000
5182 2      12.7862462648      14.0000000000
5183 2      17.2416769676      18.0000000000
5184 2      18.4073005691      19.0000000000
5185 2      14.0566439823      16.0000000000
5186 2      17.1195161917      17.0000000000
5187 2      16.5271166275      17.0000000000
5188 2      13.5643988863      14.0000000000
5189 2      16.6831355042      22.0000000000
5190 2      15.1881711707      22.0000000000
5191 2      14.8046217370      21.0000000000
5192 2      11.6130699150      16.0000000000
5193 2      12.2270603079      13.0000000000
5194 2      15.8003630822      19.0000000000
5195 2      17.5472781161      20.0000000000
5196 2      15.4921201650      19.0000000000
5197 2      17.7215795826      21.0000000000
5198 2      18.1670970394      22.0000000000
5199 2      15.9042225746      21.0000000000
5200 2      14.2047807493      18.0000000000
5201 2      15.0992998636      17.0000000000
5202 2      15.6243671242      18.0000000000
5203 2      16.4782543173      21.0000000000
5204 2      18.2796603853      23.0000000000
5205 2      16.5188003725      18.0000000000
5206 2      13.9601791493      20.0000000000
5207 2      12.9295063815      17.0000000000
5208 2      14.5273939201      17.0000000000
5209 2      13.0393959349      17.0000000000
5210 2      13.6832908977      18.0000000000
5211 2      16.8090623892      22.0000000000
5212 2      14.3287699998      19.0000000000
5213 2      14.6265984241      17.0000000000
5214 2      11.4769507962      15.0000000000
5215 2      16.0037675647      19.0000000000
5216 2      14.4409869141      19.0000000000
5217 2      14.1361097234      21.0000000000
5218 2      13.0484298465      16.0000000000
5219 2      12.6394526588      15.0000000000
5220 2      14.3491974670      19.0000000000
5221 2      14.1228392613      17.0000000000
5222 2      14.7234671825      16.0000000000
5223 2      12.9041561367      16.0000000000
5224 2      17.7725007897      20.0000000000
5225 2      12.8781225245      16.0000000000
5226 2      15.0192378244      16.0000000000
5227 2      15.6999826322      19.0000000000
5228 2      17.1745559341      23.0000000000
5229 2      14.6779301699      16.0000000000
5230 2      14.2722041820      16.0000000000
5231 2      15.2533460848      22.0000000000
5232 2      13.5166438775      15.0000000000
5233 2      15.2152027070      16.0000000000
5234 2      15.1507039773      14.0000000000
5235 2      12.8224131812      17.0000000000
5236 2      14.7624094848      17.0000000000
5237 2      15.3442258290      20.0000000000
5238 2      18.5686739669      21.0000000000
5239 2      16.6512654354      18.0000000000
5240 2      14.3055309115      17.0000000000
5241 2      13.3979984484      16.0000000000
5242 2      15.5240293657      22.0000000000
5243 2      16.3739490763      19.0000000000
5244 2      13.5930193338      16.0000000000
5245 2      18.1678514025      24.0000000000
5246 2      15.2743740508      19.0000000000
5247 2      17.1402968376      19.0000000000
5248 2      13.7399584364      15.0000000000
5249 2      17.9456673202      17.0000000000
5250 2      17.4100619822      18.0000000000
5251 2      12.5674080249      15.0000000000
5252 2      17.4922279404      17.0000000000
5253 2      14.5200600601      21.0000000000
5254 2      16.0791959668      21.0000000000
5255 2      17.7861400834      19.0000000000
5256 2      15.2910655071      17.0000000000
5257 2      13.9998356553      19.0000000000
5258 2      13.9068591052      16.0000000000
5259 2      15.0533030986      21.0000000000
5260 2      15.2069798843      18.0000000000
5261 2      13.6615192650      16.0000000000
5262 2      14.2020523263      19.0000000000
5263 2      14.1506365704      16.0000000000
5264 2      14.0923102732      17.0000000000
5265 2      17.4266892335      23.0000000000
5266 2      12.1350541173      17.0000000000
5267 2      15.2775281250      18.0000000000
5268 2      14.3332734733      17.0000000000
5269 2      15.0515152790      20.0000000000
5270 2      12.8864647467      16.0000000000
5271 2      17.8565084218      19.0000000000
5272 2      13.9006361899      17.0000000000
5273 2      15.8309778182      18.0000000000
5274 2      14.0627447638      16.0000000000
5275 2      14.1303573436      18.0000000000
5276 2      13.0195141345      16.0000000000
5277 2      13.5098095649      17.0000000000
5278 2      15.0686110037      16.0000000000
5279 2      15.9955801139      14.0000000000
5280 2      12.9980564074      18.0000000000
5281 2      13.7311290022      15.0000000000
5282 2      13.5507572606      17.0000000000
5283 2      13.9839359619      16.0000000000
5284 2      14.0421373226      19.0000000000
5285 2      14.5351822054      19.0000000000
5286 2      14.4901903604      19.0000000000
5287 2      18.0821017007      20.0000000000
5288 2      14.0037677921      19.0000000000
5289 2      15.7830380403      17.0000000000
5290 2      15.1913192882      21.0000000000
5291 2      13.5982842191      15.0000000000
5292 2      16.5184333361      20.0000000000
5293 2      15.7916567332      19.0000000000
5294 2      14.4160538100      17.0000000000
5295 2      13.9501186248      17.0000000000
5296 2      14.4056074504      17.0000000000
5297 2      15.0771491951      21.0000000000
5298 2      14.4911606847      26.0000000000
5299 2      15.6413049149      14.0000000000
5300 2      15.2016061672      17.0000000000
5301 2      12.2736508937      16.0000000000
5302 2      15.7691011024      16.0000000000
5303 2      16.2218751464      21.0000000000
5304 2      16.2166085967      17.0000000000
5305 2      12.5516282377      16.0000000000
5306 2      16.2403660918      21.0000000000
5307 2      13.4777944959      18.0000000000
5308 2      11.3498702061      16.0000000000
5309 2      15.4725350453      16.0000000000
5310 2      12.9634247526      16.0000000000
5311 2      15.7636583283      15.0000000000
5312 2      14.8007469381      16.0000000000
5313 2      15.7536470477      18.0000000000
5314 2      13.5391755665      18.0000000000
5315 2      14.7693718078      23.0000000000
5316 2      15.5171837252      16.0000000000
5317 2      14.5299868979      20.0000000000
5318 2      14.6885997246      16.0000000000
5319 2      13.8928664506      19.0000000000
5320 2      14.6154259206      17.0000000000
5321 2      15.1238032215      19.0000000000
5322 2      15.7291555769      16.0000000000
5323 2      15.1530211407      15.0000000000
5324 2      15.8391306593      20.0000000000
5325 2      15.1591509508      19.0000000000
5326 2      12.4626580121      15.0000000000
5327 2      14.6274095340      18.0000000000
5328 2      15.9069455109      21.0000000000
5329 2      12.5870948734      15.0000000000
5330 2      13.8622998571      16.0000000000
5331 2      15.1175028251      20.0000000000
5332 2      12.0098607050      16.0000000000
5333 2      14.8852690523      19.0000000000
5334 2      13.7131993276      17.0000000000
5335 2      17.5188899417      18.0000000000
5336 2      13.6399216938      17.0000000000
5337 2      16.2190113261      20.0000000000
5338 2      13.6665079784      18.0000000000
5339 2      15.3264270102      19.0000000000
5340 2      12.9115563632      14.0000000000
5341 2      13.3714078216      18.0000000000
5342 2      15.2841548132      19.0000000000
5343 2      12.5941867188      14.0000000000
5344 2      14.3443372676      17.0000000000
5345 2      12.7691130049      16.0000000000
5346 2      13.8430505990      18.0000000000
5347 2      12.6763254475      14.0000000000
5348 2      16.5154183560      21.0000000000
5349 2      15.5761132933      16.0000000000
5350 2      19.9224774710      19.0000000000
5351 2      15.3920860760      17.0000000000
5352 2      15.5005435531      19.0000000000
5353 2      14.5089100129      18.0000000000
5354 2      11.9010036483      17.0000000000
5355 2      16.2819391948      20.0000000000
5356 2      18.2550989180      25.0000000000
5357 2      14.7734305177      20.0000000000
5358 2      14.0889600839      17.0000000000
5359 2      14.4726766563      17.0000000000
5360 2      16.1348431028      19.0000000000
5361 2      14.4259704940      15.0000000000
5362 2      17.5704877319      21.0000000000
5363 2      13.4240825005      20.0000000000
5364 2      12.7560721442      18.0000000000
5365 2      17.1668678343      21.0000000000
5366 2      14.1629387783      15.0000000000
5367 2      18.2286170095      23.0000000000
5368 2      15.0056887704      17.0000000000
5369 2      14.1130993365      17.0000000000
5370 2      17.4930196139      17.0000000000
5371 2      14.0838080569      20.0000000000
5372 2      13.2219033727      18.0000000000
5373 2      16.5391707790      23.0000000000
5374 2      14.6843801856      18.0000000000
5375 2      15.6052235941      22.0000000000
5376 2      15.5184469390      17.0000000000
5377 2      12.7292600511      16.0000000000
5378 2      17.3675385246      18.0000000000
5379 2      13.2141934683      17.0000000000
5380 2      15.5834776830      18.0000000000
5381 2      18.3806568753      18.0000000000
5382 2      16.9996774630      19.0000000000
5383 2      14.3055041268      17.0000000000
5384 2      17.4860217014      22.0000000000
5385 2      13.3131212902      16.0000000000
5386 2      16.0349191452      20.0000000000
5387 2      13.3505232510      15.0000000000
5388 2      14.9864587223      15.0000000000
5389 2      15.6406696974      15.0000000000
5390 2      17.0824513132      17.0000000000
5391 2      16.2144745985      17.0000000000
5392 2      15.9122125321      19.0000000000
5393 2      18.0999525526      21.0000000000
5394 2      16.1233006569      20.0000000000
5395 2      14.7317030554      23.0000000000
5396 2      16.3319071366      19.0000000000
5397 2      15.8887274811      18.0000000000
5398 2      16.4769951150      20.0000000000
5399 2      14.7011100159      15.0000000000
5400 2      13.1083754981      18.0000000000
5401 2      15.0615677345      19.0000000000
5402 2      12.1916050115      15.0000000000
5403 2      14.0014337951      17.0000000000
5404 2      15.9839241890      18.0000000000
5405 2      13.4201602827      19.0000000000
5406 2      15.9569082469      19.0000000000
5407 2      15.7991917004      20.0000000000
5408 2      15.9422230028      18.0000000000
5409 2      15.1651386752      18.0000000000
5410 2      16.7266244070      20.0000000000
5411 2      14.2217999963      20.0000000000
5412 2      14.4882269284      15.0000000000
5413 2      15.0990242332      20.0000000000
5414 2      14.9401515939      22.0000000000
5415 2      17.7931440124      23.0000000000
5416 2      16.5826878974      18.0000000000
5417 2      13.2064367463      15.0000000000
5418 2      17.5091106887      22.0000000000
5419 2      13.6324997287      22.0000000000
5420 2      14.8259610928      17.0000000000
5421 2      12.9419797047      15.0000000000
5422 2      14.7902838705      18.0000000000
5423 2      14.8420605649      18.0000000000
5424 2      17.9576754016      19.0000000000
5425 2      13.7971138149      17.0000000000
5426 2      15.5693541994      19.0000000000
5427 2      13.9599793013      14.0000000000
5428 2      13.0626345394      17.0000000000
5429 2      14.4542199157      15.0000000000
5430 2      14.3393254680      17.0000000000
5431 2      16.2430796788      20.0000000000
5432 2      16.3227764791      19.0000000000
5433 2      16.5148860030      18.0000000000
5434 2      17.8329157147      18.0000000000
5435 2      13.3684037805      15.0000000000
5436 2      14.9755389205      19.0000000000
5437 2      15.2394144727      18.0000000000
5438 2      13.5969426586      17.0000000000
5439 2      15.4628769813      19.0000000000
5440 2      14.8597697765      20.0000000000
5441 2      12.4371323382      16.0000000000
5442 2      14.9637305855      18.0000000000
5443 2      17.8350624553      22.0000000000
5444 2      13.9225356268      19.0000000000
5445 2      15.9063484191      19.0000000000
5446 2      15.6624250612      18.0000000000
5447 2      14.1925850360      19.0000000000
5448 2      14.4706864088      16.0000000000
5449 2      13.4686135111      15.0000000000
5450 2      15.2404555666      19.0000000000
5451 2      14.8093145356      17.0000000000
5452 2      14.1852391614      19.0000000000
5453 2      12.7649856469      15.0000000000
5454 2      18.4096811936      23.0000000000
5455 2      14.0241142833      16.0000000000
5456 2      16.6363057651      20.0000000000
5457 2      16.9159614936      19.0000000000
5458 2      13.3884577234      16.0000000000
5459 2      16.4746901644      19.0000000000
5460 2      12.8157544418      15.0000000000
5461 2      17.0019580171      22.0000000000
5462 2      17.5597138767      23.0000000000
5463 2      12.8586588492      14.0000000000
5464 2      14.8772781270      20.0000000000
5465 2      14.1383674689      16.0000000000
5466 2      16.4476332317      19.0000000000
5467 2      13.2572006242      13.0000000000
5468 2      15.0768546979      20.0000000000
5469 2      14.1699930833      18.0000000000
5470 2      13.1812401482      16.0000000000
5471 2      14.6582809026      16.0000000000
5472 2      14.8933795574      19.0000000000
5473 2      12.7704359453      17.0000000000
5474 2      17.3482737330      23.0000000000
5475 2      13.2652388301      19.0000000000
5476 2      15.4497456908      20.0000000000
5477 2      17.8051058029      19.0000000000
5478 2      12.0221884626      13.0000000000
5479 2      13.5454722325      17.0000000000
5480 2      14.5335173431      17.0000000000
5481 2      14.6606409210      15.0000000000
5482 2      17.5145185257      19.0000000000
5483 2      13.7317068107      21.0000000000
5484 2      14.3836018860      17.0000000000
5485 2      13.0514231085      15.0000000000
5486 2      19.5883879306      22.0000000000
5487 2      15.6807643108      17.0000000000
5488 2      14.1227778485      15.0000000000
5489 2      14.5203364311      15.0000000000
5490 2      14.4499620556      17.0000000000
5491 2      14.5784002354      17.0000000000
5492 2      15.2626439637      19.0000000000
5493 2      15.2464077465      19.0000000000
5494 2      12.1174380381      15.0000000000
5495 2      14.3527315670      16.0000000000
5496 2      18.1031273157      22.0000000000
5497 2      14.5460671101      16.0000000000
5498 2      16.2049921291      20.0000000000
5499 2      15.9665562050      22.0000000000
5500 2      12.4019099791      18.0000000000
5501 2      16.3970948707      19.0000000000
5502 2      13.5078258821      18.0000000000
5503 2      18.3540913576      16.0000000000
5504 2      17.7679606400      14.0000000000
5505 2      16.2346045492      21.0000000000
5506 2      13.9594463551      19.0000000000
5507 2      15.0906584675      20.0000000000
5508 2      16.7782001891      19.0000000000
5509 2      14.2065326446      16.0000000000
5510 2      15.9884786365      21.0000000000
5511 2      17.5860799654      24.0000000000
5512 2      14.0093270119      17.0000000000
5513 2      12.1643163237      16.0000000000
5514 2      14.1121719690      16.0000000000
5515 2      14.0180307992      16.0000000000
5516 2      14.6991156119      16.0000000000
5517 2      15.4954647323      19.0000000000
5518 2      15.0568667667      18.0000000000
5519 2      16.2183637834      20.0000000000
5520 2      16.4724826343      18.0000000000
5521 2      14.5474295309      17.0000000000
5522 2      15.5627352628      21.0000000000
5523 2      21.4948593771      19.0000000000
5524 2      14.8845699900      19.0000000000
5525 2      12.9137233690      15.0000000000
5526 2      13.0927741898      17.0000000000
5527 2      12.9437827995      14.0000000000
5528 2      15.9990665725      17.0000000000
5529 2      13.5718038841      18.0000000000
5530 2      15.0874936074      18.0000000000
5531 2      11.8125708765      14.0000000000
5532 2      16.1648492710      21.0000000000
5533 2      14.6804419773      15.0000000000
5534 2      13.5719596922      17.0000000000
5535 2      16.0561340512      19.0000000000
5536 2      17.9373009586      18.0000000000
5537 2      15.3124284980      21.0000000000
5538 2      15.0241641494      18.0000000000
5539 2      13.4025770300      18.0000000000
5540 2      17.2410438759      17.0000000000
5541 2      16.1908423617      18.0000000000
5542 2      16.0656373501      17.0000000000
5543 2      15.9980374937      19.0000000000
5544 2      13.9112476421      16.0000000000
5545 2      15.9243006737      18.0000000000
5546 2      12.2565777075      15.0000000000
5547 2      12.1890492331      15.0000000000
5548 2      16.3511135251      20.0000000000
5549 2      16.3761075055      18.0000000000
5550 2      12.6138403733      15.0000000000
5551 2      14.9967605818      17.0000000000
5552 2      15.9797329555      17.0000000000
5553 2      14.3965023904      15.0000000000
5554 2      15.1671437371      14.0000000000
5555 2      13.2574698081      18.0000000000
5556 2      14.6381848529      17.0000000000
5557 2      15.4417511313      15.0000000000
5558 2      13.6102757186      21.0000000000
5559 2      12.7920506693      18.0000000000
5560 2      14.4600840806      18.0000000000
5561 2      12.1358321552      17.0000000000
5562 2      17.0790663294      16.0000000000
5563 2      15.3248376730      17.0000000000
5564 2      15.6021233058      19.0000000000
5565 2      14.2500084768      14.0000000000
5566 2      15.2160149363      22.0000000000
5567 2      13.9555001880      17.0000000000
5568 2      17.3545942174      19.0000000000
5569 2      15.1097793487      19.0000000000
5570 2      16.6582851164      17.0000000000
5571 2      15.9884466299      20.0000000000
5572 2      17.3680019292      19.0000000000
5573 2      16.7966943089      20.0000000000
5574 2      13.5416749630      15.0000000000
5575 2      15.4353888945      19.0000000000
5576 2      13.5195586712      17.0000000000
5577 2      13.7329380284      20.0000000000
5578 2      19.2525498842      22.0000000000
5579 2      14.6309107473      18.0000000000
5580 2      14.4711878619      15.0000000000
5581 2      16.0009167790      18.0000000000
5582 2      15.5242152352      15.0000000000
5583 2      15.6250153407      20.0000000000
5584 2      14.4263011946      17.0000000000
5585 2      16.1801543360      22.0000000000
5586 2      15.4589326994      18.0000000000
5587 2      15.0915172578      19.0000000000
5588 2      16.1316977548      21.0000000000
5589 2      17.5188833996      20.0000000000
5590 2      14.2605633554      17.0000000000
5591 2      14.8544095349      19.0000000000
5592 2      13.4684045153      17.0000000000
5593 2      16.0786899837      20.0000000000
5594 2      15.6871111347      17.0000000000
5595 2      12.3772490756      17.0000000000
5596 2      13.8318647407      17.0000000000
5597 2      14.6759097236      18.0000000000
5598 2      12.7569855453      16.0000000000
5599 2      14.3711586492      15.0000000000
5600 2      16.5896414057      19.0000000000
5601 2      14.3734159346      17.0000000000
5602 2      14.8169271494      16.0000000000
5603 2      14.7949663250      19.0000000000
5604 2      14.8571314153      17.0000000000
5605 2      15.1192759399      19.0000000000
5606 2      13.2990557452      16.0000000000
5607 2      12.4953237000      16.0000000000
5608 2      16.2989749285      18.0000000000
5609 2      15.5342057432      20.0000000000
5610 2      15.5037719465      17.0000000000
5611 2      13.3090852387      19.0000000000
5612 2      15.9153636552      18.0000000000
5613 2      15.6107445376      19.0000000000
5614 2      14.4893858663      21.0000000000
5615 2      13.9449829628      19.0000000000
5616 2      14.3660799975      18.0000000000
5617 2      15.4341617068      18.0000000000
5618 2      14.7480557942      15.0000000000
5619 2      16.0505176096      20.0000000000
5620 2      16.3678543943      19.0000000000
5621 2      16.5929379325      17.0000000000
5622 2      15.5367143836      18.0000000000
5623 2      16.1467914201      17.0000000000
5624 2      15.2890467132      19.0000000000
5625 2      15.1109243526      21.0000000000
5626 2      14.4354566253      20.0000000000
5627 2      17.4506979468      22.0000000000
5628 2      15.7457431301      19.0000000000
5629 2      13.1922087850      17.0000000000
5630 2      11.7305902632      14.0000000000
5631 2      13.4151222269      15.0000000000
5632 2      14.3742061944      17.0000000000
5633 2      12.7730047960      18.0000000000
5634 2      17.4670570205      23.0000000000
5635 2      17.3857630334      18.0000000000
5636 2      14.4770899960      16.0000000000
5637 2      16.4864696828      19.0000000000
5638 2      15.5564784792      20.0000000000
5639 2      13.8250408215      19.0000000000
5640 2      17.1779996944      20.0000000000
5641 2      13.7715904876      15.0000000000
5642 2      15.0060306147      17.0000000000
5643 2      15.1070149911      16.0000000000
5644 2      14.5129197117      15.0000000000
5645 2      14.0103504855      16.0000000000
5646 2      13.2310520715      19.0000000000
5647 2      19.0076728231      18.0000000000
5648 2      15.3049117390      19.0000000000
5649 2      17.6169804671      18.0000000000
5650 2      14.1905572105      19.0000000000
5651 2      13.6215205791      16.0000000000
5652 2      13.7566501342      15.0000000000
5653 2      14.2062442839      16.0000000000
5654 2      14.5389322627      17.0000000000
5655 2      14.8079768707      15.0000000000
5656 2      14.9823989168      21.0000000000
5657 2      14.6163770541      16.0000000000
5658 2      15.1305666299      18.0000000000
5659 2      15.4120431258      16.0000000000
5660 2      16.0918194396      19.0000000000
5661 2      12.9840864238      17.0000000000
5662 2      14.6075857779      19.0000000000
5663 2      15.3751796275      19.0000000000
5664 2      16.9847274907      21.0000000000
5665 2      15.7816855784      15.0000000000
5666 2      12.8905503062      16.0000000000
5667 2      15.1271425927      18.0000000000
5668 2      12.6247696105      15.0000000000
5669 2      15.6034961236      17.0000000000
5670 2      15.6697711368      18.0000000000
5671 2      17.0356747822      17.0000000000
5672 2      15.4833984793      17.0000000000
5673 2      15.5966133987      16.0000000000
5674 2      11.9626968661      17.0000000000
5675 2      13.0757030899      17.0000000000
5676 2      14.8275537494      18.0000000000
5677 2      14.8037733730      19.0000000000
5678 2      19.9720002251      22.0000000000
5679 2      17.5116112725      17.0000000000
5680 2      14.6327666804      22.0000000000
5681 2      14.0374510885      19.0000000000
5682 2      17.1858578376      19.0000000000
5683 2      14.4192364800      21.0000000000
5684 2      14.0807547303      18.0000000000
5685 2      17.6673781920      19.0000000000
5686 2      13.6466921116      22.0000000000
5687 2      12.0439577186      17.0000000000
5688 2      16.6668643603      22.0000000000
5689 2      14.9878575631      18.0000000000
5690 2      15.0481563628      16.0000000000
5691 2      15.8748782448      19.0000000000
5692 2      13.6514394309      16.0000000000
5693 2      16.7964689532      20.0000000000
5694 2      15.0265713408      16.0000000000
5695 2      13.4067039830      17.0000000000
5696 2      17.6159272269      19.0000000000
5697 2      16.4355402486      22.0000000000
5698 2      14.0822180655      16.0000000000
5699 2      16.8947407941      22.0000000000
5700 2      15.2391941723      20.0000000000
5701 2      13.4325263282      16.0000000000
5702 2      15.6454712007      22.0000000000
5703 2      14.9899690484      17.0000000000
5704 2      14.1191545406      15.0000000000
5705 2      13.7703026966      15.0000000000
5706 2      14.9045231221      16.0000000000
5707 2      13.7301351065      16.0000000000
5708 2      14.7183676656      21.0000000000
5709 2      14.4763347196      17.0000000000
5710 2      15.5762456097      16.0000000000
5711 2      13.8738662573      18.0000000000
5712 2      14.1109773061      15.0000000000
5713 2      13.4215929099      15.0000000000
5714 2      16.4723622878      17.0000000000
5715 2      12.9768593808      18.0000000000
5716 2      13.5445594008      18.0000000000
5717 2      15.0692712483      21.0000000000
5718 2      16.7938744338      17.0000000000
5719 2      13.6579439995      16.0000000000
5720 2      17.4177817587      20.0000000000
5721 2      18.0539447251      20.0000000000
5722 2      14.8820577595      16.0000000000
5723 2      18.2219274833      17.0000000000
5724 2      14.9192393129      17.0000000000
5725 2      15.3814553421      21.0000000000
5726 2      15.0046853270      17.0000000000
5727 2      14.7481660713      17.0000000000
5728 2      17.6236960324      18.0000000000
5729 2      14.2722735721      15.0000000000
5730 2      13.2081748481      15.0000000000
5731 2      14.1398055747      18.0000000000
5732 2      14.1781846406      18.0000000000
5733 2      15.2014681298      17.0000000000
5734 2      17.4456996025      18.0000000000
5735 2      14.2674137076      18.0000000000
5736 2      13.9854260925      16.0000000000
5737 2      12.8950943054      16.0000000000
5738 2      13.8270090616      17.0000000000
5739 2      16.1617791187      18.0000000000
5740 2      15.9717036920      17.0000000000
5741 2      15.2950290119      17.0000000000
5742 2      16.2709798173      18.0000000000
5743 2      14.8025705652      20.0000000000
5744 2      13.9967236829      21.0000000000
5745 2      13.6401448447      18.0000000000
5746 2      10.6280533776      16.0000000000
5747 2      13.6192032356      19.0000000000
5748 2      15.6276856292      18.0000000000
5749 2      13.4274746140      13.0000000000
5750 2      14.4516524017      19.0000000000
5751 2      19.9278344421      25.0000000000
5752 2      11.8309286051      18.0000000000
5753 2      14.8847912536      19.0000000000
5754 2      12.6467791461      18.0000000000
5755 2      18.9862894269      21.0000000000
5756 2      14.0628684719      16.0000000000
5757 2      13.9818744626      17.0000000000
5758 2      16.5662845061      18.0000000000
5759 2      15.2264167727      20.0000000000
5760 2      14.8423648042      23.0000000000
5761 2      14.5400391499      17.0000000000
5762 2      14.4121850817      17.0000000000
5763 2      14.3540693321      18.0000000000
5764 2      13.4316464616      16.0000000000
5765 2      16.9327686507      20.0000000000
5766 2      12.4427525838      16.0000000000
5767 2      15.0486397190      23.0000000000
5768 2      16.3235902281      19.0000000000
5769 2      15.8682613981      17.0000000000
5770 2      13.4727271710      20.0000000000
5771 2      12.0178977338      15.0000000000
5772 2      14.6443828498      17.0000000000
5773 2      14.9545650484      13.0000000000
5774 2      14.0007828615      24.0000000000
5775 2      14.5244354621      16.0000000000
5776 2      16.4308369708      20.0000000000
5777 2      13.8112450231      17.0000000000
5778 2      15.1473350686      20.0000000000
5779 2      15.9957371726      19.0000000000
5780 2      15.5685936588      21.0000000000
5781 2      13.0610441284      17.0000000000
5782 2      14.0402058000      17.0000000000
5783 2      16.1178516181      19.0000000000
5784 2      14.5210899330      17.0000000000
5785 2      14.0604685624      21.0000000000
5786 2      14.3026291385      19.0000000000
5787 2      14.0894243350      17.0000000000
5788 2      14.5623507683      19.0000000000
5789 2      16.9031736956      20.0000000000
5790 2      13.2372223728      17.0000000000
5791 2      15.4757267909      19.0000000000
5792 2      12.8716564779      14.0000000000
5793 2      17.2813696739      19.0000000000
5794 2      18.7352361421      23.0000000000
5795 2      16.4442445377      18.0000000000
5796 2      16.9877169520      20.0000000000
5797 2      14.6357040761      17.0000000000
5798 2      15.0919375755      18.0000000000
5799 2      14.0837254169      17.0000000000
5800 2      13.7335068800      19.0000000000
5801 2      13.2802899383      17.0000000000
5802 2      15.4149933529      19.0000000000
5803 2      12.5558300850      14.0000000000
5804 2      14.6116537580      19.0000000000
5805 2      17.6465064594      19.0000000000
5806 2      15.0925765001      16.0000000000
5807 2      14.6075123453      17.0000000000
5808 2      16.8539890437      23.0000000000
5809 2      15.1168690934      19.0000000000
5810 2      14.4254588622      17.0000000000
5811 2      13.4372279894      17.0000000000
5812 2      15.1416057399      19.0000000000
5813 2      16.1389082361      23.0000000000
5814 2      13.0081161637      15.0000000000
5815 2      13.7566370503      19.0000000000
5816 2      13.5582398088      17.0000000000
5817 2      14.3918253399      21.0000000000
5818 2      14.7665991443      18.0000000000
5819 2      14.6447034763      16.0000000000
5820 2      15.6911529533      23.0000000000
5821 2      17.5054411492      17.0000000000
5822 2      15.1085251075      17.0000000000
5823 2      14.4163879493      16.0000000000
5824 2      13.4722751824      18.0000000000
5825 2      15.8745999401      19.0000000000
5826 2      14.9590911356      16.0000000000
5827 2      14.2684429863      19.0000000000
5828 2      14.2725204252      21.0000000000
5829 2      14.3451969973      21.0000000000
5830 2      12.3336075432      17.0000000000
5831 2      15.6245029224      20.0000000000
5832 2      14.0963199704      17.0000000000
5833 2      16.1293538786      20.0000000000
5834 2      15.4042100459      19.0000000000
5835 2      15.6567385000      16.0000000000
5836 2      14.6569614661      20.0000000000
5837 2      13.1483328532      17.0000000000
5838 2      16.7402459349      19.0000000000
5839 2      15.1022293721      18.0000000000
5840 2      14.5322593770      16.0000000000
5841 2      13.6165372219      18.0000000000
5842 2      15.3848089160      20.0000000000
5843 2      14.3918336424      19.0000000000
5844 2      13.2744047094      14.0000000000
5845 2      14.8008393244      17.0000000000
5846 2      14.7043288604      17.0000000000
5847 2      15.9770171314      18.0000000000
5848 2      13.0960046512      16.0000000000
5849 2      12.7667211145      18.0000000000
5850 2      12.8315338529      17.0000000000
5851 2      12.5726776492      15.0000000000
5852 2      14.0151044633      20.0000000000
5853 2      16.9232677470      20.0000000000
5854 2      15.3086875140      19.0000000000
5855 2      17.5920558628      22.0000000000
5856 2      13.6233240488      18.0000000000
5857 2      12.5827172102      14.0000000000
5858 2      15.1876243414      19.0000000000
5859 2      15.5385480228      21.0000000000
5860 2      15.6093657914      19.0000000000
5861 2      14.8502413151      17.0000000000
5862 2      15.0271461703      17.0000000000
5863 2      14.8037786199      19.0000000000
5864 2      14.3619749335      18.0000000000
5865 2      15.5346973211      22.0000000000
5866 2      17.0159764399      17.0000000000
5867 2      15.6869387514      18.0000000000
5868 2      15.2657705822      18.0000000000
5869 2      15.1206600210      18.0000000000
5870 2      13.1590462780      18.0000000000
5871 2      15.4993120782      15.0000000000
5872 2      17.3851048269      22.0000000000
5873 2      13.8098454422      18.0000000000
5874 2      16.3404715403      18.0000000000
5875 2      13.0339219057      16.0000000000
5876 2      15.1784501238      17.0000000000
5877 2      17.6671387168      21.0000000000
5878 2      15.7745985954      21.0000000000
5879 2      15.3934093601      18.0000000000
5880 2      15.6627158381      19.0000000000
5881 2      17.1727413809      17.0000000000
5882 2      15.4565864560      18.0000000000
5883 2      13.6453402154      19.0000000000
5884 2      11.9248127790      16.0000000000
5885 2      14.4132602489      21.0000000000
5886 2      16.9471229543      21.0000000000
5887 2      13.5936817111      20.0000000000
5888 2      16.4935216790      21.0000000000
5889 2      13.7933520893      15.0000000000
5890 2      12.9955276376      17.0000000000
5891 2      14.5600802791      20.0000000000
5892 2      15.3418916174      20.0000000000
5893 2      14.8130961147      17.0000000000
5894 2      12.2149585328      14.0000000000
5895 2      14.9837990381      18.0000000000
5896 2      16.8884287783      21.0000000000
5897 2      15.1358797373      19.0000000000
5898 2      12.9757605010      19.0000000000
5899 2      14.6153704489      18.0000000000
5900 2      14.2361742653      16.0000000000
5901 2      14.9780504631      18.0000000000
5902 2      14.7579624621      15.0000000000
5903 2      16.0622563873      20.0000000000
5904 2      13.2045120418      17.0000000000
5905 2      14.0363656186      16.0000000000
5906 2      14.4783417286      16.0000000000
5907 2      15.2342139354      18.0000000000
5908 2      15.9850833960      19.0000000000
5909 2      14.8180354540      17.0000000000
5910 2      13.7455517538      18.0000000000
5911 2      14.3189259656      19.0000000000
5912 2      17.3671243679      19.0000000000
5913 2      12.3454995760      16.0000000000
5914 2      17.4170397619      20.0000000000
5915 2      16.3029109524      22.0000000000
5916 2      16.7155118384      20.0000000000
5917 2      17.0780631768      20.0000000000
5918 2      15.5250961763      18.0000000000
5919 2      14.3334920098      19.0000000000
5920 2      14.5733139286      17.0000000000
5921 2      13.7972362990      17.0000000000
5922 2      14.0202500820      20.0000000000
5923 2      15.5543731914      21.0000000000
5924 2      15.4435549910      17.0000000000
5925 2      12.5675685968      14.0000000000
5926 2      14.2116630881      16.0000000000
5927 2      13.6408677423      14.0000000000
5928 2      15.7502290397      20.0000000000
5929 2      13.8646094952      19.0000000000
5930 2      15.8463868208      20.0000000000
5931 2      16.0340890102      21.0000000000
5932 2      13.1237399885      16.0000000000
5933 2      13.7351693388      15.0000000000
5934 2      15.3780956483      20.0000000000
5935 2      16.9954373173      19.0000000000
5936 2      14.7169036483      18.0000000000
5937 2      13.2824585556      17.0000000000
5938 2      14.6021402504      18.0000000000
5939 2      13.6818981723      16.0000000000
5940 2      15.6122186272      20.0000000000
5941 2      15.6885602972      21.0000000000
5942 2      14.1163555559      16.0000000000
5943 2      14.3058266999      18.0000000000
5944 2      13.8448860474      17.0000000000
5945 2      16.7381986714      21.0000000000
5946 2      13.8446640081      16.0000000000
5947 2      16.4004995154      15.0000000000
5948 2      14.9778146981      15.0000000000
5949 2      15.5500405999      18.0000000000
5950 2      18.2311536911      23.0000000000
5951 2      15.5747725597      15.0000000000
5952 2      14.9644250438      21.0000000000
5953 2      14.7172617194      16.0000000000
5954 2      17.2193729803      19.0000000000
5955 2      16.5852184091      23.0000000000
5956 2      15.7372099710      19.0000000000
5957 2      15.9948032885      19.0000000000
5958 2      14.3207159192      20.0000000000
5959 2      15.7342248519      21.0000000000
5960 2      14.7574233047      18.0000000000
5961 2      15.8998711784      15.0000000000
5962 2      13.8885689479      16.0000000000
5963 2      13.0738176400      16.0000000000
5964 2      18.2207894010      23.0000000000
5965 2      15.9190332792      19.0000000000
5966 2      15.3023302867      15.0000000000
5967 2      17.5005706814      18.0000000000
5968 2      15.1852861231      19.0000000000
5969 2      14.5184763003      17.0000000000
5970 2      15.1293980534      16.0000000000
5971 2      14.5235254368      14.0000000000
5972 2      17.3292082292      20.0000000000
5973 2      15.7317701917      19.0000000000
5974 2      14.8618163346      18.0000000000
5975 2      16.3523415428      22.0000000000
5976 2      14.5209281226      17.0000000000
5977 2      13.6912343244      14.0000000000
5978 2      17.1927593021      22.0000000000
5979 2      13.9816952652      17.0000000000
5980 2      16.9905680306      20.0000000000
5981 2      14.6436842421      18.0000000000
5982 2      16.9350985972      19.0000000000
5983 2      13.4843695151      21.0000000000
5984 2      17.1444942572      19.0000000000
5985 2      14.9345875029      19.0000000000
5986 2      16.0540584546      20.0000000000
5987 2      14.5499038806      18.0000000000
5988 2      14.7379227894      16.0000000000
5989 2      15.2879499797      17.0000000000
5990 2      14.9521729083      21.0000000000
5991 2      14.4187560171      17.0000000000
5992 2      13.8970964371      16.0000000000
5993 2      14.1668987806      18.0000000000
5994 2      16.4090694812      22.0000000000
5995 2      17.8381330491      19.0000000000
5996 2      15.6441509033      19.0000000000
5997 2      14.2502407765      17.0000000000
5998 2      15.8202945950      22.0000000000
5999 2      15.7219763051      19.0000000000
6000 2      11.9792347376      15.0000000000
6001 2      14.9000142201      17.0000000000
6002 2      15.8283327350      20.0000000000
6003 2      14.2205175709      19.0000000000
6004 2      12.8877041363      18.0000000000
6005 2      14.5546004153      16.0000000000
6006 2      14.2458290076      20.0000000000
6007 2      18.1334861495      19.0000000000
6008 2      16.0064621643      19.0000000000
6009 2      12.3251017572      16.0000000000
6010 2      14.7325965554      18.0000000000
6011 2      13.8034958085      14.0000000000
6012 2      16.1562150947      16.0000000000
6013 2      13.6135162347      17.0000000000
6014 2      14.3761726438      18.0000000000
6015 2      14.9825689538      17.0000000000
6016 2      15.0660318727      16.0000000000
6017 2      14.1268823666      20.0000000000
6018 2      13.0260351758      16.0000000000
6019 2      18.4809490767      24.0000000000
6020 2      14.7424675538      15.0000000000
6021 2      12.0733251562      16.0000000000
6022 2      14.7457008666      18.0000000000
6023 2      16.5980753088      21.0000000000
6024 2      16.4087289384      17.0000000000
6025 2      12.4113767945      14.0000000000
6026 2      16.3175010498      20.0000000000
6027 2      12.9647565661      15.0000000000
6028 2      16.8516625940      19.0000000000
6029 2      15.3418306447      19.0000000000
6030 2      13.4379362521      18.0000000000
6031 2      13.9894086959      18.0000000000
6032 2      15.1930967681      18.0000000000
6033 2      15.5587914811      18.0000000000
6034 2      14.6756566794      18.0000000000
6035 2      13.1037511903      14.0000000000
6036 2      14.0511090832      18.0000000000
6037 2      14.7984008088      18.0000000000
6038 2      13.3325227169      17.0000000000
6039 2      14.2759726168      14.0000000000
6040 2      14.2330708353      14.0000000000
6041 2      13.4136377340      18.0000000000
6042 2      17.6153734057      18.0000000000
6043 2      13.6711475374      16.0000000000
6044 2      14.1250329487      19.0000000000
6045 2      16.2343803317      20.0000000000
6046 2      13.5553960496      16.0000000000
6047 2      14.9678737292      19.0000000000
6048 2      15.1151040181      16.0000000000
6049 2      18.1394903636      22.0000000000
6050 2      15.2482789852      19.0000000000
6051 2      14.0469963274      17.0000000000
6052 2      13.6990038865      17.0000000000
6053 2      12.7710540433      14.0000000000
6054 2      15.2476653329      17.0000000000
6055 2      16.8339549055      19.0000000000
6056 2      16.4254631933      18.0000000000
6057 2      15.7891485745      15.0000000000
6058 2      17.6255111651      21.0000000000
6059 2      15.1136641349      17.0000000000
6060 2      14.2356990472      19.0000000000
6061 2      17.0335187599      18.0000000000
6062 2      14.2787665825      20.0000000000
6063 2      18.6412921747      25.0000000000
6064 2      21.4661877481      26.0000000000
6065 2      14.2685241046      19.0000000000
6066 2      15.0519950174      17.0000000000
6067 2      18.3053137186      21.0000000000
6068 2      15.3748623799      16.0000000000
6069 2      17.2057223391      18.0000000000
6070 2      14.1212726666      16.0000000000
6071 2      15.6969097100      16.0000000000
6072 2      19.4861771165      23.0000000000
6073 2      15.0181368961      18.0000000000
6074 2      15.8600127697      20.0000000000
6075 2      14.2346272460      18.0000000000
6076 2      12.9992690833      17.0000000000
6077 2      15.6673209283      19.0000000000
6078 2      15.8368935668      20.0000000000
6079 2      13.9377717030      16.0000000000
6080 2      16.2182611695      19.0000000000
6081 2      13.5023007413      16.0000000000
6082 2      15.9134303961      17.0000000000
6083 2      14.8040434472      20.0000000000
6084 2      14.7214120751      18.0000000000
6085 2      12.9679553379      15.0000000000
6086 2      13.4767373085      16.0000000000
6087 2      16.5964795616      22.0000000000
6088 2      13.9753709155      16.0000000000
6089 2      15.0950359364      16.0000000000
6090 2      15.2936437148      14.0000000000
6091 2      16.3971532714      17.0000000000
6092 2      14.3755724518      18.0000000000
6093 2      13.8318579132      14.0000000000
6094 2      14.3692337578      15.0000000000
6095 2      14.9760319693      20.0000000000
6096 2      14.5169530606      21.0000000000
6097 2      15.6830954192      21.0000000000
6098 2      14.1789072535      15.0000000000
6099 2      14.3095742487      19.0000000000
6100 2      15.2203779917      18.0000000000
6101 2      15.5753562467      19.0000000000
6102 2      17.8486941987      17.0000000000
6103 2      13.1935086339      17.0000000000
6104 2      15.2735150576      17.0000000000
6105 2      14.3294896066      18.0000000000
6106 2      18.2287412523      22.0000000000
6107 2      15.6369221726      19.0000000000
6108 2      14.2946715189      16.0000000000
6109 2      15.7281216780      19.0000000000
6110 2      17.1134325666      19.0000000000
6111 2      14.3200763590      20.0000000000
6112 2      15.6343390787      21.0000000000
6113 2      12.9962816927      13.0000000000
6114 2      14.6703642316      19.0000000000
6115 2      12.1660570430      14.0000000000
6116 2      15.2100715451      16.0000000000
6117 2      13.6890625621      18.0000000000
6118 2      15.5488011736      17.0000000000
6119 2      15.1571306281      18.0000000000
6120 2      13.3304917155      17.0000000000
6121 2      13.9505389516      15.0000000000
6122 2      15.9754405361      19.0000000000
6123 2      14.3732095924      16.0000000000
6124 2      17.0709007184      20.0000000000
6125 2      16.5204377404      16.0000000000
6126 2      12.6144623680      14.0000000000
6127 2      20.3773499476      21.0000000000
6128 2      14.9203772287      17.0000000000
6129 2      14.5138627880      18.0000000000
6130 2      14.2202342865      16.0000000000
6131 2      14.6905020168      21.0000000000
6132 2      16.0784431354      14.0000000000
6133 2      12.7170520939      14.0000000000
6134 2      15.6038122641      20.0000000000
6135 2      15.3392399175      18.0000000000
6136 2      13.0198546202      14.0000000000
6137 2      16.0248991513      17.0000000000
6138 2      12.9911761909      15.0000000000
6139 2      14.1030337028      20.0000000000
6140 2      16.0730685260      20.0000000000
6141 2      15.6814738746      17.0000000000
6142 2      17.1533175645      23.0000000000
6143 2      17.1570492775      20.0000000000
6144 2      12.8443976504      17.0000000000
6145 2      16.9862887995      25.0000000000
6146 2      14.1113600821      17.0000000000
6147 2      12.4754445283      16.0000000000
6148 2      14.0743513365      16.0000000000
6149 2      13.6300538666      16.0000000000
6150 2      12.0869646023      15.0000000000
6151 2      17.7024891880      26.0000000000
6152 2      15.1096264175      15.0000000000
6153 2      13.8231986229      16.0000000000
6154 2      16.0406461237      19.0000000000
6155 2      12.2395399105      16.0000000000
6156 2      13.9167662399      16.0000000000
6157 2      13.6715013595      16.0000000000
6158 2      15.6151805172      18.0000000000
6159 2      14.0784676778      18.0000000000
6160 2      14.0193406305      17.0000000000
6161 2      16.6569881391      22.0000000000
6162 2      15.1549266177      14.0000000000
6163 2      19.0487111252      26.0000000000
6164 2      15.5484152754      17.0000000000
6165 2      15.9247772903      17.0000000000
6166 2      15.0079873465      17.0000000000
6167 2      13.4342303795      16.0000000000
6168 2      15.1244680744      19.0000000000
6169 2      13.9984044163      18.0000000000
6170 2      14.2467869802      15.0000000000
6171 2      12.9177658366      18.0000000000
6172 2      13.2947391883      18.0000000000
6173 2      17.7976694388      22.0000000000
6174 2      17.3615368108      21.0000000000
6175 2      13.8925727969      17.0000000000
6176 2      14.1853723023      17.0000000000
6177 2      18.0473093344      19.0000000000
6178 2      15.4249957677      17.0000000000
6179 2      16.7091232989      18.0000000000
6180 2      13.9803825446      15.0000000000
6181 2      14.3467527145      19.0000000000
6182 2      15.0499409407      18.0000000000
6183 2      14.2199515387      18.0000000000
6184 2      12.2489602062      18.0000000000
6185 2      14.2420868103      13.0000000000
6186 2      13.0959609038      17.0000000000
6187 2      16.3270256560      20.0000000000
6188 2      13.5548605962      17.0000000000
6189 2      16.1671495266      16.0000000000
6190 2      17.7367589580      19.0000000000
6191 2      15.3969582235      17.0000000000
6192 2      14.9873053305      17.0000000000
6193 2      13.4698915472      18.0000000000
6194 2      15.7326380630      18.0000000000
6195 2      14.8873694238      18.0000000000
6196 2      13.4209518541      17.0000000000
6197 2      15.1865395595      15.0000000000
6198 2      12.4572931502      15.0000000000
6199 2      14.3141635390      18.0000000000
6200 2      15.0003026189      20.0000000000
6201 2      13.4329634838      16.0000000000
6202 2      15.0656896858      18.0000000000
6203 2      14.1543379203      18.0000000000
6204 2      16.5003425980      17.0000000000
6205 2      11.4694035499      14.0000000000
6206 2      13.5572081916      16.0000000000
6207 2      14.4798194407      15.0000000000
6208 2      12.7927730682      15.0000000000
6209 2      14.2174181723      16.0000000000
6210 2      12.0830003549      15.0000000000
6211 2      16.5488258720      18.0000000000
6212 2      13.4271684649      16.0000000000
6213 2      14.5829724541      19.0000000000
6214 2      22.2981844927      25.0000000000
6215 2      16.6716657421      21.0000000000
6216 2      13.7290650803      18.0000000000
6217 2      14.9780390109      17.0000000000
6218 2      16.8029080565      22.0000000000
6219 2      13.5181897019      14.0000000000
6220 2      14.7917921628      19.0000000000
6221 2      13.5053477038      16.0000000000
6222 2      16.6623822526      19.0000000000
6223 2      16.9545973529      24.0000000000
6224 2      16.8610606526      23.0000000000
6225 2      16.2902780475      19.0000000000
6226 2      17.7864165544      19.0000000000
6227 2      14.9136469759      23.0000000000
6228 2      14.2431434611      14.0000000000
6229 2      17.4311983486      17.0000000000
6230 2      14.7402560671      18.0000000000
6231 2      13.2223016991      19.0000000000
6232 2      14.9830218335      16.0000000000
6233 2      15.1391974403      18.0000000000
6234 2      15.9018414466      18.0000000000
6235 2      17.7716872229      21.0000000000
6236 2      15.5258186855      25.0000000000
6237 2      13.4678477197      18.0000000000
6238 2      11.1750510005      16.0000000000
6239 2      15.8973886540      19.0000000000
6240 2      16.8697636389      20.0000000000
6241 2      17.0389923699      19.0000000000
6242 2      16.4552343778      20.0000000000
6243 2      15.1073025707      17.0000000000
6244 2      16.6405696315      18.0000000000
6245 2      15.0787793119      16.0000000000
6246 2      15.8118334978      15.0000000000
6247 2      18.6347360960      25.0000000000
6248 2      13.1510808040      17.0000000000
6249 2      13.0984621872      15.0000000000
6250 2      15.7094236563      20.0000000000
6251 2      16.1642596978      19.0000000000
6252 2      15.7708348982      22.0000000000
6253 2      17.4439995816      22.0000000000
6254 2      13.7982187957      17.0000000000
6255 2      14.9325540191      18.0000000000
6256 2      12.5663210887      14.0000000000
6257 2      14.1338291169      16.0000000000
6258 2      15.0445469608      16.0000000000
6259 2      12.9893161264      15.0000000000
6260 2      14.1517566967      17.0000000000
6261 2      15.8855271829      18.0000000000
6262 2      14.7140091937      19.0000000000
6263 2      14.1730232604      13.0000000000
6264 2      17.3683665311      20.0000000000
6265 2      15.2525327958      19.0000000000
6266 2      14.8266979712      19.0000000000
6267 2      15.2058903069      18.0000000000
6268 2      14.6361255737      18.0000000000
6269 2      14.8050839986      16.0000000000
6270 2      13.9630045050      18.0000000000
6271 2      13.9389408741      16.0000000000
6272 2      13.7487517580      18.0000000000
6273 2      12.9417429457      19.0000000000
6274 2      14.3057112778      17.0000000000
6275 2      14.4627896380      17.0000000000
6276 2      14.9104831731      19.0000000000
6277 2      13.9391006101      18.0000000000
6278 2      14.3837222077      17.0000000000
6279 2      14.6134273872      17.0000000000
6280 2      14.8453223045      17.0000000000
6281 2      16.1370506772      21.0000000000
6282 2      17.4474534741      22.0000000000
6283 2      14.7344508833      16.0000000000
6284 2      14.4736320412      19.0000000000
6285 2      17.0126155483      20.0000000000
6286 2      16.2285678880      20.0000000000
6287 2      15.2401944769      17.0000000000
6288 2      15.6295197439      18.0000000000
6289 2      17.3655738284      18.0000000000
6290 2      18.6244920235      23.0000000000
6291 2      13.5376581370      14.0000000000
6292 2      16.0534295126      21.0000000000
6293 2      16.7718390383      18.0000000000
6294 2      14.9169021881      14.0000000000
6295 2      14.3327865202      17.0000000000
6296 2      16.0798230200      21.0000000000
6297 2      14.7472931010      18.0000000000
6298 2      15.8715002104      18.0000000000
6299 2      13.6033322824      17.0000000000
6300 2      12.9033813078      15.0000000000
6301 2      13.6309373886      15.0000000000
6302 2      17.6194850306      20.0000000000
6303 2      16.1965552164      19.0000000000
6304 2      14.0518740617      16.0000000000
6305 2      13.5319971226      13.0000000000
6306 2      16.5089220003      18.0000000000
6307 2      15.9657384772      20.0000000000
6308 2      13.8328478203      17.0000000000
6309 2      16.1936550772      19.0000000000
6310 2      15.4002747044      15.0000000000
6311 2      16.6783800848      19.0000000000
6312 2      16.8192008766      18.0000000000
6313 2      13.6695918016      18.0000000000
6314 2      17.3714484414      21.0000000000
6315 2      15.5254642660      16.0000000000
6316 2      14.7679565742      18.0000000000
6317 2      12.8900662473      16.0000000000
6318 2      17.6689052016      17.0000000000
6319 2      14.6123132917      17.0000000000
6320 2      13.0331138444      18.0000000000
6321 2      13.7248262119      17.0000000000
6322 2      16.4817915343      22.0000000000
6323 2      17.5308876761      18.0000000000
6324 2      18.9092252668      21.0000000000
6325 2      14.4268717239      17.0000000000
6326 2      15.6138285187      19.0000000000
6327 2      13.3169284018      15.0000000000
6328 2      16.9902817774      18.0000000000
6329 2      12.6273459986      17.0000000000
6330 2      14.2723504300      17.0000000000
6331 2      12.9352978247      15.0000000000
6332 2      15.9725969818      20.0000000000
6333 2      14.9589687504      18.0000000000
6334 2      17.0014331564      18.0000000000
6335 2      16.0480063933      17.0000000000
6336 2      17.1231424892      17.0000000000
6337 2      14.7058185031      16.0000000000
6338 2      14.2807993894      15.0000000000
6339 2      16.4006058567      19.0000000000
6340 2      13.0239457519      18.0000000000
6341 2      15.4489974547      17.0000000000
6342 2      12.4816628463      18.0000000000
6343 2      14.9990907987      17.0000000000
6344 2      18.0221909028      18.0000000000
6345 2      14.7581855823      15.0000000000
6346 2      13.7033768870      17.0000000000
6347 2      15.8977034992      19.0000000000
6348 2      14.6565352704      16.0000000000
6349 2      14.1645113257      19.0000000000
6350 2      13.3315882101      17.0000000000
6351 2      16.5665255110      18.0000000000
6352 2      11.7640746297      16.0000000000
6353 2      13.9863592193      17.0000000000
6354 2      15.7131712479      18.0000000000
6355 2      14.4185950616      18.0000000000
6356 2      14.6394144153      16.0000000000
6357 2      17.7733809052      17.0000000000
6358 2      15.0106859185      15.0000000000
6359 2      13.4667601693      17.0000000000
6360 2      16.3334993177      19.0000000000
6361 2      13.7840543877      16.0000000000
6362 2      15.9904429997      18.0000000000
6363 2      15.5262652529      19.0000000000
6364 2      17.8838396390      18.0000000000
6365 2      14.7564817126      17.0000000000
6366 2      15.6304736906      18.0000000000
6367 2      15.5490469559      17.0000000000
6368 2      15.6066175478      20.0000000000
6369 2      16.5598681644      21.0000000000
6370 2      13.7729496018      14.0000000000
6371 2      14.2011107245      17.0000000000
6372 2      14.6065802938      17.0000000000
6373 2      15.7913204259      18.0000000000
6374 2      12.7878496819      16.0000000000
6375 2      14.5249342705      17.0000000000
6376 2      14.6979466449      17.0000000000
6377 2      15.5039493481      18.0000000000
6378 2      16.3106813675      17.0000000000
6379 2      13.1350239928      17.0000000000
6380 2      15.5586474338      19.0000000000
6381 2      14.0009820976      15.0000000000
6382 2      16.2855298439      18.0000000000
6383 2      13.2966611575      15.0000000000
6384 2      17.0153297758      24.0000000000
6385 2      14.6450664179      19.0000000000
6386 2      13.8451533646      18.0000000000
6387 2      15.1333277526      17.0000000000
6388 2      16.0173189858      20.0000000000
6389 2      14.4099349521      18.0000000000
6390 2      15.9706905628      17.0000000000
6391 2      11.8566300195      16.0000000000
6392 2      14.6366553333      18.0000000000
6393 2      17.0148386618      20.0000000000
6394 2      12.4393083124      16.0000000000
6395 2      14.4375812596      17.0000000000
6396 2      14.6114563064      16.0000000000
6397 2      14.2452775832      19.0000000000
6398 2      12.8987533491      14.0000000000
6399 2      16.5679160050      21.0000000000
6400 2      14.2819880819      16.0000000000
6401 2      12.6116361994      16.0000000000
6402 2      13.6110965467      17.0000000000
6403 2      14.1469179061      19.0000000000
6404 2      12.2970185259      14.0000000000
6405 2      13.8310167436      17.0000000000
6406 2      14.4546763928      18.0000000000
6407 2      17.4904366987      19.0000000000
6408 2      14.3185636690      19.0000000000
6409 2      16.1100684453      17.0000000000
6410 2      16.6272021439      19.0000000000
6411 2      13.4676527516      19.0000000000
6412 2      15.5016241708      17.0000000000
6413 2      14.0333430604      17.0000000000
6414 2      14.1755065400      17.0000000000
6415 2      13.4190590928      15.0000000000
6416 2      16.8554506778      23.0000000000
6417 2      16.7276984024      20.0000000000
6418 2      14.0065059161      16.0000000000
6419 2      16.4210977386      21.0000000000
6420 2      11.6922769193      14.0000000000
6421 2      15.4480458912      20.0000000000
6422 2      17.6411190103      20.0000000000
6423 2      15.8132295599      20.0000000000
6424 2      15.6006811255      18.0000000000
6425 2      14.2885445667      17.0000000000
6426 2      15.9424739130      19.0000000000
6427 2      14.6408945205      17.0000000000
6428 2      15.3005227098      18.0000000000
6429 2      15.4831542657      18.0000000000
6430 2      14.9031779565      18.0000000000
6431 2      13.9930575263      13.0000000000
6432 2      17.5528280394      23.0000000000
6433 2      18.8440269907      19.0000000000
6434 2      17.8769785135      18.0000000000
6435 2      16.2875894436      21.0000000000
6436 2      13.4029170472      19.0000000000
6437 2      19.1729434814      17.0000000000
6438 2      15.3065383157      19.0000000000
6439 2      15.2689439668      18.0000000000
6440 2      12.9215533756      19.0000000000
6441 2      12.9769012509      17.0000000000
6442 2      15.9767855136      19.0000000000
6443 2      14.3233279566      23.0000000000
6444 2      16.1988223028      16.0000000000
6445 2      13.5042096614      16.0000000000
6446 2      16.0674756396      16.0000000000
6447 2      15.3303651289      18.0000000000
6448 2      14.7777516650      17.0000000000
6449 2      15.4910672602      18.0000000000
6450 2      13.9991808648      18.0000000000
6451 2      13.4741099330      17.0000000000
6452 2      16.1790968940      20.0000000000
6453 2      17.1217193061      19.0000000000
6454 2      15.6424040037      17.0000000000
6455 2      17.4726601430      17.0000000000
6456 2      14.7451056587      18.0000000000
6457 2      12.4788241705      15.0000000000
6458 2      13.4711731155      16.0000000000
6459 2      15.3238555058      18.0000000000
6460 2      13.8426969281      17.0000000000
6461 2      14.9576959964      17.0000000000
6462 2      14.5023569320      18.0000000000
6463 2      14.2388833726      15.0000000000
6464 2      16.5089464891      21.0000000000
6465 2      14.1280002929      20.0000000000
6466 2      15.2437406137      15.0000000000
6467 2      19.1228211604      17.0000000000
6468 2      17.6100359199      19.0000000000
6469 2      15.7540240812      19.0000000000
6470 2      15.4095047426      17.0000000000
6471 2      13.9860601840      21.0000000000
6472 2      14.0524307649      19.0000000000
6473 2      13.7456476874      18.0000000000
6474 2      17.5841540793      17.0000000000
6475 2      14.1409986173      15.0000000000
6476 2      15.9220086931      22.0000000000
6477 2      16.6584411566      20.0000000000
6478 2      12.9478670300      17.0000000000
6479 2      17.4543668167      17.0000000000
6480 2      16.6221908575      21.0000000000
6481 2      15.6309201334      16.0000000000
6482 2      17.0186029619      20.0000000000
6483 2      15.3033144210      18.0000000000
6484 2      14.9461476816      19.0000000000
6485 2      14.8378445673      15.0000000000
6486 2      12.5144663949      16.0000000000
6487 2      16.5009406896      20.0000000000
6488 2      13.0103310353      18.0000000000
6489 2      15.5875415193      15.0000000000
6490 2      12.9927677154      17.0000000000
6491 2      17.4944097519      21.0000000000
6492 2      13.6609962346      16.0000000000
6493 2      20.5130638675      20.0000000000
6494 2      14.6582218245      15.0000000000
6495 2      15.5885140131      20.0000000000
6496 2      15.2704285940      18.0000000000
6497 2      17.5091446247      20.0000000000
6498 2      16.6596236353      22.0000000000
6499 2      14.4402564283      18.0000000000
6500 2      14.7407543851      16.0000000000
6501 2      12.3738761831      16.0000000000
6502 2      16.6233905777      21.0000000000
6503 2      15.4912889236      20.0000000000
6504 2      14.6551753993      16.0000000000
6505 2      13.6031851237      17.0000000000
6506 2      15.4895838528      16.0000000000
6507 2      17.1997025450      21.0000000000
6508 2      17.2238175286      19.0000000000
6509 2      14.8585698312      19.0000000000
6510 2      14.3625150464      17.0000000000
6511 2      13.2907933378      18.0000000000
6512 2      15.6480196430      19.0000000000
6513 2      14.8873846086      19.0000000000
6514 2      13.7087435849      19.0000000000
6515 2      16.7320006914      19.0000000000
6516 2      13.2642113908      17.0000000000
6517 2      14.3429355321      14.0000000000
6518 2      14.4214291251      18.0000000000
6519 2      13.9384177939      18.0000000000
6520 2      14.6228996829      21.0000000000
6521 2      14.5320124175      21.0000000000
6522 2      14.7292713313      19.0000000000
6523 2      15.7047921018      23.0000000000
6524 2      14.4567395993      15.0000000000
6525 2      14.6146709242      20.0000000000
6526 2      18.3448739682      15.0000000000
6527 2      14.7113422818      20.0000000000
6528 2      14.7842125156      18.0000000000
6529 2      13.3322534842      14.0000000000
6530 2      17.0043924061      15.0000000000
6531 2      15.9566440543      19.0000000000
6532 2      14.3824426906      21.0000000000
6533 2      17.5406925976      17.0000000000
6534 2      16.3207040957      18.0000000000
6535 2      18.0440076335      20.0000000000
6536 2      14.7318633311      17.0000000000
6537 2      14.2967152235      15.0000000000
6538 2      14.6110565233      18.0000000000
6539 2      11.6685044644      13.0000000000
6540 2      13.0087652544      17.0000000000
6541 2      14.4526081000      18.0000000000
6542 2      14.1318076427      19.0000000000
6543 2      15.1442047034      21.0000000000
6544 2      16.6067826091      18.0000000000
6545 2      15.1871134098      17.0000000000
6546 2      16.4166858495      20.0000000000
6547 2      17.8294526384      24.0000000000
6548 2      14.6385059639      16.0000000000
6549 2      13.1286586346      16.0000000000
6550 2      14.8525288326      19.0000000000
6551 2      14.9403365753      18.0000000000
6552 2      16.2633653719      22.0000000000
6553 2      16.2361036749      20.0000000000
6554 2      13.7039228605      19.0000000000
6555 2      13.0465173456      16.0000000000
6556 2      15.8556943996      18.0000000000
6557 2      15.3791582717      18.0000000000
6558 2      14.2318677964      22.0000000000
6559 2      15.7497422634      19.0000000000
6560 2      18.6611864152      27.0000000000
6561 2      14.6801893341      14.0000000000
6562 2      15.8805881779      17.0000000000
6563 2      14.6510502432      15.0000000000
6564 2      13.9944368713      17.0000000000
6565 2      12.3486978221      16.0000000000
6566 2      12.6071483785      15.0000000000
6567 2      15.1730605965      19.0000000000
6568 2      16.3709881634      17.0000000000
6569 2      15.7634592774      19.0000000000
6570 2      17.4611966904      23.0000000000
6571 2      14.9651904582      17.0000000000
6572 2      16.0296963665      19.0000000000
6573 2      15.8415164484      18.0000000000
6574 2      15.4806308637      20.0000000000
6575 2      16.3028392589      21.0000000000
6576 2      14.4618921712      19.0000000000
6577 2      12.8278402146      20.0000000000
6578 2      15.0961027878      19.0000000000
6579 2      16.5707564862      16.0000000000
6580 2      15.9478907592      18.0000000000
6581 2      14.9083957302      15.0000000000
6582 2      16.0773281855      15.0000000000
6583 2      13.7446629859      17.0000000000
6584 2      15.8828268162      17.0000000000
6585 2      14.2140039946      19.0000000000
6586 2      14.0995674472      18.0000000000
6587 2      15.6207205184      15.0000000000
6588 2      15.6812482108      18.0000000000
6589 2      15.4091324933      22.0000000000
6590 2      17.0791346927      21.0000000000
6591 2      13.9057097035      17.0000000000
6592 2      13.5938031324      16.0000000000
6593 2      14.8251536398      19.0000000000
6594 2      13.4093015134      17.0000000000
6595 2      16.3087724270      17.0000000000
6596 2      14.2754507840      19.0000000000
6597 2      13.4272563371      17.0000000000
6598 2      16.8722614424      21.0000000000
6599 2      17.5722182894      23.0000000000
6600 2      13.5520855464      17.0000000000
6601 2      15.2533796427      17.0000000000
6602 2      16.2121742022      16.0000000000
6603 2      12.5529331881      18.0000000000
6604 2      14.3899891282      18.0000000000
6605 2      15.6177022201      13.0000000000
6606 2      14.1752778299      20.0000000000
6607 2      13.4919137726      15.0000000000
6608 2      15.1153194131      18.0000000000
6609 2      12.6383890538      16.0000000000
6610 2      13.8383528021      18.0000000000
6611 2      12.7978197935      16.0000000000
6612 2      13.7696527588      18.0000000000
6613 2      15.0056207492      15.0000000000
6614 2      16.4297142279      20.0000000000
6615 2      14.1911142658      16.0000000000
6616 2      15.8225728339      17.0000000000
6617 2      13.9325864227      17.0000000000
6618 2      14.6828802804      19.0000000000
6619 2      14.1279166158      19.0000000000
6620 2      16.6284293485      20.0000000000
6621 2      15.6466259688      19.0000000000
6622 2      17.8477867500      21.0000000000
6623 2      14.9847667694      16.0000000000
6624 2      12.8965573654      15.0000000000
6625 2      19.3934470566      22.0000000000
6626 2      18.7665847871      24.0000000000
6627 2      14.8283130813      20.0000000000
6628 2      14.2590520487      16.0000000000
6629 2      17.3893866059      19.0000000000
6630 2      13.6639643345      15.0000000000
6631 2      14.9772622886      18.0000000000
6632 2      14.1431677612      16.0000000000
6633 2      13.0455420519      15.0000000000
6634 2      13.8922811183      22.0000000000
6635 2      13.5740472691      17.0000000000
6636 2      15.7270031169      20.0000000000
6637 2      18.2188422777      24.0000000000
6638 2      14.3941038983      16.0000000000
6639 2      12.3327042843      15.0000000000
6640 2      14.5210244875      19.0000000000
6641 2      16.6171080959      19.0000000000
6642 2      13.3865620660      18.0000000000
6643 2      16.3806164523      17.0000000000
6644 2      16.6936129437      20.0000000000
6645 2      15.1639067196      20.0000000000
6646 2      12.8805028700      16.0000000000
6647 2      17.0893847282      18.0000000000
6648 2      16.2178138082      18.0000000000
6649 2      17.8160790290      19.0000000000
6650 2      15.9847355511      18.0000000000
6651 2      12.6954146930      15.0000000000
6652 2      15.5724631573      16.0000000000
6653 2      14.4671256038      18.0000000000
6654 2      15.8791975414      19.0000000000
6655 2      13.8026107540      14.0000000000
6656 2      16.8441674257      18.0000000000
6657 2      14.9359512027      19.0000000000
6658 2      21.0705509371      23.0000000000
6659 2      16.4682559284      18.0000000000
6660 2      15.3361333164      22.0000000000
6661 2      16.1855655488      16.0000000000
6662 2      14.1460515538      18.0000000000
6663 2      17.6481309548      22.0000000000
6664 2      14.4080494926      19.0000000000
6665 2      14.2104199674      17.0000000000
6666 2      15.5322668689      19.0000000000
6667 2      15.5500292498      19.0000000000
6668 2      18.1505922567      23.0000000000
6669 2      16.3016926517      19.0000000000
6670 2      15.1957372015      18.0000000000
6671 2      11.8808513510      13.0000000000
6672 2      14.5316424627      17.0000000000
6673 2      14.1437414110      17.0000000000
6674 2      17.3590894684      18.0000000000
6675 2      14.7170436650      20.0000000000
6676 2      14.1442462237      15.0000000000
6677 2      16.5314425812      18.0000000000
6678 2      14.8931942554      20.0000000000
6679 2      17.1524255808      23.0000000000
6680 2      17.8409998849      23.0000000000
6681 2      14.0786377652      18.0000000000
6682 2      13.7878070181      20.0000000000
6683 2      14.8612840222      17.0000000000
6684 2      14.7223980552      16.0000000000
6685 2      18.4277615780      19.0000000000
6686 2      13.1919859501      16.0000000000
6687 2      13.3911001323      17.0000000000
6688 2      16.4178935756      21.0000000000
6689 2      13.4058370938      15.0000000000
6690 2      20.4953022617      24.0000000000
6691 2      15.8727131255      20.0000000000
6692 2      16.3093439395      21.0000000000
6693 2      18.6257530775      24.0000000000
6694 2      13.9640718623      20.0000000000
6695 2      16.2768656115      21.0000000000
6696 2      16.1808664518      19.0000000000
6697 2      14.7559482991      15.0000000000
6698 2      12.3525493405      14.0000000000
6699 2      15.7124170483      15.0000000000
6700 2      15.3675147099      19.0000000000
6701 2      15.6458749054      19.0000000000
6702 2      12.3867801375      15.0000000000
6703 2      14.0254141353      18.0000000000
6704 2      14.0682285072      18.0000000000
6705 2      15.0489357062      16.0000000000
6706 2      15.6389774605      17.0000000000
6707 2      17.5865298129      17.0000000000
6708 2      13.7283428100      13.0000000000
6709 2      16.5480421501      19.0000000000
6710 2      14.8423815616      16.0000000000
6711 2      14.6338715152      18.0000000000
6712 2      15.5391866957      18.0000000000
6713 2      19.0015836498      20.0000000000
6714 2      15.6312803721      15.0000000000
6715 2      14.8651566236      16.0000000000
6716 2      17.8594874537      19.0000000000
6717 2      12.2834550945      17.0000000000
6718 2      14.6465624234      18.0000000000
6719 2      13.5241545596      14.0000000000
6720 2      12.3143284527      16.0000000000
6721 2      17.2778659993      22.0000000000
6722 2      15.0800184412      13.0000000000
6723 2      14.9751398097      16.0000000000
6724 2      11.1084268501      14.0000000000
6725 2      12.8505024439      19.0000000000
6726 2      15.1868861901      22.0000000000
6727 2      15.8601961813      18.0000000000
6728 2      12.9043039172      19.0000000000
6729 2      13.3126848213      14.0000000000
6730 2      14.2363166858      19.0000000000
6731 2      14.3672389700      19.0000000000
6732 2      17.1091173160      21.0000000000
6733 2      17.0526126240      19.0000000000
6734 2      14.9128008637      15.0000000000
6735 2      13.3293343095      17.0000000000
6736 2      12.9259379822      15.0000000000
6737 2      15.7317977591      18.0000000000
6738 2      15.5811036430      20.0000000000
6739 2      14.5493518241      19.0000000000
6740 2      16.5112454643      19.0000000000
6741 2      14.8948531814      18.0000000000
6742 2      14.7751809893      20.0000000000
6743 2      15.7402024866      20.0000000000
6744 2      14.9654655840      20.0000000000
6745 2      14.9009804612      21.0000000000
6746 2      17.7270713844      22.0000000000
6747 2      17.0732272320      19.0000000000
6748 2      15.6131472979      17.0000000000
6749 2      15.6798922312      16.0000000000
6750 2      17.1690452709      22.0000000000
6751 2      14.7624895091      18.0000000000
6752 2      13.6194187641      16.0000000000
6753 2      14.2671147460      18.0000000000
6754 2      18.2584241380      19.0000000000
6755 2      13.1809765252      21.0000000000
6756 2      15.7750614411      18.0000000000
6757 2      14.6807238336      18.0000000000
6758 2      12.5866935027      18.0000000000
6759 2      14.9644538785      15.0000000000
6760 2      13.3581191881      17.0000000000
6761 2      12.5985940391      16.0000000000
6762 2      14.1691722235      17.0000000000
6763 2      14.9130887301      15.0000000000
6764 2      13.5158433236      20.0000000000
6765 2      13.0311339560      20.0000000000
6766 2      13.4008151877      19.0000000000
6767 2      18.0765972040      22.0000000000
6768 2      17.6819234256      18.0000000000
6769 2      14.6547085475      18.0000000000
6770 2      14.1794874103      17.0000000000
6771 2      15.8720054387      19.0000000000
6772 2      14.2702548188      17.0000000000
6773 2      14.3796793489      21.0000000000
6774 2      14.4146390800      18.0000000000
6775 2      14.9658962861      13.0000000000
6776 2      13.9320995676      15.0000000000
6777 2      16.7324081552      19.0000000000
6778 2      15.2006221122      17.0000000000
6779 2      14.1721520015      16.0000000000
6780 2      15.0621017268      18.0000000000
6781 2      16.3384951505      17.0000000000
6782 2      13.0444546704      16.0000000000
6783 2      15.1306408844      18.0000000000
6784 2      16.7900579285      20.0000000000
6785 2      17.7337745097      20.0000000000
6786 2      14.9752909916      18.0000000000
6787 2      12.7721572258      15.0000000000
6788 2      13.4805104881      18.0000000000
6789 2      14.6280104355      18.0000000000
6790 2      14.1922585639      16.0000000000
6791 2      16.7614841904      18.0000000000
6792 2      13.7730475627      17.0000000000
6793 2      14.3613096871      18.0000000000
6794 2      16.0778661093      20.0000000000
6795 2      14.8416329947      21.0000000000
6796 2      11.4727058651      14.0000000000
6797 2      17.8829303421      20.0000000000
6798 2      15.7088479081      21.0000000000
6799 2      13.3462205626      15.0000000000
6800 2      12.1655466214      15.0000000000
6801 2      12.9654544041      18.0000000000
6802 2      16.8259209328      18.0000000000
6803 2      16.1260401642      19.0000000000
6804 2      19.1519677308      23.0000000000
6805 2      15.9626639842      19.0000000000
6806 2      12.5816170014      18.0000000000
6807 2      15.1767670495      20.0000000000
6808 2      14.6976997338      15.0000000000
6809 2      14.6963622857      17.0000000000
6810 2      14.7917336951      18.0000000000
6811 2      16.6929446082      20.0000000000
6812 2      13.7807960256      13.0000000000
6813 2      15.1903809833      20.0000000000
6814 2      14.9646198303      18.0000000000
6815 2      16.0036447936      22.0000000000
6816 2      12.7549221042      17.0000000000
6817 2      13.1995938897      18.0000000000
6818 2      13.7639650185      18.0000000000
6819 2      13.2091922561      15.0000000000
6820 2      16.1308517448      21.0000000000
6821 2      15.1620611820      18.0000000000
6822 2      14.9530798997      17.0000000000
6823 2      16.5886705027      18.0000000000
6824 2      14.8380200541      15.0000000000
6825 2      17.0152675329      23.0000000000
6826 2      14.1175073916      17.0000000000
6827 2      14.5639760218      18.0000000000
6828 2      16.7098592436      19.0000000000
6829 2      15.0577605276      19.0000000000
6830 2      12.6103911062      14.0000000000
6831 2      14.3120380438      19.0000000000
6832 2      16.0595125033      19.0000000000
6833 2      17.1915611078      20.0000000000
6834 2      15.4848104812      17.0000000000
6835 2      14.8646564939      16.0000000000
6836 2      14.4682781793      17.0000000000
6837 2      13.0815265631      17.0000000000
6838 2      13.9830270445      20.0000000000
6839 2      13.6367639806      19.0000000000
6840 2      14.6583102000      21.0000000000
6841 2      15.0800065700      16.0000000000
6842 2      16.3549060778      18.0000000000
6843 2      15.8845906821      15.0000000000
6844 2      14.9712231665      17.0000000000
6845 2      14.4470005703      19.0000000000
6846 2      14.4622290755      19.0000000000
6847 2      15.4472027703      21.0000000000
6848 2      16.0460075383      19.0000000000
6849 2      13.7390649833      18.0000000000
6850 2      14.6560190566      22.0000000000
6851 2      15.0842175861      17.0000000000
6852 2      13.6355495022      17.0000000000
6853 2      17.0283362610      23.0000000000
6854 2      15.0647471043      19.0000000000
6855 2      13.7501791816      17.0000000000
6856 2      15.3116552995      19.0000000000
6857 2      13.8532761036      17.0000000000
6858 2      14.7455743555      17.0000000000
6859 2      15.8235225867      18.0000000000
6860 2      14.7988600768      20.0000000000
6861 2      16.4893350712      19.0000000000
6862 2      12.4992804147      15.0000000000
6863 2      13.8930145221      19.0000000000
6864 2      17.5090925922      15.0000000000
6865 2      13.6211244039      19.0000000000
6866 2      17.9111646577      21.0000000000
6867 2      15.5241303674      17.0000000000
6868 2      12.9360706027      14.0000000000
6869 2      17.5056190150      22.0000000000
6870 2      14.1523088577      19.0000000000
6871 2      16.9798852531      23.0000000000
6872 2      13.6703478520      16.0000000000
6873 2      17.5390939639      18.0000000000
6874 2      15.5739689582      16.0000000000
6875 2      15.4095805899      17.0000000000
6876 2      15.7078568424      18.0000000000
6877 2      15.9233338349      16.0000000000
6878 2      14.5728543597      20.0000000000
6879 2      12.4032214898      11.0000000000
6880 2      15.8044699632      18.0000000000
6881 2      16.2825123756      21.0000000000
6882 2      16.0039890531      18.0000000000
6883 2      13.8583494600      15.0000000000
6884 2      16.8352790810      18.0000000000
6885 2      16.5618647465      19.0000000000
6886 2      13.2997635031      19.0000000000
6887 2      15.3324308552      19.0000000000
6888 2      14.1551815079      18.0000000000
6889 2      17.3183313937      19.0000000000
6890 2      16.0229872202      17.0000000000
6891 2      16.4999465108      20.0000000000
6892 2      14.1743898879      14.0000000000
6893 2      15.5296267117      16.0000000000
6894 2      12.4326769464      14.0000000000
6895 2      13.2597535829      16.0000000000
6896 2      16.4489352044      20.0000000000
6897 2      14.9528281872      20.0000000000
6898 2      17.8852495981      19.0000000000
6899 2      12.7515092302      13.0000000000
6900 2      15.6363690709      19.0000000000
6901 2      15.3385149266      16.0000000000
6902 2      15.7334009731      20.0000000000
6903 2      16.1142099500      18.0000000000
6904 2      13.2740236160      14.0000000000
6905 2      15.3806513979      18.0000000000
6906 2      14.3776990599      19.0000000000
6907 2      19.0085332367      18.0000000000
6908 2      14.3619978232      18.0000000000
6909 2      14.3029253586      16.0000000000
6910 2      13.8070164487      20.0000000000
6911 2      16.7763099890      17.0000000000
6912 2      14.9869192377      16.0000000000
6913 2      17.2767922064      17.0000000000
6914 2      18.8885246958      22.0000000000
6915 2      13.8873664071      17.0000000000
6916 2      13.2449243964      14.0000000000
6917 2      14.4794165589      17.0000000000
6918 2      13.5496862883      19.0000000000
6919 2      15.8832733055      18.0000000000
6920 2      14.8263942422      16.0000000000
6921 2      16.3055680314      18.0000000000
6922 2      15.6640427351      16.0000000000
6923 2      14.6348529267      17.0000000000
6924 2      16.7716101992      15.0000000000
6925 2      13.6854471858      17.0000000000
6926 2      16.1084462384      18.0000000000
6927 2      13.8692451088      18.0000000000
6928 2      16.7602253573      20.0000000000
6929 2      16.2240276027      19.0000000000
6930 2      14.5422753754      18.0000000000
6931 2      16.8151849477      22.0000000000
6932 2      15.8797525144      16.0000000000
6933 2      15.2396031039      16.0000000000
6934 2      15.4196489399      18.0000000000
6935 2      14.1983082104      17.0000000000
6936 2      14.1343368410      14.0000000000
6937 2      15.1852023212      20.0000000000
6938 2      13.2428462456      19.0000000000
6939 2      14.2778850647      18.0000000000
6940 2      14.7868741663      18.0000000000
6941 2      12.9630212127      15.0000000000
6942 2      15.1921807801      17.0000000000
6943 2      17.2432320780      21.0000000000
6944 2      14.1417779386      17.0000000000
6945 2      18.3271848646      23.0000000000
6946 2      15.4004882079      18.0000000000
6947 2      18.6829503518      21.0000000000
6948 2      19.5669624726      23.0000000000
6949 2      15.8082553798      19.0000000000
6950 2      12.8710639344      16.0000000000
6951 2      13.0414197343      17.0000000000
6952 2      13.5202072967      15.0000000000
6953 2      15.1989194609      18.0000000000
6954 2      12.9203506402      17.0000000000
6955 2      16.4915220068      17.0000000000
6956 2      13.5640475487      16.0000000000
6957 2      17.2414415524      23.0000000000
6958 2      17.7547511094      19.0000000000
6959 2      13.2221198616      15.0000000000
6960 2      14.3479766982      18.0000000000
6961 2      16.9824211156      18.0000000000
6962 2      17.4190629914      21.0000000000
6963 2      14.5749098290      17.0000000000
6964 2      14.4198754993      16.0000000000
6965 2      14.4843176837      17.0000000000
6966 2      14.8918211981      19.0000000000
6967 2      14.7717033811      19.0000000000
6968 2      13.7722227422      16.0000000000
6969 2      16.6192567752      19.0000000000
6970 2      12.5389533182      16.0000000000
6971 2      17.7328119887      18.0000000000
6972 2      16.3440976039      17.0000000000
6973 2      17.4249556574      17.0000000000
6974 2      17.3722978110      17.0000000000
6975 2      15.0490736955      19.0000000000
6976 2      12.4685241615      14.0000000000
6977 2      13.8998011954      16.0000000000
6978 2      13.0675892752      19.0000000000
6979 2      12.5393772934      16.0000000000
6980 2      15.6097545118      16.0000000000
6981 2      14.4809231769      19.0000000000
6982 2      15.4813981278      19.0000000000
6983 2      16.4535172104      19.0000000000
6984 2      15.1203070728      19.0000000000
6985 2      14.2605578040      15.0000000000
6986 2      12.9003154569      18.0000000000
6987 2      16.3956661104      22.0000000000
6988 2      14.7513962732      17.0000000000
6989 2      17.2896343341      21.0000000000
6990 2      16.0638746598      18.0000000000
6991 2      13.4019030043      17.0000000000
6992 2      13.7850875240      14.0000000000
6993 2      15.9630902004      18.0000000000
6994 2      15.6773107313      19.0000000000
6995 2      17.3803497364      19.0000000000
6996 2      14.4214428379      16.0000000000
6997 2      14.4801818261      17.0000000000
6998 2      14.5301081337      19.0000000000
6999 2      16.4072942235      19.0000000000
7000 2      13.8670837339      17.0000000000
7001 2      14.1261261432      17.0000000000
7002 2      15.6120861329      20.0000000000
7003 2      13.4938022655      15.0000000000
7004 2      14.2387124670      17.0000000000
7005 2      14.3490340348      20.0000000000
7006 2      14.2104581232      14.0000000000
7007 2      13.8544694171      15.0000000000
7008 2      18.2693055989      22.0000000000
7009 2      14.7604346031      19.0000000000
7010 2      16.0597738385      18.0000000000
7011 2      14.5761496771      19.0000000000
7012 2      11.9741878473      16.0000000000
7013 2      17.1653682382      18.0000000000
7014 2      17.1435190991      16.0000000000
7015 2      16.3802449253      20.0000000000
7016 2      14.8639475048      17.0000000000
7017 2      17.1462465251      23.0000000000
7018 2      14.3112389075      19.0000000000
7019 2      14.6341090373      16.0000000000
7020 2      14.1806804883      17.0000000000
7021 2      11.8908322733      15.0000000000
7022 2      14.2739434372      17.0000000000
7023 2      14.7287797698      19.0000000000
7024 2      13.9663207636      19.0000000000
7025 2      12.9756008659      17.0000000000
7026 2      16.4206012175      16.0000000000
7027 2      14.4215013450      19.0000000000
7028 2      15.1049232591      16.0000000000
7029 2      15.6136005840      18.0000000000
7030 2      12.9086134150      19.0000000000
7031 2      12.9536402761      17.0000000000
7032 2      14.8091845188      15.0000000000
7033 2      15.8806076552      17.0000000000
7034 2      15.5628005658      19.0000000000
7035 2      12.7564306352      15.0000000000
7036 2      14.9867521299      17.0000000000
7037 2      12.5519659663      12.0000000000
7038 2      14.4626669460      17.0000000000
7039 2      16.7081776883      19.0000000000
7040 2      18.3966094519      18.0000000000
7041 2      14.6575875361      15.0000000000
7042 2      15.3238220266      17.0000000000
7043 2      17.1727774224      15.0000000000
7044 2      14.6824339283      16.0000000000
7045 2      14.3037804915      17.0000000000
7046 2      16.7295503590      24.0000000000
7047 2      11.9068722349      17.0000000000
7048 2      16.3984685678      18.0000000000
7049 2      14.4613354255      19.0000000000
7050 2      16.1237663499      19.0000000000
7051 2      13.1635599275      15.0000000000
7052 2      17.8183012766      22.0000000000
7053 2      17.0103407725      19.0000000000
7054 2      14.5896408882      18.0000000000
7055 2      14.5245926581      17.0000000000
7056 2      16.6291014151      19.0000000000
7057 2      16.5395729670      17.0000000000
7058 2      15.9093846901      19.0000000000
7059 2      14.7024873245      19.0000000000
7060 2      13.7885704904      18.0000000000
7061 2      15.7657715093      16.0000000000
7062 2      15.2289611524      18.0000000000
7063 2      13.5516020021      15.0000000000
7064 2      16.9570765372      16.0000000000
7065 2      16.6330458904      19.0000000000
7066 2      14.9475361175      20.0000000000
7067 2      14.6018069726      19.0000000000
7068 2      16.6596887075      21.0000000000
7069 2      14.5818191630      17.0000000000
7070 2      15.1589271952      16.0000000000
7071 2      14.4203317061      19.0000000000
7072 2      14.7298889481      17.0000000000
7073 2      18.1850240089      20.0000000000
7074 2      12.3196111080      16.0000000000
7075 2      16.8736737367      21.0000000000
7076 2      14.9443934616      19.0000000000
7077 2      11.5432230086      14.0000000000
7078 2      15.9440578937      20.0000000000
7079 2      12.4298355564      18.0000000000
7080 2      17.4711425439      18.0000000000
7081 2      15.8719270247      17.0000000000
7082 2      17.8982443613      15.0000000000
7083 2      14.4151853587      15.0000000000
7084 2      14.3199156905      16.0000000000
7085 2      13.5149520607      16.0000000000
7086 2      14.6999715005      21.0000000000
7087 2      15.0114007615      18.0000000000
7088 2      12.8956219057      15.0000000000
7089 2      13.7194230515      15.0000000000
7090 2      15.7278624444      18.0000000000
7091 2      17.0179444067      20.0000000000
7092 2      13.6514822869      19.0000000000
7093 2      13.8441817350      16.0000000000
7094 2      17.2184654283      16.0000000000
7095 2      14.8753680614      19.0000000000
7096 2      16.5772527388      20.0000000000
7097 2      16.7612002460      19.0000000000
7098 2      14.1922082011      17.0000000000
7099 2      14.0893993114      19.0000000000
7100 2      15.3492576627      19.0000000000
7101 2      15.7930554539      17.0000000000
7102 2      14.4620764143      16.0000000000
7103 2      18.0273440108      24.0000000000
7104 2      14.7721109275      18.0000000000
7105 2      14.4959252557      14.0000000000
7106 2      14.3834689979      18.0000000000
7107 2      14.3399491672      18.0000000000
7108 2      17.8521499655      20.0000000000
7109 2      14.4025305016      15.0000000000
7110 2      18.3356833160      19.0000000000
7111 2      15.0186457040      19.0000000000
7112 2      14.6337420637      19.0000000000
7113 2      13.7588009044      19.0000000000
7114 2      15.6516480634      21.0000000000
7115 2      12.7782941435      18.0000000000
7116 2      13.2743805021      16.0000000000
7117 2      13.1683813904      20.0000000000
7118 2      14.8891563342      17.0000000000
7119 2      15.1894750538      20.0000000000
7120 2      14.5374307942      13.0000000000
7121 2      16.4105090452      22.0000000000
7122 2      16.0308280057      19.0000000000
7123 2      13.1554468042      18.0000000000
7124 2      14.1144606387      17.0000000000
7125 2      13.9971842545      16.0000000000
7126 2      15.4933791247      17.0000000000
7127 2      16.2132406074      17.0000000000
7128 2      15.4934862837      16.0000000000
7129 2      15.4778420838      22.0000000000
7130 2      15.7329478213      22.0000000000
7131 2      14.8491405513      17.0000000000
7132 2      16.2076816338      16.0000000000
7133 2      15.8249025905      19.0000000000
7134 2      13.9353424735      19.0000000000
7135 2      16.5019002041      17.0000000000
7136 2      13.9041238842      15.0000000000
7137 2      17.3019109880      20.0000000000
7138 2      14.7967238293      17.0000000000
7139 2      15.4642256808      17.0000000000
7140 2      14.0326972307      18.0000000000
7141 2      14.4254286051      19.0000000000
7142 2      14.5344050262      19.0000000000
7143 2      14.3098840215      16.0000000000
7144 2      15.1475858120      19.0000000000
7145 2      15.9055221727      16.0000000000
7146 2      15.6439131801      17.0000000000
7147 2      13.2929832339      19.0000000000
7148 2      14.0748605645      19.0000000000
7149 2      13.1139233725      18.0000000000
7150 2      14.2447118764      19.0000000000
7151 2      14.2926132560      18.0000000000
7152 2      15.0713622823      17.0000000000
7153 2      14.0895623054      19.0000000000
7154 2      14.9997304184      21.0000000000
7155 2      14.7295822409      19.0000000000
7156 2      14.6149539139      15.0000000000
7157 2      15.5215761011      17.0000000000
7158 2      16.2305070882      18.0000000000
7159 2      14.5664157464      16.0000000000
7160 2      14.5973275746      14.0000000000
7161 2      14.4483042872      17.0000000000
7162 2      15.8404710549      20.0000000000
7163 2      14.5147913061      17.0000000000
7164 2      14.9678360453      18.0000000000
7165 2      15.6007860667      19.0000000000
7166 2      15.0083637238      19.0000000000
7167 2      14.4193009747      18.0000000000
7168 2      16.0099556923      17.0000000000
7169 2      13.9411548100      21.0000000000
7170 2      15.0614655414      22.0000000000
7171 2      15.7796855809      21.0000000000
7172 2      13.9395206003      19.0000000000
7173 2      15.9066306753      24.0000000000
7174 2      14.5503285068      18.0000000000
7175 2      16.8293025064      17.0000000000
7176 2      12.1689564119      16.0000000000
7177 2      13.9639829313      18.0000000000
7178 2      14.0629935541      15.0000000000
7179 2      15.9376049071      16.0000000000
7180 2      18.3855281286      19.0000000000
7181 2      16.4549098471      18.0000000000
7182 2      16.3190115991      21.0000000000
7183 2      16.5643254882      17.0000000000
7184 2      13.5267816202      17.0000000000
7185 2      14.4610596921      14.0000000000
7186 2      14.7137106413      16.0000000000
7187 2      14.2885272862      16.0000000000
7188 2      14.6479754052      18.0000000000
7189 2      15.3063265530      17.0000000000
7190 2      13.6852360797      19.0000000000
7191 2      16.4824201505      17.0000000000
7192 2      14.9608311690      19.0000000000
7193 2      15.4047008382      21.0000000000
7194 2      17.3041781107      24.0000000000
7195 2      14.3924019090      16.0000000000
7196 2      15.1785569943      19.0000000000
7197 2      13.5129375140      18.0000000000
7198 2      17.2818718256      20.0000000000
7199 2      15.4688246899      15.0000000000
7200 2      15.7817850788      15.0000000000
7201 2      15.9542691667      16.0000000000
7202 2      16.3070687979      16.0000000000
7203 2      13.8322464627      17.0000000000
7204 2      14.4395573176      17.0000000000
7205 2      17.8213226884      23.0000000000
7206 2      16.8558351766      18.0000000000
7207 2      13.1596467028      18.0000000000
7208 2      14.5089930593      16.0000000000
7209 2      15.7733954411      22.0000000000
7210 2      14.2151428207      17.0000000000
7211 2      16.0644101070      20.0000000000
7212 2      13.7674846205      17.0000000000
7213 2      16.7243854935      19.0000000000
7214 2      13.7793499168      16.0000000000
7215 2      14.3330835178      15.0000000000
7216 2      15.7579061799      18.0000000000
7217 2      13.4994971004      18.0000000000
7218 2      17.7650993838      19.0000000000
7219 2      13.1529678708      18.0000000000
7220 2      17.5803319269      19.0000000000
7221 2      13.1939772414      20.0000000000
7222 2      13.3708897489      19.0000000000
7223 2      13.6586865866      20.0000000000
7224 2      13.8961737642      18.0000000000
7225 2      15.4177206422      17.0000000000
7226 2      13.2411654920      14.0000000000
7227 2      17.2268864481      19.0000000000
7228 2      12.8900505445      19.0000000000
7229 2      12.9375534761      16.0000000000
7230 2      15.7695202813      20.0000000000
7231 2      14.3181723451      18.0000000000
7232 2      15.5816704360      19.0000000000
7233 2      16.6472676402      19.0000000000
7234 2      12.8194165586      14.0000000000
7235 2      19.3627856014      20.0000000000
7236 2      14.4813976879      20.0000000000
7237 2      15.4409047982      23.0000000000
7238 2      16.1903149411      18.0000000000
7239 2      16.3063179198      18.0000000000
7240 2      15.5032885526      20.0000000000
7241 2      13.1152856962      16.0000000000
7242 2      16.5332736909      19.0000000000
7243 2      16.0522646965      14.0000000000
7244 2      12.4014396125      15.0000000000
7245 2      13.9648492940      19.0000000000
7246 2      16.8276856340      19.0000000000
7247 2      13.2757435957      18.0000000000
7248 2      14.8286022968      19.0000000000
7249 2      13.0187602590      15.0000000000
7250 2      13.8603679006      17.0000000000
7251 2      12.9340166485      18.0000000000
7252 2      15.5553077701      14.0000000000
7253 2      15.1124826092      20.0000000000
7254 2      15.7009894433      16.0000000000
7255 2      13.9279962647      18.0000000000
7256 2      13.8466134521      19.0000000000
7257 2      13.7932266293      19.0000000000
7258 2      14.5392798987      16.0000000000
7259 2      12.4422084021      15.0000000000
7260 2      11.6116905539      13.0000000000
7261 2      18.1854920143      18.0000000000
7262 2      14.6610812382      18.0000000000
7263 2      15.6750643577      18.0000000000
7264 2      13.4346979669      18.0000000000
7265 2      19.1652019208      24.0000000000
7266 2      15.0261691199      19.0000000000
7267 2      14.5342034758      20.0000000000
7268 2      14.4350819423      16.0000000000
7269 2      16.0865714466      16.0000000000
7270 2      14.7234455807      20.0000000000
7271 2      14.4840576944      18.0000000000
7272 2      16.1830034246      20.0000000000
7273 2      13.8909205736      16.0000000000
7274 2      14.0908599009      16.0000000000
7275 2      15.6733992166      15.0000000000
7276 2      15.7572186846      17.0000000000
7277 2      13.7113528266      17.0000000000
7278 2      14.1563069907      13.0000000000
7279 2      15.2867752232      15.0000000000
7280 2      14.9552375309      18.0000000000
7281 2      14.9644244152      18.0000000000
7282 2      16.0990405057      16.0000000000
7283 2      14.9083573291      19.0000000000
7284 2      15.9718812074      17.0000000000
7285 2      13.8622480372      16.0000000000
7286 2      19.4209807690      24.0000000000
7287 2      13.2360310876      16.0000000000
7288 2      15.5338929269      18.0000000000
7289 2      15.7355559787      19.0000000000
7290 2      15.4428091077      17.0000000000
7291 2      14.8250556237      15.0000000000
7292 2      14.7295717259      17.0000000000
7293 2      12.5492093763      17.0000000000
7294 2      14.4288125778      18.0000000000
7295 2      16.5067965110      19.0000000000
7296 2      17.2761334457      17.0000000000
7297 2      16.5068038182      22.0000000000
7298 2      12.7124646755      13.0000000000
7299 2      14.4620451095      17.0000000000
7300 2      15.1009250954      22.0000000000
7301 2      15.6903154512      15.0000000000
7302 2      19.7802075130      23.0000000000
7303 2      14.3875561153      16.0000000000
7304 2      17.0686039273      16.0000000000
7305 2      15.9964654600      17.0000000000
7306 2      16.7245663271      17.0000000000
7307 2      14.0348443709      17.0000000000
7308 2      14.6697792710      18.0000000000
7309 2      14.7553766125      19.0000000000
7310 2      18.5780019235      21.0000000000
7311 2      13.3072601105      17.0000000000
7312 2      15.4762243663      18.0000000000
7313 2      11.9596717571      17.0000000000
7314 2      13.3955250932      16.0000000000
7315 2      14.2038382229      17.0000000000
7316 2      15.9718315737      20.0000000000
7317 2      15.3161306177      19.0000000000
7318 2      12.7350873574      16.0000000000
7319 2      14.6637708553      17.0000000000
7320 2      12.6680000902      16.0000000000
7321 2      15.8877111684      20.0000000000
7322 2      15.0905949036      17.0000000000
7323 2      14.1588607655      17.0000000000
7324 2      12.8683723461      12.0000000000
7325 2      14.0690490019      18.0000000000
7326 2      15.1043695142      16.0000000000
7327 2      16.4318955887      18.0000000000
7328 2      17.0187941408      20.0000000000
7329 2      18.2405169805      19.0000000000
7330 2      14.3535225938      16.0000000000
7331 2      14.5769423581      18.0000000000
7332 2      13.3279079890      18.0000000000
7333 2      13.8049767798      15.0000000000
7334 2      17.4687797693      20.0000000000
7335 2      15.1739532386      14.0000000000
7336 2      13.5698177428      16.0000000000
7337 2      16.5867154868      20.0000000000
7338 2      13.4352097177      17.0000000000
7339 2      13.9632453127      18.0000000000
7340 2      16.7766054440      18.0000000000
7341 2      13.8423546991      16.0000000000
7342 2      15.8408425912      19.0000000000
7343 2      14.3730357348      20.0000000000
7344 2      14.1813444589      15.0000000000
7345 2      16.6176495642      16.0000000000
7346 2      15.1637015963      22.0000000000
7347 2      16.3893505683      20.0000000000
7348 2      18.9192431378      23.0000000000
7349 2      13.1820687597      20.0000000000
7350 2      12.5726485335      16.0000000000
7351 2      16.5328321330      21.0000000000
7352 2      14.9959144369      16.0000000000
7353 2      14.4803241535      15.0000000000
7354 2      14.6545613749      15.0000000000
7355 2      15.7474555364      18.0000000000
7356 2      15.3170169329      15.0000000000
7357 2      13.7838475125      17.0000000000
7358 2      15.1880829994      19.0000000000
7359 2      15.8663320381      19.0000000000
7360 2      13.5488334335      18.0000000000
7361 2      12.4015448007      13.0000000000
7362 2      16.0466049398      21.0000000000
7363 2      13.0103630164      19.0000000000
7364 2      13.8466676456      16.0000000000
7365 2      15.2673686376      18.0000000000
7366 2      16.4296836235      19.0000000000
7367 2      18.8697108324      20.0000000000
7368 2      13.1880629240      16.0000000000
7369 2      15.0618070394      18.0000000000
7370 2      11.1863127842      15.0000000000
7371 2      13.8635555304      17.0000000000
7372 2      15.8933352228      20.0000000000
7373 2      12.1875476678      15.0000000000
7374 2      14.3350307984      19.0000000000
7375 2      17.8328005566      19.0000000000
7376 2      16.2139766584      16.0000000000
7377 2      17.7789383463      21.0000000000
7378 2      14.5811688720      22.0000000000
7379 2      15.9278118699      19.0000000000
7380 2      17.7111843339      18.0000000000
7381 2      14.6110894251      20.0000000000
7382 2      14.2842467910      18.0000000000
7383 2      15.5699449565      16.0000000000
7384 2      15.3298876986      21.0000000000
7385 2      15.5922448941      16.0000000000
7386 2      15.7858798221      18.0000000000
7387 2      13.8576496789      18.0000000000
7388 2      15.0548327591      18.0000000000
7389 2      13.5202463687      18.0000000000
7390 2      13.5366905785      17.0000000000
7391 2      15.6755631860      19.0000000000
7392 2      14.4426049858      18.0000000000
7393 2      13.0204937356      19.0000000000
7394 2      15.0835302425      18.0000000000
7395 2      15.8921347087      22.0000000000
7396 2      14.1081089959      19.0000000000
7397 2      16.7736223041      21.0000000000
7398 2      16.0285737679      17.0000000000
7399 2      13.7957093715      16.0000000000
7400 2      14.9999176322      20.0000000000
7401 2      16.7134763662      18.0000000000
7402 2      14.1629588146      14.0000000000
7403 2      14.9670326685      19.0000000000
7404 2      15.4692719699      18.0000000000
7405 2      15.6858520595      17.0000000000
7406 2      12.2196913808      16.0000000000
7407 2      13.6854556374      16.0000000000
7408 2      14.9495882107      17.0000000000
7409 2      15.4082061302      19.0000000000
7410 2      16.8001055870      16.0000000000
7411 2      16.8243554713      23.0000000000
7412 2      13.5284913666      17.0000000000
7413 2      13.2933291936      16.0000000000
7414 2      19.5911329534      20.0000000000
7415 2      14.1306571769      15.0000000000
7416 2      12.0136010291      15.0000000000
7417 2      13.1070453772      15.0000000000
7418 2      15.4770905048      19.0000000000
7419 2      14.1209491370      17.0000000000
7420 2      16.6679873097      18.0000000000
7421 2      15.5995563040      19.0000000000
7422 2      14.6891773259      18.0000000000
7423 2      16.6826368139      21.0000000000
7424 2      13.7158466916      19.0000000000
7425 2      16.8996902042      18.0000000000
7426 2      15.4475784301      16.0000000000
7427 2      12.9577425732      13.0000000000
7428 2      13.5488128724      14.0000000000
7429 2      13.2101804806      14.0000000000
7430 2      16.6893661359      18.0000000000
7431 2      12.0239285059      15.0000000000
7432 2      12.8059577972      17.0000000000
7433 2      15.2797358792      16.0000000000
7434 2      14.3832337394      14.0000000000
7435 2      15.1882574573      20.0000000000
7436 2      14.4030802768      18.0000000000
7437 2      13.8224054820      22.0000000000
7438 2      14.2199805252      15.0000000000
7439 2      13.3050255603      15.0000000000
7440 2      17.6714002644      18.0000000000
7441 2      12.9321101175      18.0000000000
7442 2      17.1628990402      17.0000000000
7443 2      15.5333435268      16.0000000000
7444 2      15.2442468557      20.0000000000
7445 2      16.2788188057      21.0000000000
7446 2      16.6618509078      23.0000000000
7447 2      18.4499436718      23.0000000000
7448 2      14.6877296840      18.0000000000
7449 2      16.4920508839      21.0000000000
7450 2      13.7837418790      16.0000000000
7451 2      16.8382802933      22.0000000000
7452 2      15.6128945523      19.0000000000
7453 2      15.1613027568      17.0000000000
7454 2      16.0595097399      15.0000000000
7455 2      14.5435075724      19.0000000000
7456 2      12.9987848867      18.0000000000
7457 2      14.7651306400      20.0000000000
7458 2      15.0651740393      17.0000000000
7459 2      16.6857151388      19.0000000000
7460 2      14.2523478847      19.0000000000
7461 2      13.9995859426      17.0000000000
7462 2      14.9643111604      19.0000000000
7463 2      14.4818528028      19.0000000000
7464 2      12.9609189671      17.0000000000
7465 2      14.9737904127      19.0000000000
7466 2      13.6646155410      15.0000000000
7467 2      13.4921278605      17.0000000000
7468 2      15.5058266641      20.0000000000
7469 2      17.7757399036      23.0000000000
7470 2      16.2411857307      19.0000000000
7471 2      16.7327643918      15.0000000000
7472 2      14.8659385842      17.0000000000
7473 2      14.1794343787      14.0000000000
7474 2      13.4546073472      16.0000000000
7475 2      17.2544120621      19.0000000000
7476 2      14.8954504987      18.0000000000
7477 2      13.3026256026      19.0000000000
7478 2      13.9382595450      17.0000000000
7479 2      14.9760548825      20.0000000000
7480 2      14.0691409138      16.0000000000
7481 2      14.5934273394      19.0000000000
7482 2      15.3936246291      22.0000000000
7483 2      13.1047332789      14.0000000000
7484 2      14.7504511407      18.0000000000
7485 2      14.6882045322      20.0000000000
7486 2      15.2220877483      19.0000000000
7487 2      13.8031666348      19.0000000000
7488 2      15.0879665471      22.0000000000
7489 2      14.3628023362      15.0000000000
7490 2      17.2767775289      18.0000000000
7491 2      15.6187898304      16.0000000000
7492 2      15.4138695585      20.0000000000
7493 2      14.7884214036      18.0000000000
7494 2      13.7665617177      17.0000000000
7495 2      18.1155263577      20.0000000000
7496 2      14.6274976704      15.0000000000
7497 2      14.3974183146      20.0000000000
7498 2      12.5795315437      16.0000000000
7499 2      16.4490678864      19.0000000000
7500 2      14.4261364354      14.0000000000
7501 2      11.9713875912      18.0000000000
7502 2      14.9654530391      19.0000000000
7503 2      15.9933013552      20.0000000000
7504 2      16.4588393537      16.0000000000
7505 2      13.4252677943      15.0000000000
7506 2      14.8730869628      16.0000000000
7507 2      12.9406768797      16.0000000000
7508 2      15.0309518157      17.0000000000
7509 2      15.5960009518      19.0000000000
7510 2      14.3955827305      17.0000000000
7511 2      15.7742770211      24.0000000000
7512 2      15.4172360194      17.0000000000
7513 2      14.9063375571      19.0000000000
7514 2      13.7845889276      18.0000000000
7515 2      13.9988442201      20.0000000000
7516 2      14.8519636284      15.0000000000
7517 2      15.2964639138      20.0000000000
7518 2      14.6361065904      14.0000000000
7519 2      16.1964558251      15.0000000000
7520 2      16.9444299036      20.0000000000
7521 2      12.9184169300      16.0000000000
7522 2      15.1745024423      17.0000000000
7523 2      17.0840510642      20.0000000000
7524 2      15.6612484529      21.0000000000
7525 2      15.8362645279      21.0000000000
7526 2      17.0745480896      17.0000000000
7527 2      16.2935345357      19.0000000000
7528 2      15.2301935831      13.0000000000
7529 2      16.9602037072      18.0000000000
7530 2      13.7852334502      15.0000000000
7531 2      12.5856587412      17.0000000000
7532 2      16.1292221621      19.0000000000
7533 2      15.3427643374      19.0000000000
7534 2      14.3491845881      17.0000000000
7535 2      14.0439421805      15.0000000000
7536 2      16.1445283879      23.0000000000
7537 2      15.0302318697      14.0000000000
7538 2      16.9871810642      22.0000000000
7539 2      14.7725902585      18.0000000000
7540 2      16.9560768209      19.0000000000
7541 2      14.9923703061      18.0000000000
7542 2      14.8208897742      16.0000000000
7543 2      17.2846612623      15.0000000000
7544 2      14.2694257153      19.0000000000
7545 2      15.9876483963      20.0000000000
7546 2      14.2731184161      16.0000000000
7547 2      13.7535407490      14.0000000000
7548 2      15.0384911026      17.0000000000
7549 2      13.4204220358      20.0000000000
7550 2      16.5116280784      24.0000000000
7551 2      14.2487526726      18.0000000000
7552 2      16.4648925582      21.0000000000
7553 2      14.6795134061      19.0000000000
7554 2      12.7350702987      16.0000000000
7555 2      17.4083996228      18.0000000000
7556 2      14.7387634489      21.0000000000
7557 2      12.9470869239      18.0000000000
7558 2      15.4070083206      14.0000000000
7559 2      16.2528252711      22.0000000000
7560 2      15.0767350901      21.0000000000
7561 2      14.0871230041      18.0000000000
7562 2      17.1878887313      15.0000000000
7563 2      14.8678196248      21.0000000000
7564 2      14.0753828551      16.0000000000
7565 2      15.3751982029      18.0000000000
7566 2      18.4453382158      20.0000000000
7567 2      14.3230942896      17.0000000000
7568 2      15.7527806250      17.0000000000
7569 2      15.4317786094      20.0000000000
7570 2      13.0640795125      16.0000000000
7571 2      17.1606356604      18.0000000000
7572 2      15.7678270462      19.0000000000
7573 2      14.4344005598      16.0000000000
7574 2      14.5302990206      18.0000000000
7575 2      13.7202777229      14.0000000000
7576 2      13.8700780012      18.0000000000
7577 2      16.8081640123      24.0000000000
7578 2      16.9570238877      20.0000000000
7579 2      15.6521650422      16.0000000000
7580 2      14.2282335616      17.0000000000
7581 2      15.0946799357      18.0000000000
7582 2      15.7916181961      18.0000000000
7583 2      14.8317280170      18.0000000000
7584 2      15.8282821857      18.0000000000
7585 2      14.0692058656      16.0000000000
7586 2      15.1804231095      17.0000000000
7587 2      15.4725969853      21.0000000000
7588 2      12.6195010386      13.0000000000
7589 2      14.0676484276      19.0000000000
7590 2      13.5944403800      18.0000000000
7591 2      14.3335446185      17.0000000000
7592 2      16.3643115177      17.0000000000
7593 2      16.4102206759      18.0000000000
7594 2      14.8542157799      19.0000000000
7595 2      13.2632280209      15.0000000000
7596 2      14.3922879204      17.0000000000
7597 2      12.7730624924      14.0000000000
7598 2      15.1814534004      15.0000000000
7599 2      16.4754617502      20.0000000000
7600 2      14.8991601340      19.0000000000
7601 2      16.4365709015      24.0000000000
7602 2      16.9917598638      17.0000000000
7603 2      13.9057410332      16.0000000000
7604 2      17.0647091196      16.0000000000
7605 2      16.4879752244      22.0000000000
7606 2      14.5572999145      17.0000000000
7607 2      13.5692592039      17.0000000000
7608 2      14.7387425742      17.0000000000
7609 2      13.0705960058      17.0000000000
7610 2      14.5667404772      20.0000000000
7611 2      15.7932686646      22.0000000000
7612 2      16.8583558252      18.0000000000
7613 2      13.5777830656      16.0000000000
7614 2      15.1472684184      19.0000000000
7615 2      16.0656733070      16.0000000000
7616 2      16.4969384854      17.0000000000
7617 2      13.9103161234      18.0000000000
7618 2      20.3317461381      24.0000000000
7619 2      18.3480595006      23.0000000000
7620 2      13.8482916436      17.0000000000
7621 2      15.4929112188      20.0000000000
7622 2      16.2511164240      20.0000000000
7623 2      16.0472565051      20.0000000000
7624 2      17.6695181403      16.0000000000
7625 2      14.0129231831      18.0000000000
7626 2      17.2544827132      24.0000000000
7627 2      12.2124680432      14.0000000000
7628 2      15.7535273920      18.0000000000
7629 2      14.4751981289      19.0000000000
7630 2      15.5967887700      19.0000000000
7631 2      13.3813525791      16.0000000000
7632 2      15.9651923659      18.0000000000
7633 2      13.7979067160      15.0000000000
7634 2      16.5692013626      21.0000000000
7635 2      15.4016880260      19.0000000000
7636 2      12.7202169613      15.0000000000
7637 2      14.7122791092      18.0000000000
7638 2      15.6731856306      18.0000000000
7639 2      13.9089555359      15.0000000000
7640 2      14.2706030302      19.0000000000
7641 2      13.4505828009      15.0000000000
7642 2      15.5538748156      18.0000000000
7643 2      15.9634223552      19.0000000000
7644 2      13.6341505058      18.0000000000
7645 2      16.6033697679      19.0000000000
7646 2      15.6561188312      18.0000000000
7647 2      14.8794361203      16.0000000000
7648 2      13.8889292661      18.0000000000
7649 2      14.2229478005      17.0000000000
7650 2      18.2916800829      21.0000000000
7651 2      17.2287386258      21.0000000000
7652 2      18.1787675413      20.0000000000
7653 2      15.5039767343      19.0000000000
7654 2      12.3544043947      17.0000000000
7655 2      15.0848006084      18.0000000000
7656 2      14.8545057349      17.0000000000
7657 2      13.8903382690      16.0000000000
7658 2      16.1921212872      19.0000000000
7659 2      13.7935496584      19.0000000000
7660 2      13.7524071125      18.0000000000
7661 2      15.0049085271      21.0000000000
7662 2      17.7745589055      22.0000000000
7663 2      14.5834649812      20.0000000000
7664 2      14.3862708177      21.0000000000
7665 2      15.6998734026      21.0000000000
7666 2      14.7691013377      23.0000000000
7667 2      15.6332054213      20.0000000000
7668 2      17.8083501043      19.0000000000
7669 2      15.6100524826      19.0000000000
7670 2      17.6175742414      21.0000000000
7671 2      13.4991118897      16.0000000000
7672 2      14.2844403183      18.0000000000
7673 2      16.5744285562      21.0000000000
7674 2      15.5751190342      20.0000000000
7675 2      13.6519131166      17.0000000000
7676 2      13.9119447237      16.0000000000
7677 2      13.3997590538      17.0000000000
7678 2      14.0705322767      19.0000000000
7679 2      14.0757497793      18.0000000000
7680 2      13.0975934773      16.0000000000
7681 2      14.7125515646      16.0000000000
7682 2      12.9965075704      15.0000000000
7683 2      16.1963547754      18.0000000000
7684 2      12.9428009921      15.0000000000
7685 2      14.7320239126      17.0000000000
7686 2      14.5413976231      17.0000000000
7687 2      16.5102505470      21.0000000000
7688 2      12.9454885052      20.0000000000
7689 2      15.1889831477      16.0000000000
7690 2      16.1013105098      17.0000000000
7691 2      15.1506734778      19.0000000000
7692 2      17.4947227431      17.0000000000
7693 2      14.7207787207      13.0000000000
7694 2      17.2504460348      21.0000000000
7695 2      13.3299083885      15.0000000000
7696 2      16.1411356292      16.0000000000
7697 2      13.9358404424      18.0000000000
7698 2      15.3153378164      13.0000000000
7699 2      15.5649167165      20.0000000000
7700 2      16.7317627691      22.0000000000
7701 2      14.4424436554      15.0000000000
7702 2      13.2987469331      16.0000000000
7703 2      15.6991342817      19.0000000000
7704 2      14.2382853975      17.0000000000
7705 2      14.7094412862      16.0000000000
7706 2      17.4142263749      16.0000000000
7707 2      15.2106305493      19.0000000000
7708 2      13.5287923313      18.0000000000
7709 2      14.2824580137      15.0000000000
7710 2      13.6795464707      19.0000000000
7711 2      14.0540204917      17.0000000000
7712 2      14.9116877206      19.0000000000
7713 2      15.5707531033      18.0000000000
7714 2      14.2010597510      19.0000000000
7715 2      17.2886662307      18.0000000000
7716 2      14.9507428428      16.0000000000
7717 2      14.1890206462      17.0000000000
7718 2      16.5673899478      17.0000000000
7719 2      16.0055034307      24.0000000000
7720 2      14.9798649394      16.0000000000
7721 2      12.9693803844      15.0000000000
7722 2      16.0621852492      14.0000000000
7723 2      15.9912710891      17.0000000000
7724 2      15.5302893265      19.0000000000
7725 2      16.4678083472      17.0000000000
7726 2      13.7371490789      18.0000000000
7727 2      14.6913457349      20.0000000000
7728 2      15.3552089596      19.0000000000
7729 2      12.5442691641      16.0000000000
7730 2      15.5656663511      19.0000000000
7731 2      16.3994676120      20.0000000000
7732 2      15.0393839709      20.0000000000
7733 2      16.0694990406      17.0000000000
7734 2      14.2679871310      15.0000000000
7735 2      16.7966153002      22.0000000000
7736 2      13.9348631374      17.0000000000
7737 2      15.4979177518      16.0000000000
7738 2      12.4884376944      15.0000000000
7739 2      13.9962881503      19.0000000000
7740 2      13.5113686217      17.0000000000
7741 2      14.1114517778      16.0000000000
7742 2      14.2548994844      18.0000000000
7743 2      15.3218065673      21.0000000000
7744 2      15.7672517144      17.0000000000
7745 2      14.0703916509      16.0000000000
7746 2      14.9378231727      17.0000000000
7747 2      14.6990470235      19.0000000000
7748 2      13.7454733008      17.0000000000
7749 2      15.5743688229      18.0000000000
7750 2      16.2072150008      18.0000000000
7751 2      12.9883198731      16.0000000000
7752 2      14.0964784144      18.0000000000
7753 2      15.2358067364      18.0000000000
7754 2      13.7879709589      16.0000000000
7755 2      15.7629847627      14.0000000000
7756 2      15.3850473286      16.0000000000
7757 2      15.5996040168      17.0000000000
7758 2      15.0603997911      20.0000000000
7759 2      13.8584623286      18.0000000000
7760 2      16.6003346451      14.0000000000
7761 2      15.3400204040      22.0000000000
7762 2      14.8853488626      20.0000000000
7763 2      17.0031746321      17.0000000000
7764 2      14.8191247420      19.0000000000
7765 2      14.2106728583      18.0000000000
7766 2      14.6983069125      20.0000000000
7767 2      17.4906028600      15.0000000000
7768 2      16.5192374157      16.0000000000
7769 2      14.2917254923      18.0000000000
7770 2      13.5451544246      18.0000000000
7771 2      13.9004311813      13.0000000000
7772 2      14.6210981781      19.0000000000
7773 2      16.7624369393      19.0000000000
7774 2      15.7726074148      22.0000000000
7775 2      17.1839266960      21.0000000000
7776 2      15.3397564640      21.0000000000
7777 2      15.4859081259      18.0000000000
7778 2      15.4026640741      16.0000000000
7779 2      14.4133205238      17.0000000000
7780 2      17.4985212219      16.0000000000
7781 2      19.5639790128      19.0000000000
7782 2      13.9438069078      18.0000000000
7783 2      17.2820080085      19.0000000000
7784 2      16.7976514834      21.0000000000
7785 2      15.2186740357      18.0000000000
7786 2      14.8044810229      19.0000000000
7787 2      15.0602275561      19.0000000000
7788 2      16.1923502379      17.0000000000
7789 2      15.9423151534      17.0000000000
7790 2      12.5181888478      17.0000000000
7791 2      15.9948278855      18.0000000000
7792 2      15.5216772231      21.0000000000
7793 2      12.0722448415      17.0000000000
7794 2      17.4017852613      20.0000000000
7795 2      13.0504871467      15.0000000000
7796 2      13.8990910121      15.0000000000
7797 2      16.0639209672      21.0000000000
7798 2      13.9888630127      18.0000000000
7799 2      16.8248077199      24.0000000000
7800 2      15.9571334371      16.0000000000
7801 2      11.8522532132      16.0000000000
7802 2      19.2643601498      21.0000000000
7803 2      15.3510897600      22.0000000000
7804 2      15.0996291694      23.0000000000
7805 2      16.3963880903      19.0000000000
7806 2      16.5430926918      23.0000000000
7807 2      13.4047677530      16.0000000000
7808 2      17.3754258652      19.0000000000
7809 2      14.6854049199      20.0000000000
7810 2      16.3172269054      21.0000000000
7811 2      17.1987614462      22.0000000000
7812 2      15.2642397007      18.0000000000
7813 2      16.2392337905      17.0000000000
7814 2      13.7101522502      20.0000000000
7815 2      14.3717858181      17.0000000000
7816 2      15.9029134837      18.0000000000
7817 2      18.1479405787      20.0000000000
7818 2      13.1786519054      17.0000000000
7819 2      13.7430129717      18.0000000000
7820 2      14.2310031330      23.0000000000
7821 2      14.7094882693      18.0000000000
7822 2      12.9701847601      17.0000000000
7823 2      13.9351711035      19.0000000000
7824 2      15.0574354949      18.0000000000
7825 2      13.9024223522      16.0000000000
7826 2      14.1537077364      16.0000000000
7827 2      17.0650327195      17.0000000000
7828 2      15.8015507821      19.0000000000
7829 2      13.9729982595      18.0000000000
7830 2      20.9334255953      28.0000000000
7831 2      14.1942759665      18.0000000000
7832 2      16.0538128076      20.0000000000
7833 2      13.9708328555      15.0000000000
7834 2      15.7941158540      23.0000000000
7835 2      15.3991505143      19.0000000000
7836 2      13.8202161105      15.0000000000
7837 2      14.0723173316      14.0000000000
7838 2      14.5444265489      17.0000000000
7839 2      19.2493853911      21.0000000000
7840 2      15.3074103006      21.0000000000
7841 2      13.6422450690      15.0000000000
7842 2      14.2258029781      18.0000000000
7843 2      11.6205215575      16.0000000000
7844 2      14.3602835655      17.0000000000
7845 2      12.2706873312      17.0000000000
7846 2      14.6559740722      19.0000000000
7847 2      13.3012549863      18.0000000000
7848 2      16.4392355013      20.0000000000
7849 2      22.9928133558      22.0000000000
7850 2      14.0836552277      18.0000000000
7851 2      13.2346616263      15.0000000000
7852 2      16.9277572615      20.0000000000
7853 2      14.5315041470      18.0000000000
7854 2      15.4704338330      19.0000000000
7855 2      16.1732204490      22.0000000000
7856 2      18.1780394632      21.0000000000
7857 2      14.6875462490      19.0000000000
7858 2      14.1826887656      15.0000000000
7859 2      15.3951903210      21.0000000000
7860 2      14.5367268899      20.0000000000
7861 2      14.6847601106      18.0000000000
7862 2      13.8529172281      19.0000000000
7863 2      15.7439919346      17.0000000000
7864 2      16.7007784475      16.0000000000
7865 2      14.2976252818      22.0000000000
7866 2      15.1010060949      20.0000000000
7867 2      15.0957608642      18.0000000000
7868 2      15.6974050476      18.0000000000
7869 2      14.3508585806      16.0000000000
7870 2      14.4536701989      18.0000000000
7871 2      15.6740862215      21.0000000000
7872 2      16.2204730309      17.0000000000
7873 2      16.8433658045      21.0000000000
7874 2      17.4021112235      20.0000000000
7875 2      15.6130241255      15.0000000000
7876 2      14.1229929053      15.0000000000
7877 2      12.5501814890      17.0000000000
7878 2      14.0102706804      18.0000000000
7879 2      14.0618889066      19.0000000000
7880 2      14.8155645907      17.0000000000
7881 2      17.8560464881      19.0000000000
7882 2      16.0959462208      18.0000000000
7883 2      14.1419761910      17.0000000000
7884 2      13.2301613937      18.0000000000
7885 2      14.7939974953      16.0000000000
7886 2      15.1598255236      15.0000000000
7887 2      14.1563737719      16.0000000000
7888 2      13.4146840757      15.0000000000
7889 2      15.8760704405      19.0000000000
7890 2      16.5574957062      18.0000000000
7891 2      14.7973759280      17.0000000000
7892 2      16.1963445686      21.0000000000
7893 2      15.1692531047      20.0000000000
7894 2      13.1419230999      15.0000000000
7895 2      12.3065360357      17.0000000000
7896 2      13.5883168496      19.0000000000
7897 2      14.0933494871      19.0000000000
7898 2      15.5440530475      17.0000000000
7899 2      17.4942754073      21.0000000000
7900 2      13.7555856165      16.0000000000
7901 2      15.2857144980      15.0000000000
7902 2      13.1331869162      18.0000000000
7903 2      13.2658183846      17.0000000000
7904 2      16.5024481364      22.0000000000
7905 2      14.7771470058      20.0000000000
7906 2      12.6927764507      20.0000000000
7907 2      16.9877176892      18.0000000000
7908 2      13.1759985958      15.0000000000
7909 2      14.8880127777      18.0000000000
7910 2      12.6719302137      14.0000000000
7911 2      13.8261902835      17.0000000000
7912 2      13.9025677665      17.0000000000
7913 2      13.8100662488      18.0000000000
7914 2      13.9585379766      15.0000000000
7915 2      14.9243437295      19.0000000000
7916 2      15.5290080308      16.0000000000
7917 2      14.1862748554      20.0000000000
7918 2      13.6918029442      17.0000000000
7919 2      15.0088307274      19.0000000000
7920 2      14.1199999142      17.0000000000
7921 2      14.6394725720      20.0000000000
7922 2      17.0501850104      17.0000000000
7923 2      15.8771747464      20.0000000000
7924 2      14.1439849305      20.0000000000
7925 2      14.1423821051      16.0000000000
7926 2      14.7074989808      18.0000000000
7927 2      14.6488085980      17.0000000000
7928 2      16.4886358889      18.0000000000
7929 2      12.3765041677      17.0000000000
7930 2      13.6166275190      19.0000000000
7931 2      16.2640342065      18.0000000000
7932 2      17.4016193676      19.0000000000
7933 2      15.0747184333      22.0000000000
7934 2      13.0975704995      17.0000000000
7935 2      18.5318311483      22.0000000000
7936 2      15.6420362701      20.0000000000
7937 2      17.4292143326      19.0000000000
7938 2      12.6132102447      16.0000000000
7939 2      15.2026615902      17.0000000000
7940 2      15.5330362766      19.0000000000
7941 2      13.0387343051      16.0000000000
7942 2      13.1758885684      15.0000000000
7943 2      15.7702799144      15.0000000000
7944 2      14.2902203876      15.0000000000
7945 2      14.6306370610      20.0000000000
7946 2      16.0668018842      16.0000000000
7947 2      15.4047724024      19.0000000000
7948 2      15.0384888640      20.0000000000
7949 2      14.7858514819      19.0000000000
7950 2      13.7193739440      16.0000000000
7951 2      16.6088753736      19.0000000000
7952 2      14.5677313502      21.0000000000
7953 2      15.1112502317      19.0000000000
7954 2      14.6619822472      20.0000000000
7955 2      14.5946151571      22.0000000000
7956 2      15.3504055025      16.0000000000
7957 2      14.7636377846      18.0000000000
7958 2      13.7545347013      16.0000000000
7959 2      13.9378735138      17.0000000000
7960 2      11.9183384077      14.0000000000
7961 2      14.7176238780      18.0000000000
7962 2      14.5728560395      19.0000000000
7963 2      13.9555733718      16.0000000000
7964 2      15.1668532325      18.0000000000
7965 2      16.1128160917      18.0000000000
7966 2      15.3722307909      21.0000000000
7967 2      16.1700853651      21.0000000000
7968 2      14.6424996012      19.0000000000
7969 2      14.9467912361      18.0000000000
7970 2      12.1741405460      14.0000000000
7971 2      13.5257992267      16.0000000000
7972 2      11.9522590841      16.0000000000
7973 2      12.9840117404      16.0000000000
7974 2      15.2154939091      18.0000000000
7975 2      18.0385212616      18.0000000000
7976 2      13.0391048757      18.0000000000
7977 2      15.8452849070      20.0000000000
7978 2      14.4301519769      18.0000000000
7979 2      14.5870787503      16.0000000000
7980 2      14.0600300620      17.0000000000
7981 2      15.6490287200      16.0000000000
7982 2      13.7728084288      16.0000000000
7983 2      15.1517575900      20.0000000000
7984 2      16.8827676621      24.0000000000
7985 2      14.5646222712      18.0000000000
7986 2      14.0058205987      21.0000000000
7987 2      15.7984307584      18.0000000000
7988 2      12.2445382030      15.0000000000
7989 2      14.4056683915      17.0000000000
7990 2      14.3194899555      18.0000000000
7991 2      13.1661838566      16.0000000000
7992 2      14.7125109711      20.0000000000
7993 2      14.5744570466      17.0000000000
7994 2      15.8745804313      21.0000000000
7995 2      13.3521568733      15.0000000000
7996 2      16.9136162962      18.0000000000
7997 2      16.9522515109      21.0000000000
7998 2      13.6744805014      17.0000000000
7999 2      16.2903713841      20.0000000000
8000 2      15.0873321509      15.0000000000
8001 2      13.0769348395      16.0000000000
8002 2      16.8414645363      15.0000000000
8003 2      13.5079682366      17.0000000000
8004 2      14.3317851288      17.0000000000
8005 2      18.2898667652      19.0000000000
8006 2      16.3109444091      16.0000000000
8007 2      12.7095119698      15.0000000000
8008 2      12.5318859643      14.0000000000
8009 2      13.9143103715      16.0000000000
8010 2      20.1703907840      18.0000000000
8011 2      16.4686169826      21.0000000000
8012 2      15.5140448667      16.0000000000
8013 2      14.9808793600      17.0000000000
8014 2      15.0346206287      16.0000000000
8015 2      16.5181116830      21.0000000000
8016 2      14.9848114969      16.0000000000
8017 2      15.6230830335      19.0000000000
8018 2      13.6666375231      18.0000000000
8019 2      15.8947757430      19.0000000000
8020 2      15.0841599290      19.0000000000
8021 2      15.4073730820      19.0000000000
8022 2      16.0580607416      15.0000000000
8023 2      17.1899301991      17.0000000000
8024 2      13.9338237322      17.0000000000
8025 2      14.4073875544      19.0000000000
8026 2      13.8034935908      16.0000000000
8027 2      13.6572546137      18.0000000000
8028 2      14.5905149731      18.0000000000
8029 2      15.1017330791      19.0000000000
8030 2      18.1722070084      20.0000000000
8031 2      15.8600139037      15.0000000000
8032 2      13.9065153874      17.0000000000
8033 2      13.0412149499      20.0000000000
8034 2      13.1254110336      14.0000000000
8035 2      16.4338497166      18.0000000000
8036 2      15.8018900101      19.0000000000
8037 2      16.5780988594      16.0000000000
8038 2      16.9201471299      23.0000000000
8039 2      15.4023240827      18.0000000000
8040 2      13.8082153193      17.0000000000
8041 2      13.7269835430      21.0000000000
8042 2      15.7364768791      20.0000000000
8043 2      15.6831974826      19.0000000000
8044 2      12.7051955268      15.0000000000
8045 2      14.2125406185      19.0000000000
8046 2      14.4363972821      19.0000000000
8047 2      16.7050534242      17.0000000000
8048 2      15.7200705398      19.0000000000
8049 2      15.3172852839      16.0000000000
8050 2      14.3167608408      18.0000000000
8051 2      15.0722268273      18.0000000000
8052 2      14.5562065766      15.0000000000
8053 2      17.7668740113      21.0000000000
8054 2      16.2152405106      19.0000000000
8055 2      15.7352133216      16.0000000000
8056 2      13.9771057496      17.0000000000
8057 2      13.9885204018      19.0000000000
8058 2      17.2393756322      19.0000000000
8059 2      16.5213691422      18.0000000000
8060 2      12.4604474844      15.0000000000
8061 2      15.0939553421      17.0000000000
8062 2      12.9711814241      15.0000000000
8063 2      13.3530825343      17.0000000000
8064 2      14.5581779178      17.0000000000
8065 2      14.8546607744      20.0000000000
8066 2      12.8357704116      17.0000000000
8067 2      13.7227586442      15.0000000000
8068 2      13.4689902050      15.0000000000
8069 2      13.3319097744      17.0000000000
8070 2      13.7919681657      16.0000000000
8071 2      15.5382784124      18.0000000000
8072 2      14.2328676685      16.0000000000
8073 2      13.6914106682      19.0000000000
8074 2      13.7222228214      19.0000000000
8075 2      16.0531971737      22.0000000000
8076 2      14.9366089474      20.0000000000
8077 2      14.4582911225      18.0000000000
8078 2      11.2762664655      17.0000000000
8079 2      16.6627684126      17.0000000000
8080 2      14.1077714068      14.0000000000
8081 2      16.9543889551      22.0000000000
8082 2      14.8516852318      19.0000000000
8083 2      14.9816333809      16.0000000000
8084 2      12.4263981830      15.0000000000
8085 2      14.7784822733      16.0000000000
8086 2      16.9947994164      20.0000000000
8087 2      13.8185842627      17.0000000000
8088 2      14.5949625778      18.0000000000
8089 2      16.7478789242      18.0000000000
8090 2      13.5144382291      17.0000000000
8091 2      15.5112801266      14.0000000000
8092 2      12.9515897118      16.0000000000
8093 2      13.0404654948      16.0000000000
8094 2      16.6786404077      16.0000000000
8095 2      14.0454538685      16.0000000000
8096 2      14.9742508243      20.0000000000
8097 2      15.1872349395      18.0000000000
8098 2      15.4580895636      18.0000000000
8099 2      14.6209561079      17.0000000000
8100 2      15.8809835248      19.0000000000
8101 2      16.9920881919      19.0000000000
8102 2      12.8470025831      16.0000000000
8103 2      15.8339065339      17.0000000000
8104 2      13.8228331870      18.0000000000
8105 2      13.9560705411      16.0000000000
8106 2      12.0407488029      14.0000000000
8107 2      15.5605759980      20.0000000000
8108 2      12.2326671074      15.0000000000
8109 2      14.1799148757      18.0000000000
8110 2      13.8697082078      16.0000000000
8111 2      13.7532827705      18.0000000000
8112 2      15.4523131568      19.0000000000
8113 2      18.6656800198      18.0000000000
8114 2      14.5599474990      18.0000000000
8115 2      14.7206997462      16.0000000000
8116 2      15.9033827127      23.0000000000
8117 2      14.0769539829      16.0000000000
8118 2      14.7913230446      16.0000000000
8119 2      13.7519540740      15.0000000000
8120 2      15.4663355219      24.0000000000
8121 2      12.7733042768      17.0000000000
8122 2      15.8105397584      16.0000000000
8123 2      15.1769777744      17.0000000000
8124 2      15.4365393242      19.0000000000
8125 2      15.6786585095      20.0000000000
8126 2      15.1676838698      18.0000000000
8127 2      17.0939030494      21.0000000000
8128 2      12.4119953296      17.0000000000
8129 2      17.0246624704      20.0000000000
8130 2      16.2280878176      16.0000000000
8131 2      16.6709117056      19.0000000000
8132 2      15.1141929036      23.0000000000
8133 2      14.2866791146      17.0000000000
8134 2      16.6353788906      18.0000000000
8135 2      15.8896386171      22.0000000000
8136 2      14.3199641758      16.0000000000
8137 2      18.0108974265      23.0000000000
8138 2      15.4231670152      22.0000000000
8139 2      13.6886299827      15.0000000000
8140 2      17.6756096867      23.0000000000
8141 2      15.7726994363      19.0000000000
8142 2      16.9050524254      21.0000000000
8143 2      15.7811423231      18.0000000000
8144 2      14.7430067057      19.0000000000
8145 2      13.5654501535      16.0000000000
8146 2      14.8563002334      18.0000000000
8147 2      18.5870244260      18.0000000000
8148 2      14.8140167658      19.0000000000
8149 2      16.3057399571      19.0000000000
8150 2      15.4467616104      19.0000000000
8151 2      17.5286189448      19.0000000000
8152 2      15.4054167400      20.0000000000
8153 2      15.5519654130      18.0000000000
8154 2      16.7499562852      20.0000000000
8155 2      16.0025530090      17.0000000000
8156 2      17.0997248848      18.0000000000
8157 2      16.0652365155      20.0000000000
8158 2      16.2653054206      18.0000000000
8159 2      16.5688984449      22.0000000000
8160 2      14.9192105788      17.0000000000
8161 2      13.7544684347      21.0000000000
8162 2      13.0677983891      18.0000000000
8163 2      13.5966425723      20.0000000000
8164 2      17.0209293110      19.0000000000
8165 2      15.2531477527      20.0000000000
8166 2      13.6242007636      17.0000000000
8167 2      17.0270584291      24.0000000000
8168 2      14.3294544628      18.0000000000
8169 2      13.3108218200      18.0000000000
8170 2      14.9612141712      19.0000000000
8171 2      14.3095188728      20.0000000000
8172 2      14.1855454057      18.0000000000
8173 2      15.7795528945      19.0000000000
8174 2      15.7707517309      20.0000000000
8175 2      14.5852487878      16.0000000000
8176 2      16.0555975194      23.0000000000
8177 2      12.6474961553      16.0000000000
8178 2      14.6231666063      18.0000000000
8179 2      15.6230210411      16.0000000000
8180 2      14.0054314950      15.0000000000
8181 2      16.0154042703      23.0000000000
8182 2      15.8839725512      19.0000000000
8183 2      16.3773830669      16.0000000000
8184 2      13.9516075744      18.0000000000
8185 2      13.8025768652      19.0000000000
8186 2      15.8421235933      20.0000000000
8187 2      19.6725602532      20.0000000000
8188 2      12.6410103463      19.0000000000
8189 2      12.4771353807      15.0000000000
8190 2      17.1158717818      18.0000000000
8191 2      15.1239077785      17.0000000000
8192 2      17.2126923420      20.0000000000
8193 2      13.6899359453      18.0000000000
8194 2      14.0249623398      17.0000000000
8195 2      15.0238002413      19.0000000000
8196 2      13.2290169951      19.0000000000
8197 2      14.6367821386      18.0000000000
8198 2      13.3202403245      20.0000000000
8199 2      14.4174187833      14.0000000000
8200 2      17.3439940694      19.0000000000
8201 2      13.8806773684      17.0000000000
8202 2      15.8793013404      19.0000000000
8203 2      15.0519418610      18.0000000000
8204 2      13.2238755496      15.0000000000
8205 2      15.5475448008      21.0000000000
8206 2      15.3387375786      18.0000000000
8207 2      15.2545535244      18.0000000000
8208 2      15.5228256953      20.0000000000
8209 2      13.7054742390      16.0000000000
8210 2      18.3227209049      19.0000000000
8211 2      14.7582785659      18.0000000000
8212 2      17.0877484222      21.0000000000
8213 2      15.1859485886      17.0000000000
8214 2      13.5419717794      18.0000000000
8215 2      14.5912309899      20.0000000000
8216 2      14.4110528784      16.0000000000
8217 2      16.5626873446      20.0000000000
8218 2      13.4672038104      15.0000000000
8219 2      16.7347120636      19.0000000000
8220 2      15.1598208825      19.0000000000
8221 2      14.5042521680      17.0000000000
8222 2      15.1081314472      17.0000000000
8223 2      19.0156013892      21.0000000000
8224 2      16.4177339636      20.0000000000
8225 2      16.5082879723      24.0000000000
8226 2      13.2196052800      17.0000000000
8227 2      14.2461944717      17.0000000000
8228 2      14.1494956187      18.0000000000
8229 2      16.0435497765      16.0000000000
8230 2      13.7011234033      18.0000000000
8231 2      18.0519674983      21.0000000000
8232 2      14.3022658170      17.0000000000
8233 2      14.6228159470      19.0000000000
8234 2      13.4908580332      17.0000000000
8235 2      12.5274765327      15.0000000000
8236 2      15.3533157838      20.0000000000
8237 2      11.9787441804      16.0000000000
8238 2      14.6531307162      19.0000000000
8239 2      13.8910633162      22.0000000000
8240 2      16.6544717761      16.0000000000
8241 2      16.3747318641      19.0000000000
8242 2      13.8596775352      13.0000000000
8243 2      13.3898388348      17.0000000000
8244 2      13.1223489158      13.0000000000
8245 2      15.6933301750      19.0000000000
8246 2      15.7360098194      20.0000000000
8247 2      14.3587088868      15.0000000000
8248 2      12.5878222535      15.0000000000
8249 2      16.4617911238      21.0000000000
8250 2      14.3339608529      21.0000000000
8251 2      17.2503350750      20.0000000000
8252 2      17.6884959711      20.0000000000
8253 2      13.6394680323      17.0000000000
8254 2      16.2136718209      17.0000000000
8255 2      15.0330818962      16.0000000000
8256 2      13.8479579589      15.0000000000
8257 2      17.3777069629      23.0000000000
8258 2      17.8467575809      26.0000000000
8259 2      15.1198879299      20.0000000000
8260 2      14.2791979844      19.0000000000
8261 2      14.6548184069      18.0000000000
8262 2      16.4473163721      18.0000000000
8263 2      15.0194603818      19.0000000000
8264 2      15.7096348608      20.0000000000
8265 2      16.8371539794      21.0000000000
8266 2      13.8290416546      20.0000000000
8267 2      16.0674872098      12.0000000000
8268 2      13.3225803400      18.0000000000
8269 2      16.1973692129      20.0000000000
8270 2      19.9331241968      22.0000000000
8271 2      13.7157267032      16.0000000000
8272 2      15.7066602974      21.0000000000
8273 2      16.7818132495      17.0000000000
8274 2      14.3605110633      20.0000000000
8275 2      12.8552654577      15.0000000000
8276 2      11.9111660955      15.0000000000
8277 2      16.8890941647      18.0000000000
8278 2      14.9645927694      18.0000000000
8279 2      17.7477922195      20.0000000000
8280 2      15.4505568387      17.0000000000
8281 2      12.1456082963      17.0000000000
8282 2      18.3659811615      20.0000000000
8283 2      14.5208255918      15.0000000000
8284 2      15.7963529757      20.0000000000
8285 2      16.3951829050      17.0000000000
8286 2      14.4371322955      17.0000000000
8287 2      15.8460566295      17.0000000000
8288 2      12.7795298193      13.0000000000
8289 2      14.9808324443      18.0000000000
8290 2      13.8194936879      18.0000000000
8291 2      14.0333012139      18.0000000000
8292 2      15.9798630805      24.0000000000
8293 2      15.5759700805      18.0000000000
8294 2      16.2020997231      16.0000000000
8295 2      16.8099280029      23.0000000000
8296 2      15.0654128475      17.0000000000
8297 2      14.8895688557      17.0000000000
8298 2      14.6327032555      18.0000000000
8299 2      13.0705766869      14.0000000000
8300 2      17.1837332240      23.0000000000
8301 2      18.1324219978      21.0000000000
8302 2      13.6627137519      20.0000000000
8303 2      19.2793493052      21.0000000000
8304 2      16.2737176984      18.0000000000
8305 2      16.8200955126      23.0000000000
8306 2      14.4939834553      15.0000000000
8307 2      15.9726376419      20.0000000000
8308 2      12.5751267285      17.0000000000
8309 2      17.9837612619      17.0000000000
8310 2      14.1627469749      18.0000000000
8311 2      12.6265557863      16.0000000000
8312 2      18.1287164383      19.0000000000
8313 2      16.8993932507      17.0000000000
8314 2      15.6903346319      19.0000000000
8315 2      12.8369017601      15.0000000000
8316 2      16.3830978242      21.0000000000
8317 2      13.1159319928      19.0000000000
8318 2      14.4563760795      16.0000000000
8319 2      12.9531722309      15.0000000000
8320 2      14.0378205918      19.0000000000
8321 2      15.5182374303      20.0000000000
8322 2      16.6263426433      19.0000000000
8323 2      13.8280915657      17.0000000000
8324 2      16.8435285419      19.0000000000
8325 2      13.8725178029      16.0000000000
8326 2      16.1312133366      18.0000000000
8327 2      14.9206358932      19.0000000000
8328 2      14.8853943345      17.0000000000
8329 2      16.7755833799      21.0000000000
8330 2      12.8872588915      17.0000000000
8331 2      16.1734664259      21.0000000000
8332 2      16.8111552927      19.0000000000
8333 2      15.9476269887      17.0000000000
8334 2      14.6745965040      18.0000000000
8335 2      15.4467735699      17.0000000000
8336 2      15.0256611276      22.0000000000
8337 2      17.1855339156      20.0000000000
8338 2      15.9405846970      23.0000000000
8339 2      14.8080361597      17.0000000000
8340 2      15.5189528532      16.0000000000
8341 2      15.2528371736      20.0000000000
8342 2      14.1488384355      19.0000000000
8343 2      15.2674104818      14.0000000000
8344 2      14.6082052060      17.0000000000
8345 2      14.4178216409      18.0000000000
8346 2      13.8492749655      15.0000000000
8347 2      12.8651535812      16.0000000000
8348 2      15.7682531602      20.0000000000
8349 2      15.1544393044      19.0000000000
8350 2      15.1922144266      24.0000000000
8351 2      12.8278740316      19.0000000000
8352 2      12.9546522291      14.0000000000
8353 2      16.7268134386      17.0000000000
8354 2      15.9105425302      22.0000000000
8355 2      13.9160842886      16.0000000000
8356 2      15.6367557626      21.0000000000
8357 2      14.5412745625      17.0000000000
8358 2      17.3641991345      22.0000000000
8359 2      16.7729965628      23.0000000000
8360 2      15.4194789580      20.0000000000
8361 2      16.0532616267      19.0000000000
8362 2      16.0966453282      18.0000000000
8363 2      13.1043010798      15.0000000000
8364 2      17.6842522916      21.0000000000
8365 2      14.4885920066      17.0000000000
8366 2      14.7904187755      23.0000000000
8367 2      15.0588810061      20.0000000000
8368 2      14.3554694242      17.0000000000
8369 2      14.2459309228      18.0000000000
8370 2      18.0668039653      16.0000000000
8371 2      17.1448673877      22.0000000000
8372 2      15.1458196275      21.0000000000
8373 2      14.3526548431      18.0000000000
8374 2      14.9671787828      18.0000000000
8375 2      17.8308019572      23.0000000000
8376 2      12.2101047788      16.0000000000
8377 2      16.9529369684      19.0000000000
8378 2      14.9751620525      19.0000000000
8379 2      13.3777407524      19.0000000000
8380 2      17.7624993541      16.0000000000
8381 2      16.9320217001      21.0000000000
8382 2      12.5540974415      19.0000000000
8383 2      13.7703228323      16.0000000000
8384 2      18.4283277177      16.0000000000
8385 2      14.8131583688      15.0000000000
8386 2      12.6481217768      20.0000000000
8387 2      12.5983079142      15.0000000000
8388 2      13.4587468538      14.0000000000
8389 2      13.2206278299      16.0000000000
8390 2      14.1327078334      16.0000000000
8391 2      14.7097316219      18.0000000000
8392 2      13.5854700984      19.0000000000
8393 2      12.9246809361      14.0000000000
8394 2      15.6124235862      17.0000000000
8395 2      15.4767689357      16.0000000000
8396 2      14.6080847809      18.0000000000
8397 2      14.1281755050      15.0000000000
8398 2      14.3085803827      14.0000000000
8399 2      16.4166183175      17.0000000000
8400 2      14.9756281203      18.0000000000
8401 2      16.1710011640      22.0000000000
8402 2      15.4001356955      15.0000000000
8403 2      14.8052458968      18.0000000000
8404 2      15.2696151694      15.0000000000
8405 2      17.9411611783      20.0000000000
8406 2      17.4743093331      20.0000000000
8407 2      15.4034512085      20.0000000000
8408 2      19.5890983366      20.0000000000
8409 2      12.8397796726      14.0000000000
8410 2      14.2278732171      18.0000000000
8411 2      19.3352527824      23.0000000000
8412 2      14.1093138013      16.0000000000
8413 2      12.9737585304      17.0000000000
8414 2      16.2100847569      17.0000000000
8415 2      14.4049847702      15.0000000000
8416 2      17.7290792311      21.0000000000
8417 2      15.8354910308      20.0000000000
8418 2      15.4918032667      15.0000000000
8419 2      15.9351387594      20.0000000000
8420 2      14.8030965963      18.0000000000
8421 2      17.1896435120      20.0000000000
8422 2      13.7985819790      17.0000000000
8423 2      16.7118367849      19.0000000000
8424 2      16.5924944661      20.0000000000
8425 2      16.5802724650      18.0000000000
8426 2      14.4756323382      16.0000000000
8427 2      14.0217109518      19.0000000000
8428 2      14.4248604242      19.0000000000
8429 2      16.3482497562      19.0000000000
8430 2      15.2011462401      19.0000000000
8431 2      13.4342785890      14.0000000000
8432 2      12.6434143788      18.0000000000
8433 2      14.9159385971      19.0000000000
8434 2      13.8108373959      17.0000000000
8435 2      12.3406846527      16.0000000000
8436 2      14.8511209502      17.0000000000
8437 2      16.1986573781      15.0000000000
8438 2      15.4833710066      20.0000000000
8439 2      16.8778362251      18.0000000000
8440 2      15.2433939145      21.0000000000
8441 2      13.2199120967      16.0000000000
8442 2      14.8953427854      22.0000000000
8443 2      12.3514109589      19.0000000000
8444 2      13.2133802511      16.0000000000
8445 2      15.2275998666      21.0000000000
8446 2      15.0303060689      19.0000000000
8447 2      16.1594420763      18.0000000000
8448 2      16.4005366362      21.0000000000
8449 2      13.8672812876      18.0000000000
8450 2      14.6920972283      19.0000000000
8451 2      13.9236674005      17.0000000000
8452 2      14.2068080758      15.0000000000
8453 2      16.7843566975      18.0000000000
8454 2      15.5262841865      18.0000000000
8455 2      12.4504974568      18.0000000000
8456 2      15.3684194692      20.0000000000
8457 2      17.9630724403      21.0000000000
8458 2      14.5593734865      15.0000000000
8459 2      21.7307450671      24.0000000000
8460 2      14.1198298437      15.0000000000
8461 2      14.6027017006      14.0000000000
8462 2      13.0859713067      15.0000000000
8463 2      13.4792653123      13.0000000000
8464 2      15.0135255318      20.0000000000
8465 2      14.9118127925      17.0000000000
8466 2      15.4937028909      17.0000000000
8467 2      18.8630443354      22.0000000000
8468 2      15.5166807328      20.0000000000
8469 2      15.2250844309      14.0000000000
8470 2      15.4821987800      25.0000000000
8471 2      15.1323847069      21.0000000000
8472 2      14.5456671604      18.0000000000
8473 2      13.4247697485      19.0000000000
8474 2      13.2046392876      16.0000000000
8475 2      13.4472566949      16.0000000000
8476 2      14.5263197786      18.0000000000
8477 2      14.2242319469      17.0000000000
8478 2      12.4747595136      14.0000000000
8479 2      15.3840397223      16.0000000000
8480 2      16.0042617073      20.0000000000
8481 2      14.7743105296      18.0000000000
8482 2      14.7114114015      22.0000000000
8483 2      11.3758960946      13.0000000000
8484 2      13.4804319471      15.0000000000
8485 2      14.8213350827      19.0000000000
8486 2      15.0775984396      18.0000000000
8487 2      13.7459530351      17.0000000000
8488 2      14.5224948137      20.0000000000
8489 2      15.1301616581      20.0000000000
8490 2      12.9060904124      16.0000000000
8491 2      11.8326322224      16.0000000000
8492 2      13.8793936911      18.0000000000
8493 2      15.2494599446      15.0000000000
8494 2      15.7654859545      15.0000000000
8495 2      15.8420604398      21.0000000000
8496 2      15.0552892255      21.0000000000
8497 2      17.0780898022      19.0000000000
8498 2      14.4297449103      19.0000000000
8499 2      18.7047026194      21.0000000000
8500 2      14.5972679110      18.0000000000
8501 2      15.4987889866      15.0000000000
8502 2      13.8781339155      16.0000000000
8503 2      13.7913206314      15.0000000000
8504 2      12.6044179192      16.0000000000
8505 2      13.6838791456      17.0000000000
8506 2      13.2828954441      15.0000000000
8507 2      13.8885431651      18.0000000000
8508 2      15.1199260647      17.0000000000
8509 2      14.3928738408      22.0000000000
8510 2      14.4244332998      20.0000000000
8511 2      13.3933926632      16.0000000000
8512 2      15.7863290956      22.0000000000
8513 2      14.1648113595      18.0000000000
8514 2      13.9297672486      17.0000000000
8515 2      12.9916333123      17.0000000000
8516 2      14.8783523455      16.0000000000
8517 2      13.4186608117      17.0000000000
8518 2      17.2717376542      20.0000000000
8519 2      16.3923087812      18.0000000000
8520 2      14.4521202195      15.0000000000
8521 2      16.5467590632      13.0000000000
8522 2      13.8529706423      15.0000000000
8523 2      13.3361143461      15.0000000000
8524 2      15.5491686406      18.0000000000
8525 2      13.9557300625      18.0000000000
8526 2      18.8935040865      22.0000000000
8527 2      15.9983299166      19.0000000000
8528 2      14.4696606326      16.0000000000
8529 2      15.9998648068      18.0000000000
8530 2      19.2015566645      21.0000000000
8531 2      17.3751360962      23.0000000000
8532 2      15.4346850491      19.0000000000
8533 2      11.1546118590      15.0000000000
8534 2      17.3686106667      18.0000000000
8535 2      15.7373358321      18.0000000000
8536 2      14.8836923064      18.0000000000
8537 2      14.0560251628      17.0000000000
8538 2      15.2618966994      21.0000000000
8539 2      17.2646398219      18.0000000000
8540 2      15.8324913772      16.0000000000
8541 2      15.4559567599      16.0000000000
8542 2      12.9058083456      14.0000000000
8543 2      14.9028726962      16.0000000000
8544 2      14.4253762527      18.0000000000
8545 2      12.2077403489      17.0000000000
8546 2      15.7548768301      16.0000000000
8547 2      12.9747016721      15.0000000000
8548 2      14.1411238456      17.0000000000
8549 2      16.7955059214      18.0000000000
8550 2      14.8620005540      18.0000000000
8551 2      13.0738058051      15.0000000000
8552 2      14.0677827388      14.0000000000
8553 2      14.5113578295      16.0000000000
8554 2      17.1564933294      19.0000000000
8555 2      16.2694548886      18.0000000000
8556 2      13.5709636355      18.0000000000
8557 2      14.5004178505      16.0000000000
8558 2      14.4539501601      17.0000000000
8559 2      14.5101493960      18.0000000000
8560 2      16.8227841681      20.0000000000
8561 2      15.1593942269      14.0000000000
8562 2      14.3937020416      18.0000000000
8563 2      13.8391849161      20.0000000000
8564 2      15.3526897891      18.0000000000
8565 2      15.9150036941      18.0000000000
8566 2      13.5464080502      14.0000000000
8567 2      14.6195665340      16.0000000000
8568 2      14.1145734694      17.0000000000
8569 2      14.9324720743      16.0000000000
8570 2      15.3417462484      20.0000000000
8571 2      15.6468378991      16.0000000000
8572 2      16.7110478847      19.0000000000
8573 2      18.0887905577      22.0000000000
8574 2      17.0777207313      18.0000000000
8575 2      11.3685432689      16.0000000000
8576 2      14.6279648766      18.0000000000
8577 2      15.9906085081      23.0000000000
8578 2      15.6155886306      21.0000000000
8579 2      13.7091415341      18.0000000000
8580 2      14.7021317924      17.0000000000
8581 2      14.6301030377      16.0000000000
8582 2      14.3012090232      20.0000000000
8583 2      13.8919363264      16.0000000000
8584 2      14.1133959303      16.0000000000
8585 2      13.0191556213      16.0000000000
8586 2      15.4322604513      20.0000000000
8587 2      14.3758694039      17.0000000000
8588 2      13.5360383794      14.0000000000
8589 2      14.1845705570      19.0000000000
8590 2      14.5160152716      18.0000000000
8591 2      18.3719692611      20.0000000000
8592 2      14.8104853567      21.0000000000
8593 2      15.4877863767      17.0000000000
8594 2      14.5854837986      19.0000000000
8595 2      16.9094996685      21.0000000000
8596 2      17.4019553032      17.0000000000
8597 2      12.7524443607      17.0000000000
8598 2      12.5508356270      16.0000000000
8599 2      13.3251555548      18.0000000000
8600 2      12.9232002774      15.0000000000
8601 2      12.1517609641      17.0000000000
8602 2      13.5270424612      17.0000000000
8603 2      14.8996959046      17.0000000000
8604 2      16.3532186796      16.0000000000
8605 2      16.8012575049      18.0000000000
8606 2      15.1266911556      18.0000000000
8607 2      15.0535937873      21.0000000000
8608 2      13.2502755540      17.0000000000
8609 2      15.9877914480      16.0000000000
8610 2      15.8618453244      19.0000000000
8611 2      15.3630300792      20.0000000000
8612 2      15.2852876798      18.0000000000
8613 2      14.8020864631      17.0000000000
8614 2      15.3471390791      16.0000000000
8615 2      13.4960713447      18.0000000000
8616 2      14.8805186181      16.0000000000
8617 2      15.4930420111      18.0000000000
8618 2      14.5054727672      19.0000000000
8619 2      14.9249363285      18.0000000000
8620 2      14.4165233909      15.0000000000
8621 2      13.9973707603      16.0000000000
8622 2      14.0102390047      17.0000000000
8623 2      15.3442820675      19.0000000000
8624 2      16.2603914333      18.0000000000
8625 2      16.7494455280      20.0000000000
8626 2      15.5789320302      22.0000000000
8627 2      13.1484397711      16.0000000000
8628 2      14.9837538440      16.0000000000
8629 2      16.2399654935      20.0000000000
8630 2      15.7800143432      19.0000000000
8631 2      17.0623935734      18.0000000000
8632 2      14.8776797389      18.0000000000
8633 2      15.6871189041      20.0000000000
8634 2      14.7753412170      20.0000000000
8635 2      18.9485012265      23.0000000000
8636 2      14.7025781603      21.0000000000
8637 2      17.9953861090      16.0000000000
8638 2      14.6549272342      16.0000000000
8639 2      15.2008920077      18.0000000000
8640 2      12.7854618648      15.0000000000
8641 2      19.1864477636      19.0000000000
8642 2      17.6450122228      16.0000000000
8643 2      14.6195239699      18.0000000000
8644 2      13.3894422775      15.0000000000
8645 2      17.7662020028      22.0000000000
8646 2      15.8378509825      20.0000000000
8647 2      13.4981032127      15.0000000000
8648 2      13.3097732596      18.0000000000
8649 2      14.3145187825      17.0000000000
8650 2      16.7111328689      20.0000000000
8651 2      16.9273111631      21.0000000000
8652 2      17.1823947173      21.0000000000
8653 2      15.0581875847      18.0000000000
8654 2      13.1758844781      13.0000000000
8655 2      12.8329835329      19.0000000000
8656 2      14.9527881173      19.0000000000
8657 2      17.3940182064      19.0000000000
8658 2      17.7802946817      25.0000000000
8659 2      13.7879824181      19.0000000000
8660 2      13.5193642801      16.0000000000
8661 2      13.0180448985      14.0000000000
8662 2      15.0448561404      17.0000000000
8663 2      13.8317428846      18.0000000000
8664 2      15.6926573618      17.0000000000
8665 2      14.7471478871      20.0000000000
8666 2      15.7504887772      20.0000000000
8667 2      14.8220071434      18.0000000000
8668 2      13.2723504937      17.0000000000
8669 2      13.7961390069      16.0000000000
8670 2      13.5262268150      14.0000000000
8671 2      16.1366218062      17.0000000000
8672 2      13.3656152819      17.0000000000
8673 2      13.1146988484      17.0000000000
8674 2      16.9653151906      19.0000000000
8675 2      14.1542973095      17.0000000000
8676 2      13.6986351602      14.0000000000
8677 2      17.1153307776      22.0000000000
8678 2      17.4107449222      21.0000000000
8679 2      17.8325549911      18.0000000000
8680 2      14.2890358149      17.0000000000
8681 2      15.3052614953      18.0000000000
8682 2      13.8249367994      17.0000000000
8683 2      16.1441283650      19.0000000000
8684 2      15.8876693213      19.0000000000
8685 2      15.9582736054      21.0000000000
8686 2      12.1671727793      13.0000000000
8687 2      12.0831158363      17.0000000000
8688 2      14.0023040525      19.0000000000
8689 2      16.3575880538      19.0000000000
8690 2      18.4156691228      19.0000000000
8691 2      15.5510224672      19.0000000000
8692 2      12.8353254614      16.0000000000
8693 2      12.9301027307      14.0000000000
8694 2      14.3958481808      19.0000000000
8695 2      18.4169867233      20.0000000000
8696 2      13.3956128834      16.0000000000
8697 2      14.1553825395      17.0000000000
8698 2      15.9040410451      18.0000000000
8699 2      18.2085311752      18.0000000000
8700 2      18.4123484415      20.0000000000
8701 2      13.8937058657      18.0000000000
8702 2      13.4140788310      20.0000000000
8703 2      14.7920647393      18.0000000000
8704 2      14.7033051274      18.0000000000
8705 2      14.8829542380      17.0000000000
8706 2      15.7171040334      20.0000000000
8707 2      12.7397942293      15.0000000000
8708 2      14.2159191702      17.0000000000
8709 2      14.6620278543      18.0000000000
8710 2      15.1995369825      18.0000000000
8711 2      13.1837436204      16.0000000000
8712 2      14.4639421917      16.0000000000
8713 2      14.4797547627      19.0000000000
8714 2      12.3610291262      18.0000000000
8715 2      15.4976315362      17.0000000000
8716 2      16.2489749600      22.0000000000
8717 2      15.1531414071      16.0000000000
8718 2      14.6443732070      14.0000000000
8719 2      16.0296656578      17.0000000000
8720 2      14.2182797754      18.0000000000
8721 2      15.7507988903      19.0000000000
8722 2      14.1293747777      20.0000000000
8723 2      13.0326295336      14.0000000000
8724 2      15.5289232656      18.0000000000
8725 2      14.7458161997      18.0000000000
8726 2      12.6975258283      18.0000000000
8727 2      13.2559659847      17.0000000000
8728 2      16.7749406973      20.0000000000
8729 2      15.2307698843      18.0000000000
8730 2      16.1311233590      22.0000000000
8731 2      15.3859670399      17.0000000000
8732 2      13.8746056259      17.0000000000
8733 2      14.4285014745      20.0000000000
8734 2      15.7305118890      17.0000000000
8735 2      13.1397175542      15.0000000000
8736 2      15.2483267513      19.0000000000
8737 2      13.9554127904      21.0000000000
8738 2      19.4188754878      18.0000000000
8739 2      14.2815097420      15.0000000000
8740 2      17.5576944561      21.0000000000
8741 2      16.0545392788      18.0000000000
8742 2      15.2014807061      18.0000000000
8743 2      13.7142516357      19.0000000000
8744 2      15.6496766284      20.0000000000
8745 2      16.3594491475      18.0000000000
8746 2      15.0738238129      20.0000000000
8747 2      15.8001731606      22.0000000000
8748 2      12.4926184127      17.0000000000
8749 2      14.1620739408      18.0000000000
8750 2      14.1615177389      17.0000000000
8751 2      11.7991494888      16.0000000000
8752 2      13.1495704441      16.0000000000
8753 2      15.1811181708      18.0000000000
8754 2      14.2150471462      19.0000000000
8755 2      16.2673508360      18.0000000000
8756 2      17.5943175100      19.0000000000
8757 2      16.1779123334      18.0000000000
8758 2      15.8333315053      19.0000000000
8759 2      14.8540873339      19.0000000000
8760 2      16.1226292730      23.0000000000
8761 2      13.5975023002      16.0000000000
8762 2      14.1052096845      18.0000000000
8763 2      17.8166191704      23.0000000000
8764 2      16.5541521342      21.0000000000
8765 2      15.0361219639      20.0000000000
8766 2      18.3312795325      18.0000000000
8767 2      21.0130905508      21.0000000000
8768 2      14.2670795792      18.0000000000
8769 2      17.7769494998      21.0000000000
8770 2      15.7238942352      20.0000000000
8771 2      15.3089118445      13.0000000000
8772 2      15.4489334029      21.0000000000
8773 2      14.7375675886      20.0000000000
8774 2      14.2778047503      15.0000000000
8775 2      17.3045963520      17.0000000000
8776 2      16.3907686169      17.0000000000
8777 2      12.6802970765      19.0000000000
8778 2      16.7349046648      18.0000000000
8779 2      14.6485631353      19.0000000000
8780 2      14.1147780679      17.0000000000
8781 2      15.9273412561      19.0000000000
8782 2      17.3309298292      19.0000000000
8783 2      14.9687597779      17.0000000000
8784 2      13.2963306877      18.0000000000
8785 2      14.9439655663      16.0000000000
8786 2      11.9855318187      13.0000000000
8787 2      13.2773142543      14.0000000000
8788 2      15.4023842897      19.0000000000
8789 2      16.5788935071      23.0000000000
8790 2      14.6121997087      16.0000000000
8791 2      15.1837087596      18.0000000000
8792 2      14.4739353088      17.0000000000
8793 2      13.6925273740      18.0000000000
8794 2      13.3991961748      14.0000000000
8795 2      11.8090046694      12.0000000000
8796 2      12.6480986082      18.0000000000
8797 2      14.8486861361      17.0000000000
8798 2      18.8077573444      21.0000000000
8799 2      13.6333643761      17.0000000000
8800 2      16.0067338371      21.0000000000
8801 2      14.4600335917      19.0000000000
8802 2      14.6732309301      18.0000000000
8803 2      12.9608237287      17.0000000000
8804 2      16.1744709540      17.0000000000
8805 2      13.1433129939      17.0000000000
8806 2      16.8887513433      18.0000000000
8807 2      14.5054015858      21.0000000000
8808 2      13.7709919830      16.0000000000
8809 2      14.9378983902      18.0000000000
8810 2      15.1066155348      22.0000000000
8811 2      15.4602419567      20.0000000000
8812 2      14.9095650955      19.0000000000
8813 2      17.6138668428      16.0000000000
8814 2      12.9008485883      15.0000000000
8815 2      15.0422284097      15.0000000000
8816 2      19.5338722247      17.0000000000
8817 2      15.1240009018      19.0000000000
8818 2      15.8953040921      19.0000000000
8819 2      15.5180421355      13.0000000000
8820 2      14.1654487674      16.0000000000
8821 2      15.6185544787      21.0000000000
8822 2      12.9955930201      18.0000000000
8823 2      16.0736175670      21.0000000000
8824 2      15.9128730172      19.0000000000
8825 2      15.5436524026      18.0000000000
8826 2      14.4869815223      17.0000000000
8827 2      14.7298746862      18.0000000000
8828 2      14.7108180724      20.0000000000
8829 2      14.8733899612      16.0000000000
8830 2      14.5670856031      19.0000000000
8831 2      14.6039336113      18.0000000000
8832 2      14.7605445261      19.0000000000
8833 2      14.6609586293      19.0000000000
8834 2      13.6576099689      17.0000000000
8835 2      16.0706854652      17.0000000000
8836 2      13.2638595351      15.0000000000
8837 2      14.3101190345      17.0000000000
8838 2      16.7199779818      20.0000000000
8839 2      19.0418449543      18.0000000000
8840 2      16.5583223235      23.0000000000
8841 2      13.4843314073      17.0000000000
8842 2      16.3119191114      20.0000000000
8843 2      15.1734491692      17.0000000000
8844 2      17.8160819715      18.0000000000
8845 2      15.5134583909      21.0000000000
8846 2      13.2531499630      19.0000000000
8847 2      17.4356584112      23.0000000000
8848 2      15.3787734683      20.0000000000
8849 2      17.7628071391      21.0000000000
8850 2      15.4812082728      15.0000000000
8851 2      13.3470991988      15.0000000000
8852 2      16.3366350240      20.0000000000
8853 2      16.4217614329      20.0000000000
8854 2      14.1426866124      18.0000000000
8855 2      14.8849694517      16.0000000000
8856 2      14.7084748911      18.0000000000
8857 2      15.4593184390      16.0000000000
8858 2      14.5709992846      18.0000000000
8859 2      17.4073176103      24.0000000000
8860 2      16.0086113276      24.0000000000
8861 2      12.1585519687      16.0000000000
8862 2      14.2280153714      16.0000000000
8863 2      15.3329601672      15.0000000000
8864 2      16.2131374841      17.0000000000
8865 2      14.2233176296      16.0000000000
8866 2      17.0853433298      18.0000000000
8867 2      18.4108178181      23.0000000000
8868 2      15.4140488327      18.0000000000
8869 2      15.4837185850      17.0000000000
8870 2      12.9584143988      17.0000000000
8871 2      14.1328552086      18.0000000000
8872 2      17.9483487730      22.0000000000
8873 2      14.8210154756      15.0000000000
8874 2      14.8843918119      17.0000000000
8875 2      16.8308020740      20.0000000000
8876 2      13.9828651393      17.0000000000
8877 2      13.8041672446      16.0000000000
8878 2      16.9010696358      19.0000000000
8879 2      14.0132824127      17.0000000000
8880 2      14.7795731459      17.0000000000
8881 2      14.9835515085      16.0000000000
8882 2      14.6718941624      15.0000000000
8883 2      13.8953221372      16.0000000000
8884 2      13.3764471898      19.0000000000
8885 2      16.1701771430      17.0000000000
8886 2      16.2659790118      19.0000000000
8887 2      14.2014377423      15.0000000000
8888 2      15.2616027254      18.0000000000
8889 2      15.0784049899      17.0000000000
8890 2      15.0706138571      17.0000000000
8891 2      17.5743402028      19.0000000000
8892 2      15.6645554993      20.0000000000
8893 2      12.7687556964      21.0000000000
8894 2      12.5874980223      15.0000000000
8895 2      13.3682943041      14.0000000000
8896 2      13.5394590444      18.0000000000
8897 2      14.0927220561      21.0000000000
8898 2      16.3390488771      18.0000000000
8899 2      17.4426885268      18.0000000000
8900 2      16.5359122571      19.0000000000
8901 2      15.5047315447      18.0000000000
8902 2      14.6518130558      22.0000000000
8903 2      13.7506935704      16.0000000000
8904 2      13.7101749499      17.0000000000
8905 2      15.5761471290      16.0000000000
8906 2      13.9191444459      19.0000000000
8907 2      17.7338622201      20.0000000000
8908 2      13.9674677266      19.0000000000
8909 2      14.8238827092      16.0000000000
8910 2      13.9396306665      19.0000000000
8911 2      14.6068714138      15.0000000000
8912 2      14.4109609035      16.0000000000
8913 2      15.3683533956      19.0000000000
8914 2      15.1718092621      17.0000000000
8915 2      15.4324976438      15.0000000000
8916 2      23.6385093850      25.0000000000
8917 2      14.3903038866      17.0000000000
8918 2      13.6846274153      15.0000000000
8919 2      15.6113782506      19.0000000000
8920 2      16.4150877965      20.0000000000
8921 2      13.8455949896      20.0000000000
8922 2      16.1046332584      18.0000000000
8923 2      13.6673471467      19.0000000000
8924 2      13.7152069069      19.0000000000
8925 2      18.6735976748      19.0000000000
8926 2      11.9895021874      15.0000000000
8927 2      11.9439923431      13.0000000000
8928 2      13.6027679540      17.0000000000
8929 2      16.6690793446      21.0000000000
8930 2      13.7145115843      18.0000000000
8931 2      14.2745817644      21.0000000000
8932 2      14.0608804030      16.0000000000
8933 2      16.9605955116      20.0000000000
8934 2      18.4018904520      20.0000000000
8935 2      15.5587528868      19.0000000000
8936 2      13.0613742762      17.0000000000
8937 2      14.2628655904      20.0000000000
8938 2      15.3973451598      16.0000000000
8939 2      17.7591815736      22.0000000000
8940 2      16.4011052505      21.0000000000
8941 2      13.4481238934      16.0000000000
8942 2      14.0062970033      17.0000000000
8943 2      19.6898556057      23.0000000000
8944 2      12.7898202944      15.0000000000
8945 2      16.2037780165      21.0000000000
8946 2      13.6745768327      17.0000000000
8947 2      13.0291005270      18.0000000000
8948 2      17.4271364753      17.0000000000
8949 2      16.3126789687      19.0000000000
8950 2      16.6835116271      20.0000000000
8951 2      14.6621957866      21.0000000000
8952 2      16.5914522526      17.0000000000
8953 2      15.9260159076      20.0000000000
8954 2      15.1012341371      17.0000000000
8955 2      15.0349194901      19.0000000000
8956 2      17.7536166681      21.0000000000
8957 2      13.8092501944      17.0000000000
8958 2      14.2765051593      15.0000000000
8959 2      14.8100101690      17.0000000000
8960 2      14.9606128701      18.0000000000
8961 2      16.0943262605      18.0000000000
8962 2      14.5683035574      16.0000000000
8963 2      13.2286206132      19.0000000000
8964 2      16.0119731324      21.0000000000
8965 2      12.9880462259      19.0000000000
8966 2      15.5074082621      19.0000000000
8967 2      13.8671528484      15.0000000000
8968 2      14.8858622880      14.0000000000
8969 2      15.7585334998      18.0000000000
8970 2      13.7137485476      18.0000000000
8971 2      16.5659983673      15.0000000000
8972 2      13.4229381689      18.0000000000
8973 2      15.2658190315      17.0000000000
8974 2      18.2963730098      22.0000000000
8975 2      14.0631267920      14.0000000000
8976 2      16.9290021513      17.0000000000
8977 2      16.4110923888      20.0000000000
8978 2      15.0666281959      15.0000000000
8979 2      13.4548299683      18.0000000000
8980 2      13.7981580165      16.0000000000
8981 2      19.7303396738      22.0000000000
8982 2      14.3814798888      17.0000000000
8983 2      15.0757229672      22.0000000000
8984 2      13.4097683436      15.0000000000
8985 2      12.8529286022      18.0000000000
8986 2      15.5900187063      15.0000000000
8987 2      15.7051003094      20.0000000000
8988 2      15.1575825249      15.0000000000
8989 2      12.7798519647      15.0000000000
8990 2      14.9684473287      20.0000000000
8991 2      14.1242340504      20.0000000000
8992 2      12.7676466120      15.0000000000
8993 2      17.4412520761      23.0000000000
8994 2      16.7476467582      21.0000000000
8995 2      16.2513081120      20.0000000000
8996 2      14.3091083517      17.0000000000
8997 2      17.1588292013      23.0000000000
8998 2      14.7696608987      19.0000000000
8999 2      13.3917915278      17.0000000000
9000 2      14.7135356456      15.0000000000
9001 2      18.2895706760      20.0000000000
9002 2      13.4012210236      15.0000000000
9003 2      15.0073658047      19.0000000000
9004 2      15.1272004347      19.0000000000
9005 2      12.7618412593      15.0000000000
9006 2      16.7439543452      17.0000000000
9007 2      14.2456720009      15.0000000000
9008 2      17.0454284033      21.0000000000
9009 2      17.0491275432      18.0000000000
9010 2      13.3917507987      16.0000000000
9011 2      16.0582928750      19.0000000000
9012 2      13.9781821183      16.0000000000
9013 2      15.1966617920      23.0000000000
9014 2      12.9115927049      19.0000000000
9015 2      14.2218555189      15.0000000000
9016 2      15.2494406839      17.0000000000
9017 2      15.2918755525      16.0000000000
9018 2      14.1058498948      19.0000000000
9019 2      17.1522308338      23.0000000000
9020 2      14.8102462877      17.0000000000
9021 2      13.0640971373      18.0000000000
9022 2      17.9956239939      18.0000000000
9023 2      13.9765322591      16.0000000000
9024 2      15.4034344270      17.0000000000
9025 2      14.3211640161      19.0000000000
9026 2      14.0000174905      18.0000000000
9027 2      12.0579632542      16.0000000000
9028 2      14.2548085480      16.0000000000
9029 2      13.7091281952      17.0000000000
9030 2      15.8408387498      17.0000000000
9031 2      14.7783719059      17.0000000000
9032 2      13.9181266585      16.0000000000
9033 2      14.2580455776      16.0000000000
9034 2      14.3783155774      17.0000000000
9035 2      16.2207182386      22.0000000000
9036 2      12.7366099582      17.0000000000
9037 2      15.4023886339      19.0000000000
9038 2      17.5685212894      19.0000000000
9039 2      14.9587271878      17.0000000000
9040 2      15.0549512396      16.0000000000
9041 2      14.9729248177      17.0000000000
9042 2      14.3549386011      15.0000000000
9043 2      19.4877742144      21.0000000000
9044 2      16.0709882614      17.0000000000
9045 2      13.6786412700      14.0000000000
9046 2      15.5838037371      21.0000000000
9047 2      14.5233221531      17.0000000000
9048 2      15.7682938409      17.0000000000
9049 2      15.9370367731      18.0000000000
9050 2      14.3390060522      19.0000000000
9051 2      14.0733128694      18.0000000000
9052 2      14.5679568158      18.0000000000
9053 2      14.4214085858      16.0000000000
9054 2      14.4593196328      20.0000000000
9055 2      16.0592965456      21.0000000000
9056 2      18.0341007322      18.0000000000
9057 2      15.3637861630      19.0000000000
9058 2      15.3113659568      18.0000000000
9059 2      13.1178654214      17.0000000000
9060 2      16.8362576933      17.0000000000
9061 2      15.8663745801      19.0000000000
9062 2      14.7055243062      15.0000000000
9063 2      15.2579325761      20.0000000000
9064 2      14.0962701096      18.0000000000
9065 2      14.7740965446      16.0000000000
9066 2      15.1186787711      20.0000000000
9067 2      13.2682333832      16.0000000000
9068 2      14.1554034362      17.0000000000
9069 2      16.3363178093      20.0000000000
9070 2      16.4843939841      17.0000000000
9071 2      13.0184079765      16.0000000000
9072 2      16.1079661778      18.0000000000
9073 2      15.1892637761      16.0000000000
9074 2      14.1845907226      15.0000000000
9075 2      15.8830061647      17.0000000000
9076 2      14.0040782146      17.0000000000
9077 2      12.5712519681      16.0000000000
9078 2      13.7842081738      20.0000000000
9079 2      15.6968622225      18.0000000000
9080 2      11.1738553672      14.0000000000
9081 2      16.1862748461      17.0000000000
9082 2      15.5865451930      16.0000000000
9083 2      14.2190585934      18.0000000000
9084 2      13.7501571984      19.0000000000
9085 2      16.5624468108      19.0000000000
9086 2      14.2571046778      22.0000000000
9087 2      12.7484685619      17.0000000000
9088 2      17.8426575525      21.0000000000
9089 2      16.3623150380      18.0000000000
9090 2      13.2632569186      18.0000000000
9091 2      13.7052594857      20.0000000000
9092 2      15.6259771135      17.0000000000
9093 2      13.5340846719      17.0000000000
9094 2      13.0620714804      15.0000000000
9095 2      14.8175339389      21.0000000000
9096 2      16.3109288122      20.0000000000
9097 2      13.5364702428      15.0000000000
9098 2      13.2844430668      17.0000000000
9099 2      13.3607987242      17.0000000000
9100 2      16.0242016107      18.0000000000
9101 2      14.0279333449      16.0000000000
9102 2      20.5034102959      20.0000000000
9103 2      14.8716918160      19.0000000000
9104 2      12.9309152195      17.0000000000
9105 2      17.1760474616      18.0000000000
9106 2      14.8225354824      20.0000000000
9107 2      12.9031310056      16.0000000000
9108 2      13.7530032417      18.0000000000
9109 2      13.7241560947      16.0000000000
9110 2      14.7260400166      21.0000000000
9111 2      15.2273655931      20.0000000000
9112 2      16.2865392901      18.0000000000
9113 2      15.9408447237      18.0000000000
9114 2      17.3158795691      18.0000000000
9115 2      14.6079861334      18.0000000000
9116 2      14.6028400185      18.0000000000
9117 2      14.2587299848      16.0000000000
9118 2      14.2235230052      17.0000000000
9119 2      17.6379011491      21.0000000000
9120 2      13.6254649829      18.0000000000
9121 2      13.3404313206      15.0000000000
9122 2      15.5067895927      17.0000000000
9123 2      17.6369654242      19.0000000000
9124 2      16.1378267822      19.0000000000
9125 2      15.8118923873      20.0000000000
9126 2      14.4522169236      18.0000000000
9127 2      15.8042521099      17.0000000000
9128 2      15.9410892766      19.0000000000
9129 2      14.8352275748      18.0000000000
9130 2      14.7357476684      18.0000000000
9131 2      15.6203539885      21.0000000000
9132 2      16.3160405625      20.0000000000
9133 2      19.0653826586      20.0000000000
9134 2      13.3854808541      15.0000000000
9135 2      13.6988699763      15.0000000000
9136 2      15.4547460457      18.0000000000
9137 2      14.8821896487      20.0000000000
9138 2      15.8825733453      19.0000000000
9139 2      14.6809238649      18.0000000000
9140 2      14.2227936262      21.0000000000
9141 2      13.7254537156      19.0000000000
9142 2      14.8999258760      18.0000000000
9143 2      14.4075520344      17.0000000000
9144 2      13.7274143633      17.0000000000
9145 2      16.7315190536      18.0000000000
9146 2      13.4747918138      18.0000000000
9147 2      15.1441375027      22.0000000000
9148 2      15.5455470063      21.0000000000
9149 2      15.7441244744      19.0000000000
9150 2      15.0156668804      17.0000000000
9151 2      15.8130210224      20.0000000000
9152 2      16.4228736998      17.0000000000
9153 2      16.0674493367      20.0000000000
9154 2      13.8621269961      18.0000000000
9155 2      14.5245892112      20.0000000000
9156 2      16.8972670576      17.0000000000
9157 2      13.3326837720      14.0000000000
9158 2      15.8893911895      16.0000000000
9159 2      14.2613970706      17.0000000000
9160 2      14.2591326298      16.0000000000
9161 2      15.7020189582      19.0000000000
9162 2      17.0780344232      17.0000000000
9163 2      14.0989289351      16.0000000000
9164 2      12.2863932647      16.0000000000
9165 2      14.8066990989      19.0000000000
9166 2      15.2909764602      19.0000000000
9167 2      14.3696883370      16.0000000000
9168 2      13.1569668958      15.0000000000
9169 2      14.6761906151      19.0000000000
9170 2      16.6750441997      18.0000000000
9171 2      16.8749502698      22.0000000000
9172 2      12.9302903789      17.0000000000
9173 2      17.6724203617      19.0000000000
9174 2      12.2074217560      16.0000000000
9175 2      15.2617235455      19.0000000000
9176 2      18.6151668501      21.0000000000
9177 2      16.5466881691      22.0000000000
9178 2      13.7551670859      14.0000000000
9179 2      12.8666599188      16.0000000000
9180 2      16.2566686694      20.0000000000
9181 2      16.3658544325      19.0000000000
9182 2      14.1445901922      16.0000000000
9183 2      15.6326038710      17.0000000000
9184 2      14.7324097961      18.0000000000
9185 2      14.8058203473      13.0000000000
9186 2      16.7072527696      18.0000000000
9187 2      18.1971578173      22.0000000000
9188 2      13.6388211630      16.0000000000
9189 2      13.1166127688      19.0000000000
9190 2      19.6247790062      22.0000000000
9191 2      14.1285126547      16.0000000000
9192 2      14.3727709533      19.0000000000
9193 2      16.7855136029      19.0000000000
9194 2      16.1531610340      19.0000000000
9195 2      14.8704156446      17.0000000000
9196 2      16.6956132691      19.0000000000
9197 2      15.7535863911      22.0000000000
9198 2      13.8341424279      19.0000000000
9199 2      17.3420786461      21.0000000000
9200 2      12.6011642326      16.0000000000
9201 2      13.0221871688      16.0000000000
9202 2      17.8826091705      22.0000000000
9203 2      14.6545132029      17.0000000000
9204 2      12.1166082913      18.0000000000
9205 2      13.2626342570      16.0000000000
9206 2      14.2809621837      20.0000000000
9207 2      14.1095762167      19.0000000000
9208 2      16.1392749569      18.0000000000
9209 2      13.1825297170      17.0000000000
9210 2      15.5943952348      18.0000000000
9211 2      14.1881853080      15.0000000000
9212 2      14.8304902598      23.0000000000
9213 2      12.0834750393      13.0000000000
9214 2      14.5450584304      17.0000000000
9215 2      11.5518763828      15.0000000000
9216 2      16.9813767074      20.0000000000
9217 2      14.5094858580      19.0000000000
9218 2      15.9357680896      17.0000000000
9219 2      14.6580041774      17.0000000000
9220 2      23.3114061247      25.0000000000
9221 2      18.6224048681      23.0000000000
9222 2      13.8688593732      17.0000000000
9223 2      17.6867618447      25.0000000000
9224 2      16.2314242021      20.0000000000
9225 2      17.0556266918      16.0000000000
9226 2      11.1253083251      14.0000000000
9227 2      17.1669983923      19.0000000000
9228 2      19.9232623793      22.0000000000
9229 2      15.0699315900      21.0000000000
9230 2      12.5797023905      16.0000000000
9231 2      14.1712509294      15.0000000000
9232 2      13.3526308999      17.0000000000
9233 2      17.4644211899      24.0000000000
9234 2      12.0534743687      14.0000000000
9235 2      18.2709935382      22.0000000000
9236 2      16.7491384560      18.0000000000
9237 2      14.0929102478      16.0000000000
9238 2      15.5847523965      15.0000000000
9239 2      17.5843271695      21.0000000000
9240 2      14.0115069103      15.0000000000
9241 2      15.6494290808      16.0000000000
9242 2      13.7074038835      18.0000000000
9243 2      14.8163678578      16.0000000000
9244 2      14.7663723846      16.0000000000
9245 2      14.4362671405      18.0000000000
9246 2      15.1802726588      16.0000000000
9247 2      15.1416860521      19.0000000000
9248 2      15.2863227465      17.0000000000
9249 2      13.5471909789      21.0000000000
9250 2      15.2318593306      20.0000000000
9251 2      13.5854532686      16.0000000000
9252 2      13.9883987987      16.0000000000
9253 2      15.0391262150      17.0000000000
9254 2      14.5098420393      19.0000000000
9255 2      13.7365096760      17.0000000000
9256 2      13.4334658443      17.0000000000
9257 2      14.2936617431      16.0000000000
9258 2      13.1559915043      17.0000000000
9259 2      13.2465006099      19.0000000000
9260 2      14.2101890685      16.0000000000
9261 2      15.1537883481      16.0000000000
9262 2      14.7825291503      21.0000000000
9263 2      15.3413986109      19.0000000000
9264 2      16.5208109631      19.0000000000
9265 2      18.1582602472      20.0000000000
9266 2      12.9506257063      15.0000000000
9267 2      16.5152133113      19.0000000000
9268 2      14.6065240336      17.0000000000
9269 2      17.8463679866      16.0000000000
9270 2      14.8736373822      19.0000000000
9271 2      13.7199404505      14.0000000000
9272 2      14.6381731219      17.0000000000
9273 2      15.5028218851      14.0000000000
9274 2      15.4460017908      18.0000000000
9275 2      13.6509378334      19.0000000000
9276 2      14.9766775265      17.0000000000
9277 2      21.4028232817      22.0000000000
9278 2      14.8148466796      18.0000000000
9279 2      16.1723165867      15.0000000000
9280 2      15.3309875530      21.0000000000
9281 2      16.7542064387      19.0000000000
9282 2      15.9712244709      18.0000000000
9283 2      13.5936509423      18.0000000000
9284 2      13.3315038020      15.0000000000
9285 2      15.5132411781      18.0000000000
9286 2      15.2749577487      18.0000000000
9287 2      14.9694946891      22.0000000000
9288 2      14.4137114621      18.0000000000
9289 2      13.6009396543      19.0000000000
9290 2      13.8946607396      18.0000000000
9291 2      14.3736177581      20.0000000000
9292 2      14.3884177244      17.0000000000
9293 2      17.0346980416      18.0000000000
9294 2      13.2147752168      14.0000000000
9295 2      15.8990637310      22.0000000000
9296 2      15.9691977428      15.0000000000
9297 2      15.3323750653      16.0000000000
9298 2      16.3787789065      17.0000000000
9299 2      13.4129013792      17.0000000000
9300 2      14.6184322099      20.0000000000
9301 2      17.0510150732      17.0000000000
9302 2      12.7917123266      16.0000000000
9303 2      15.9059411486      22.0000000000
9304 2      15.3614064991      18.0000000000
9305 2      14.6983310624      18.0000000000
9306 2      17.2283608005      19.0000000000
9307 2      13.0978695824      14.0000000000
9308 2      13.0789492763      15.0000000000
9309 2      14.7933411671      19.0000000000
9310 2      14.9099629402      19.0000000000
9311 2      13.9032708608      15.0000000000
9312 2      17.1365428878      19.0000000000
9313 2      15.9391268669      16.0000000000
9314 2      14.1465008465      17.0000000000
9315 2      14.0074795044      17.0000000000
9316 2      16.0409183473      16.0000000000
9317 2      14.3588451199      19.0000000000
9318 2      13.9661721207      18.0000000000
9319 2      15.3613611421      19.0000000000
9320 2      16.3147191115      19.0000000000
9321 2      15.3769135451      22.0000000000
9322 2      14.4162253855      17.0000000000
9323 2      16.2689164767      22.0000000000
9324 2      15.6070433141      21.0000000000
9325 2      20.7785685909      24.0000000000
9326 2      15.1486370226      21.0000000000
9327 2      17.1238372736      24.0000000000
9328 2      13.5448494308      14.0000000000
9329 2      14.9908868630      17.0000000000
9330 2      14.9012810497      17.0000000000
9331 2      19.0690555635      17.0000000000
9332 2      13.5869961662      16.0000000000
9333 2      15.1629126766      21.0000000000
9334 2      16.7832404407      19.0000000000
9335 2      14.0309585390      17.0000000000
9336 2      16.7351061777      20.0000000000
9337 2      15.8444624155      20.0000000000
9338 2      17.9462614776      21.0000000000
9339 2      15.1096041789      19.0000000000
9340 2      14.0415174244      15.0000000000
9341 2      13.9928409790      18.0000000000
9342 2      15.7532620591      21.0000000000
9343 2      17.0580037128      21.0000000000
9344 2      15.5748942899      19.0000000000
9345 2      14.0417178825      20.0000000000
9346 2      16.0970633384      19.0000000000
9347 2      15.3694004880      20.0000000000
9348 2      14.3367487532      14.0000000000
9349 2      14.2685395700      17.0000000000
9350 2      13.4435780399      16.0000000000
9351 2      12.3593165682      14.0000000000
9352 2      13.9033945454      21.0000000000
9353 2      14.4939561761      18.0000000000
9354 2      16.1594835412      20.0000000000
9355 2      14.2893132857      17.0000000000
9356 2      18.1028629067      22.0000000000
9357 2      16.5731213406      18.0000000000
9358 2      16.3911426553      21.0000000000
9359 2      13.2359191434      16.0000000000
9360 2      14.8847379409      16.0000000000
9361 2      15.0502476726      18.0000000000
9362 2      15.0759726331      19.0000000000
9363 2      15.6187469598      16.0000000000
9364 2      15.7958579372      18.0000000000
9365 2      14.9826931937      19.0000000000
9366 2      14.0618191045      16.0000000000
9367 2      15.6191918441      17.0000000000
9368 2      15.3798085299      20.0000000000
9369 2      15.7419304056      18.0000000000
9370 2      17.0648038339      21.0000000000
9371 2      13.5172001470      15.0000000000
9372 2      16.3061112089      19.0000000000
9373 2      13.4120177651      17.0000000000
9374 2      15.2240269966      16.0000000000
9375 2      14.8864455006      17.0000000000
9376 2      14.7395509602      20.0000000000
9377 2      13.2981349331      20.0000000000
9378 2      13.5477604124      19.0000000000
9379 2      13.9371899385      18.0000000000
9380 2      13.0544920595      19.0000000000
9381 2      15.8013735883      19.0000000000
9382 2      17.9645531188      19.0000000000
9383 2      19.2791541469      17.0000000000
9384 2      16.7874856184      18.0000000000
9385 2      16.1939364035      17.0000000000
9386 2      14.9840401430      16.0000000000
9387 2      15.8555771946      20.0000000000
9388 2      15.8417199733      17.0000000000
9389 2      14.4311096430      18.0000000000
9390 2      14.3917591490      17.0000000000
9391 2      14.3253374454      18.0000000000
9392 2      15.5773855105      16.0000000000
9393 2      14.3282744202      18.0000000000
9394 2      15.7287513036      20.0000000000
9395 2      16.3499404234      17.0000000000
9396 2      13.8154301610      24.0000000000
9397 2      12.7261060461      15.0000000000
9398 2      13.1921508746      15.0000000000
9399 2      14.1997300756      16.0000000000
9400 2      13.8976916918      19.0000000000
9401 2      15.0883684792      15.0000000000
9402 2      14.8905618133      19.0000000000
9403 2      16.0558726457      16.0000000000
9404 2      16.9147460415      23.0000000000
9405 2      15.2366922069      16.0000000000
9406 2      11.7511558126      16.0000000000
9407 2      21.7955802116      25.0000000000
9408 2      14.5743910125      18.0000000000
9409 2      13.4460966510      17.0000000000
9410 2      14.6215013656      16.0000000000
9411 2      15.3296045317      18.0000000000
9412 2      14.1721066229      19.0000000000
9413 2      13.3628538469      17.0000000000
9414 2      15.9590496567      18.0000000000
9415 2      13.9409696056      17.0000000000
9416 2      14.0785873824      16.0000000000
9417 2      12.9872451938      16.0000000000
9418 2      15.9799316874      20.0000000000
9419 2      17.2899602998      19.0000000000
9420 2      14.8977649534      19.0000000000
9421 2      14.7955673117      20.0000000000
9422 2      12.6891322119      15.0000000000
9423 2      12.0339692052      18.0000000000
9424 2      14.5320076875      18.0000000000
9425 2      13.4489597848      14.0000000000
9426 2      14.5251349942      20.0000000000
9427 2      14.3168004027      16.0000000000
9428 2      15.6340129656      19.0000000000
9429 2      14.0302936620      17.0000000000
9430 2      16.0107893650      19.0000000000
9431 2      17.0532780335      21.0000000000
9432 2      13.7333548052      17.0000000000
9433 2      15.5544396786      16.0000000000
9434 2      17.0956145488      16.0000000000
9435 2      14.4980116566      20.0000000000
9436 2      15.6659389541      19.0000000000
9437 2      16.9781741312      17.0000000000
9438 2      14.2775982134      21.0000000000
9439 2      14.7599975859      15.0000000000
9440 2      12.8729450836      17.0000000000
9441 2      14.2893377784      18.0000000000
9442 2      13.9726585973      15.0000000000
9443 2      18.6378347564      20.0000000000
9444 2      14.9017886549      19.0000000000
9445 2      16.7121848429      20.0000000000
9446 2      18.7859551574      22.0000000000
9447 2      15.1802175757      22.0000000000
9448 2      15.2603810494      18.0000000000
9449 2      15.3577999639      19.0000000000
9450 2      14.5923767917      16.0000000000
9451 2      15.5848882595      19.0000000000
9452 2      14.8278800047      22.0000000000
9453 2      15.6458892373      18.0000000000
9454 2      16.4600107273      20.0000000000
9455 2      15.8319940147      22.0000000000
9456 2      13.5799707632      19.0000000000
9457 2      14.7552125146      18.0000000000
9458 2      15.1379888139      18.0000000000
9459 2      15.4424890863      20.0000000000
9460 2      17.1158101487      21.0000000000
9461 2      18.2865421731      20.0000000000
9462 2      13.8592502902      18.0000000000
9463 2      16.4112129818      23.0000000000
9464 2      14.9363061211      17.0000000000
9465 2      13.2040837828      18.0000000000
9466 2      17.6151260707      20.0000000000
9467 2      14.7453600990      16.0000000000
9468 2      17.4295583036      19.0000000000
9469 2      12.8071694751      17.0000000000
9470 2      18.1152433019      20.0000000000
9471 2      14.6809096235      15.0000000000
9472 2      17.8456339235      29.0000000000
9473 2      14.9500169444      15.0000000000
9474 2      12.8831466730      17.0000000000
9475 2      14.1778476198      20.0000000000
9476 2      14.6263688979      18.0000000000
9477 2      14.8309616871      17.0000000000
9478 2      15.3531744737      21.0000000000
9479 2      15.1286086152      20.0000000000
9480 2      13.7747518909      19.0000000000
9481 2      14.5232281100      18.0000000000
9482 2      12.5505899337      16.0000000000
9483 2      15.5893041879      20.0000000000
9484 2      13.5756359543      18.0000000000
9485 2      17.2193688137      20.0000000000
9486 2      14.5445702601      16.0000000000
9487 2      14.0222771703      21.0000000000
9488 2      14.8272938377      20.0000000000
9489 2      15.3246559899      20.0000000000
9490 2      14.9625974438      19.0000000000
9491 2      14.3169183121      15.0000000000
9492 2      16.5149039358      17.0000000000
9493 2      16.7793441493      19.0000000000
9494 2      14.9467466763      17.0000000000
9495 2      17.1656480478      21.0000000000
9496 2      13.8120865055      18.0000000000
9497 2      17.9206895399      19.0000000000
9498 2      14.9864776156      17.0000000000
9499 2      15.3961131656      18.0000000000
9500 2      17.3844797297      19.0000000000
9501 2      18.5262952965      27.0000000000
9502 2      13.5033540529      16.0000000000
9503 2      14.7477565756      15.0000000000
9504 2      13.7202101322      17.0000000000
9505 2      15.5629657145      18.0000000000
9506 2      19.3688358302      24.0000000000
9507 2      15.4539582807      20.0000000000
9508 2      15.1346577442      17.0000000000
9509 2      18.3935307441      23.0000000000
9510 2      14.3282455851      16.0000000000
9511 2      16.4322571503      15.0000000000
9512 2      13.5225501642      15.0000000000
9513 2      13.8810237720      14.0000000000
9514 2      15.7431164169      20.0000000000
9515 2      14.9505787175      16.0000000000
9516 2      13.0239984033      17.0000000000
9517 2      16.9633898464      19.0000000000
9518 2      14.3712907926      18.0000000000
9519 2      16.1950929250      18.0000000000
9520 2      15.4567745714      21.0000000000
9521 2      14.1309618522      14.0000000000
9522 2      14.6516828181      18.0000000000
9523 2      15.1858508636      18.0000000000
9524 2      15.1414760990      17.0000000000
9525 2      13.4833518780      20.0000000000
9526 2      17.0976557031      23.0000000000
9527 2      16.3751283663      19.0000000000
9528 2      12.4078289098      13.0000000000
9529 2      17.5535653613      15.0000000000
9530 2      13.1885012756      18.0000000000
9531 2      16.2329888134      19.0000000000
9532 2      15.4321582704      17.0000000000
9533 2      14.4049030642      17.0000000000
9534 2      15.8363741939      17.0000000000
9535 2      19.5398362762      23.0000000000
9536 2      14.9905231285      20.0000000000
9537 2      12.5256610634      17.0000000000
9538 2      13.4853725792      17.0000000000
9539 2      15.1871608563      17.0000000000
9540 2      14.8524388220      21.0000000000
9541 2      13.7112063843      17.0000000000
9542 2      14.5282407558      19.0000000000
9543 2      15.8371100299      18.0000000000
9544 2      12.8473460660      14.0000000000
9545 2      17.7790730939      18.0000000000
9546 2      16.4073474054      18.0000000000
9547 2      14.3658873625      17.0000000000
9548 2      13.0600011996      19.0000000000
9549 2      17.7771646697      18.0000000000
9550 2      14.9246859703      18.0000000000
9551 2      15.3513658544      21.0000000000
9552 2      16.3848489802      19.0000000000
9553 2      16.2682642304      17.0000000000
9554 2      15.9895208275      18.0000000000
9555 2      14.6871232422      16.0000000000
9556 2      15.9991517367      21.0000000000
9557 2      13.9077911511      17.0000000000
9558 2      18.1839017762      22.0000000000
9559 2      16.4778782484      15.0000000000
9560 2      13.5741564847      19.0000000000
9561 2      14.7784240855      19.0000000000
9562 2      14.9708483218      13.0000000000
9563 2      16.2019410277      18.0000000000
9564 2      15.2083236578      17.0000000000
9565 2      13.0212426430      17.0000000000
9566 2      14.9504214535      18.0000000000
9567 2      14.3589774839      17.0000000000
9568 2      15.1174909380      17.0000000000
9569 2      14.5106983114      18.0000000000
9570 2      16.0554366200      18.0000000000
9571 2      14.5419008895      18.0000000000
9572 2      14.7047657210      17.0000000000
9573 2      14.3001095070      17.0000000000
9574 2      15.1973352500      18.0000000000
9575 2      20.4055068946      22.0000000000
9576 2      15.9659067053      18.0000000000
9577 2      14.7615207290      18.0000000000
9578 2      15.8521959991      18.0000000000
9579 2      13.3379552085      16.0000000000
9580 2      15.5585157600      18.0000000000
9581 2      15.8247025663      18.0000000000
9582 2      11.9910525925      14.0000000000
9583 2      12.5127747451      15.0000000000
9584 2      15.3413413492      20.0000000000
9585 2      15.0606007609      16.0000000000
9586 2      15.1961648210      20.0000000000
9587 2      15.3148676538      17.0000000000
9588 2      17.7407839550      21.0000000000
9589 2      15.8259441494      19.0000000000
9590 2      11.5536245938      12.0000000000
9591 2      14.1247997671      20.0000000000
9592 2      14.5356632830      15.0000000000
9593 2      13.7951871285      19.0000000000
9594 2      12.7678715115      17.0000000000
9595 2      16.0152042066      19.0000000000
9596 2      13.9480433743      16.0000000000
9597 2      14.9422193568      16.0000000000
9598 2      14.8320739534      22.0000000000
9599 2      16.0573231958      19.0000000000
9600 2      16.8880461329      21.0000000000
9601 2      15.2656476559      20.0000000000
9602 2      15.5309311580      20.0000000000
9603 2      15.2057433215      18.0000000000
9604 2      16.5894353478      21.0000000000
9605 2      16.0853488444      19.0000000000
9606 2      16.2653211149      17.0000000000
9607 2      12.8862403803      14.0000000000
9608 2      13.8357793990      15.0000000000
9609 2      16.7284010554      20.0000000000
9610 2      16.0048192942      21.0000000000
9611 2      12.9007817914      17.0000000000
9612 2      15.1776979607      17.0000000000
9613 2      15.3976388923      15.0000000000
9614 2      14.5795062697      18.0000000000
9615 2      18.4130914989      18.0000000000
9616 2      18.4157398992      20.0000000000
9617 2      16.3537857298      16.0000000000
9618 2      14.4958779708      17.0000000000
9619 2      18.2813344541      23.0000000000
9620 2      15.4759178807      16.0000000000
9621 2      14.9695166227      16.0000000000
9622 2      14.6837425086      21.0000000000
9623 2      13.9912858171      18.0000000000
9624 2      15.3219648671      18.0000000000
9625 2      14.4336106975      18.0000000000
9626 2      16.5408811378      18.0000000000
9627 2      14.9577490323      17.0000000000
9628 2      14.5820550458      19.0000000000
9629 2      16.2267425744      18.0000000000
9630 2      13.9344216665      16.0000000000
9631 2      13.5998886710      19.0000000000
9632 2      15.0182784069      17.0000000000
9633 2      14.2039072295      15.0000000000
9634 2      12.6521240496      19.0000000000
9635 2      15.6544013273      17.0000000000
9636 2      17.9288278725      15.0000000000
9637 2      12.2280691263      15.0000000000
9638 2      15.1591450533      18.0000000000
9639 2      14.0078250759      18.0000000000
9640 2      13.2873787744      15.0000000000
9641 2      17.2694888162      26.0000000000
9642 2      15.5152903343      15.0000000000
9643 2      14.9054917129      19.0000000000
9644 2      15.1779367597      15.0000000000
9645 2      14.3807946935      20.0000000000
9646 2      14.7907934306      18.0000000000
9647 2      17.2747932210      23.0000000000
9648 2      14.0956076229      19.0000000000
9649 2      14.1601853477      19.0000000000
9650 2      13.9401474193      22.0000000000
9651 2      16.2657259892      21.0000000000
9652 2      14.7346556936      17.0000000000
9653 2      17.9783041076      23.0000000000
9654 2      16.9470781407      19.0000000000
9655 2      14.7263238935      17.0000000000
9656 2      15.9632736158      18.0000000000
9657 2      14.1119630765      18.0000000000
9658 2      17.3349497976      19.0000000000
9659 2      15.3250665135      16.0000000000
9660 2      16.0199960649      16.0000000000
9661 2      14.5396502183      16.0000000000
9662 2      16.6207979844      17.0000000000
9663 2      13.3354476793      14.0000000000
9664 2      16.7336152747      18.0000000000
9665 2      13.7117526048      19.0000000000
9666 2      12.4735449362      17.0000000000
9667 2      16.6407754717      19.0000000000
9668 2      12.5894132903      19.0000000000
9669 2      15.7850096692      19.0000000000
9670 2      14.0023130642      17.0000000000
9671 2      16.7699212820      19.0000000000
9672 2      13.8508794609      18.0000000000
9673 2      18.4943624760      25.0000000000
9674 2      15.7747354785      19.0000000000
9675 2      13.9029455746      19.0000000000
9676 2      15.3400091980      21.0000000000
9677 2      14.1167041141      16.0000000000
9678 2      14.8175339642      20.0000000000
9679 2      17.1763469152      23.0000000000
9680 2      16.5359120059      19.0000000000
9681 2      13.9054527471      16.0000000000
9682 2      16.3668378558      21.0000000000
9683 2      12.2105751037      17.0000000000
9684 2      16.6838267525      17.0000000000
9685 2      14.8800214360      16.0000000000
9686 2      18.6005384737      19.0000000000
9687 2      14.9419158484      18.0000000000
9688 2      13.9238718846      16.0000000000
9689 2      15.2555626596      18.0000000000
9690 2      14.4191773155      16.0000000000
9691 2      14.1427678121      17.0000000000
9692 2      16.3689909051      19.0000000000
9693 2      14.9895272141      20.0000000000
9694 2      14.3780865452      18.0000000000
9695 2      14.8571995280      18.0000000000
9696 2      16.1127268802      17.0000000000
9697 2      13.3624327765      17.0000000000
9698 2      14.0419211797      18.0000000000
9699 2      17.0376977173      21.0000000000
9700 2      13.7692188663      17.0000000000
9701 2      17.2101279255      17.0000000000
9702 2      14.2655242045      18.0000000000
9703 2      15.2675012587      19.0000000000
9704 2      14.6771329092      18.0000000000
9705 2      16.0962690430      20.0000000000
9706 2      14.1533284609      17.0000000000
9707 2      15.4718092560      22.0000000000
9708 2      16.0146070609      16.0000000000
9709 2      17.4726034632      20.0000000000
9710 2      13.6798532538      16.0000000000
9711 2      14.2508539815      16.0000000000
9712 2      13.1565541687      21.0000000000
9713 2      15.0893522118      19.0000000000
9714 2      19.2860192174      22.0000000000
9715 2      12.6403269330      16.0000000000
9716 2      14.9034920623      23.0000000000
9717 2      14.5564317539      14.0000000000
9718 2      16.6381276681      22.0000000000
9719 2      14.2646902612      16.0000000000
9720 2      13.8949326098      16.0000000000
9721 2      14.3267532377      19.0000000000
9722 2      16.6833865323      22.0000000000
9723 2      14.2848073234      18.0000000000
9724 2      15.0129791995      16.0000000000
9725 2      16.5411287881      20.0000000000
9726 2      16.2890076839      22.0000000000
9727 2      14.7643881473      19.0000000000
9728 2      16.3444490064      19.0000000000
9729 2      15.2977519489      15.0000000000
9730 2      15.3361365423      17.0000000000
9731 2      15.7844612794      19.0000000000
9732 2      14.7000773327      18.0000000000
9733 2      13.3121403203      18.0000000000
9734 2      17.6168112491      22.0000000000
9735 2      14.1732094493      17.0000000000
9736 2      14.4774255870      18.0000000000
9737 2      12.3490180841      17.0000000000
9738 2      15.3554330173      20.0000000000
9739 2      15.0373431246      19.0000000000
9740 2      14.3790405868      16.0000000000
9741 2      16.3016721641      20.0000000000
9742 2      15.7132390320      18.0000000000
9743 2      12.7905720118      18.0000000000
9744 2      16.7451054799      18.0000000000
9745 2      18.4442607448      19.0000000000
9746 2      13.6374346147      16.0000000000
9747 2      19.5362954121      21.0000000000
9748 2      15.9385763226      16.0000000000
9749 2      15.1828161524      21.0000000000
9750 2      16.1212070115      18.0000000000
9751 2      15.4668396529      18.0000000000
9752 2      16.1009722535      20.0000000000
9753 2      16.3760200504      20.0000000000
9754 2      18.0792376220      17.0000000000
9755 2      15.2844966368      21.0000000000
9756 2      12.1854447585      14.0000000000
9757 2      13.6518853535      15.0000000000
9758 2      15.6682138809      18.0000000000
9759 2      17.3904708297      24.0000000000
9760 2      13.0273476800      16.0000000000
9761 2      12.5587528749      17.0000000000
9762 2      11.9486371532      16.0000000000
9763 2      14.8358953607      17.0000000000
9764 2      17.9094769256      20.0000000000
9765 2      13.0891093785      15.0000000000
9766 2      14.3756005692      16.0000000000
9767 2      15.7863995131      18.0000000000
9768 2      17.6083662336      20.0000000000
9769 2      15.5879177474      18.0000000000
9770 2      14.4763897997      16.0000000000
9771 2      14.6319305954      22.0000000000
9772 2      16.3528597916      19.0000000000
9773 2      16.5737596308      18.0000000000
9774 2      14.5285997983      19.0000000000
9775 2      13.7089056405      15.0000000000
9776 2      10.8013032045      16.0000000000
9777 2      15.8076937647      17.0000000000
9778 2      15.5500416755      21.0000000000
9779 2      14.2956547786      18.0000000000
9780 2      13.1403810004      15.0000000000
9781 2      16.3264228575      16.0000000000
9782 2      13.4253440391      17.0000000000
9783 2      16.1041137997      20.0000000000
9784 2      14.0665301081      16.0000000000
9785 2      18.5619121319      20.0000000000
9786 2      14.4217310023      18.0000000000
9787 2      14.7561598994      18.0000000000
9788 2      16.0227395794      17.0000000000
9789 2      15.4328844745      14.0000000000
9790 2      13.4482171883      15.0000000000
9791 2      13.3268663839      18.0000000000
9792 2      15.4440312388      20.0000000000
9793 2      15.0771568468      19.0000000000
9794 2      12.5636712360      17.0000000000
9795 2      17.5021981164      21.0000000000
9796 2      12.5919831507      17.0000000000
9797 2      16.7183830966      17.0000000000
9798 2      17.5456129064      21.0000000000
9799 2      13.6771511391      15.0000000000
9800 2      15.3605945265      19.0000000000
9801 2      15.8821066434      18.0000000000
9802 2      13.8332177856      21.0000000000
9803 2      12.2424264462      18.0000000000
9804 2      16.7819838904      18.0000000000
9805 2      13.1975521739      18.0000000000
9806 2      13.2301052403      20.0000000000
9807 2      14.7260018590      17.0000000000
9808 2      13.7381515694      16.0000000000
9809 2      13.3605261402      17.0000000000
9810 2      14.7993294114      21.0000000000
9811 2      14.9528360174      18.0000000000
9812 2      14.1600534453      15.0000000000
9813 2      14.6924637523      19.0000000000
9814 2      14.5074085317      18.0000000000
9815 2      14.1860367514      17.0000000000
9816 2      13.9974428483      18.0000000000
9817 2      14.4865935018      20.0000000000
9818 2      15.6860395224      16.0000000000
9819 2      14.9557356698      18.0000000000
9820 2      14.5470655383      17.0000000000
9821 2      16.8333443556      15.0000000000
9822 2      14.5647131952      15.0000000000
9823 2      17.7262251541      18.0000000000
9824 2      17.0192982319      21.0000000000
9825 2      16.9342159618      23.0000000000
9826 2      13.9833174356      16.0000000000
9827 2      12.9753735121      16.0000000000
9828 2      15.4343803907      19.0000000000
9829 2      15.3037648776      15.0000000000
9830 2      16.9397150101      19.0000000000
9831 2      16.9960628597      22.0000000000
9832 2      14.5942939575      19.0000000000
9833 2      16.5329534182      18.0000000000
9834 2      15.7972438414      20.0000000000
9835 2      16.5510179771      18.0000000000
9836 2      13.9344758995      15.0000000000
9837 2      14.4808570221      17.0000000000
9838 2      13.7961566871      17.0000000000
9839 2      14.9480879006      18.0000000000
9840 2      15.3134455739      17.0000000000
9841 2      12.4186034533      15.0000000000
9842 2      16.3689446766      15.0000000000
9843 2      13.9688606211      18.0000000000
9844 2      15.3056010334      19.0000000000
9845 2      15.5962336061      20.0000000000
9846 2      16.2046994091      20.0000000000
9847 2      13.5885949320      19.0000000000
9848 2      12.5041453702      16.0000000000
9849 2      15.3540812165      19.0000000000
9850 2      16.0655803599      21.0000000000
9851 2      13.9316473929      17.0000000000
9852 2      14.7295979361      22.0000000000
9853 2      14.0277101265      14.0000000000
9854 2      14.2846433132      19.0000000000
9855 2      19.6912554809      20.0000000000
9856 2      18.8477338581      19.0000000000
9857 2      12.7061299482      14.0000000000
9858 2      13.2526466651      17.0000000000
9859 2      15.0410438417      17.0000000000
9860 2      15.3024906419      19.0000000000
9861 2      14.8054496737      15.0000000000
9862 2      14.4520065226      15.0000000000
9863 2      14.6576720299      17.0000000000
9864 2      16.6373016476      23.0000000000
9865 2      15.5147407940      23.0000000000
9866 2      13.6659827738      16.0000000000
9867 2      10.6636415939      15.0000000000
9868 2      14.4091794063      17.0000000000
9869 2      14.6682326139      14.0000000000
9870 2      13.7994474828      16.0000000000
9871 2      16.3536108176      16.0000000000
9872 2      16.4353361956      19.0000000000
9873 2      17.4945578112      20.0000000000
9874 2      17.4234002216      22.0000000000
9875 2      16.0036233080      18.0000000000
9876 2      18.2349326382      19.0000000000
9877 2      14.8671022459      20.0000000000
9878 2      13.7516434119      17.0000000000
9879 2      12.9078495591      15.0000000000
9880 2      18.4346908648      22.0000000000
9881 2      12.9964756643      19.0000000000
9882 2      14.2037872498      16.0000000000
9883 2      16.0990369833      20.0000000000
9884 2      16.2857529077      15.0000000000
9885 2      16.7262291323      19.0000000000
9886 2      15.4366440762      20.0000000000
9887 2      13.4376424001      16.0000000000
9888 2      15.2535133995      18.0000000000
9889 2      13.6134435668      18.0000000000
9890 2      13.3348461049      16.0000000000
9891 2      11.8505386405      15.0000000000
9892 2      16.3672547056      18.0000000000
9893 2      15.5228656022      20.0000000000
9894 2      14.7516584631      18.0000000000
9895 2      15.3115905418      21.0000000000
9896 2      14.3388111664      16.0000000000
9897 2      12.5656921640      16.0000000000
9898 2      16.2612652009      16.0000000000
9899 2      16.6451050721      20.0000000000
9900 2      14.1058491273      17.0000000000
9901 2      15.5679696998      19.0000000000
9902 2      14.7538696851      20.0000000000
9903 2      13.8410282429      22.0000000000
9904 2      14.0517349544      17.0000000000
9905 2      14.0574377672      14.0000000000
9906 2      15.0919115414      16.0000000000
9907 2      15.8602619926      18.0000000000
9908 2      15.5470455496      16.0000000000
9909 2      16.3752583939      18.0000000000
9910 2      13.0184642837      16.0000000000
9911 2      14.7408248474      22.0000000000
9912 2      14.8383096597      18.0000000000
9913 2      15.0480441390      14.0000000000
9914 2      17.2404864650      20.0000000000
9915 2      15.6739022495      16.0000000000
9916 2      15.2179742828      16.0000000000
9917 2      16.0594977486      19.0000000000
9918 2      15.0304930285      18.0000000000
9919 2      14.9419532468      21.0000000000
9920 2      13.7682974887      17.0000000000
9921 2      15.2062501352      17.0000000000
9922 2      15.4043252399      19.0000000000
9923 2      14.7216192080      19.0000000000
9924 2      12.7555455004      16.0000000000
9925 2      16.2285146880      19.0000000000
9926 2      16.5253819242      19.0000000000
9927 2      13.3958225864      16.0000000000
9928 2      14.9919621764      20.0000000000
9929 2      17.0043498034      20.0000000000
9930 2      15.9431941363      20.0000000000
9931 2      15.7584974645      20.0000000000
9932 2      15.6340246603      17.0000000000
9933 2      15.8317139391      14.0000000000
9934 2      14.0532216429      16.0000000000
9935 2      12.7822805551      18.0000000000
9936 2      14.7626738416      14.0000000000
9937 2      15.0138078924      18.0000000000
9938 2      15.5030930944      16.0000000000
9939 2      12.9878731820      16.0000000000
9940 2      15.6225690226      16.0000000000
9941 2      19.3223614202      22.0000000000
9942 2      15.3170757646      18.0000000000
9943 2      14.0001260372      16.0000000000
9944 2      15.3889799263      18.0000000000
9945 2      17.7032123499      23.0000000000
9946 2      15.8448853074      19.0000000000
9947 2      15.3823151915      18.0000000000
9948 2      14.0961077256      19.0000000000
9949 2      17.0149763461      21.0000000000
9950 2      19.7444100289      27.0000000000
9951 2      15.2938443294      16.0000000000
9952 2      14.0987408661      19.0000000000
9953 2      15.2209623386      20.0000000000
9954 2      15.4987637208      17.0000000000
9955 2      15.2125784611      18.0000000000
9956 2      13.2425301037      17.0000000000
9957 2      14.6683198479      19.0000000000
9958 2      16.0822962885      18.0000000000
9959 2      16.5964982952      19.0000000000
9960 2      16.7444987290      21.0000000000
9961 2      16.0624263048      23.0000000000
9962 2      16.4856813382      23.0000000000
9963 2      19.5144971280      19.0000000000
9964 2      15.7346234873      19.0000000000
9965 2      13.5556079176      16.0000000000
9966 2      14.0327136093      18.0000000000
9967 2      14.6251900769      18.0000000000
9968 2      18.3754673305      24.0000000000
9969 2      14.0063498359      18.0000000000
9970 2      20.9681261701      23.0000000000
9971 2      13.7634579237      19.0000000000
9972 2      13.5879501943      16.0000000000
9973 2      14.9890140330      18.0000000000
9974 2      18.5982985411      19.0000000000
9975 2      13.5609246934      18.0000000000
9976 2      15.1121363434      18.0000000000
9977 2      15.1902113589      19.0000000000
9978 2      13.2191798587      17.0000000000
9979 2      13.5742208801      19.0000000000
9980 2      17.0404578629      21.0000000000
9981 2      14.0811990868      19.0000000000
9982 2      16.3234350664      21.0000000000
9983 2      15.4485228519      17.0000000000
9984 2      13.1430527293      14.0000000000
9985 2      13.7516705040      16.0000000000
9986 2      14.4994734540      19.0000000000
9987 2      13.8981564615      14.0000000000
9988 2      14.5959530129      19.0000000000
9989 2      16.3247033100      22.0000000000
9990 2      13.5900204533      16.0000000000
9991 2      14.8436704365      17.0000000000
9992 2      16.0101599309      18.0000000000
9993 2      13.0474751379      16.0000000000
9994 2      15.2569521488      21.0000000000
9995 2      16.9980505019      18.0000000000
9996 2      16.7067277862      18.0000000000
9997 2      14.3663551372      14.0000000000
9998 2      18.7076952809      21.0000000000
9999 2      13.3396306329      17.0000000000
10000 2      12.7526216664      12.0000000000
10001 2      17.3807603507      18.0000000000
10002 2      14.9998515329      15.0000000000
10003 2      13.4321841786      19.0000000000
10004 2      16.1679125586      21.0000000000
10005 2      14.4791997724      20.0000000000
10006 2      13.9255675416      19.0000000000
10007 2      16.4426028113      21.0000000000
10008 2      15.8744894162      18.0000000000
10009 2      15.2548004340      15.0000000000
10010 2      18.9677425787      21.0000000000
10011 2      16.0941125547      25.0000000000
10012 2      15.4228295451      18.0000000000
10013 2      15.9481563214      19.0000000000
10014 2      13.6528930773      19.0000000000
10015 2      14.1960644062      19.0000000000
10016 2      15.3924057072      18.0000000000
10017 2      15.5011960764      20.0000000000
10018 2      15.4170815475      22.0000000000
10019 2      15.9788462963      19.0000000000
10020 2      17.4487704855      26.0000000000
10021 2      16.1734351881      21.0000000000
10022 2      16.8432834636      21.0000000000
10023 2      13.2016195209      16.0000000000
10024 2      14.5851961831      18.0000000000
10025 2      16.5335143342      20.0000000000
10026 2      12.9127681089      16.0000000000
10027 2      15.2297751757      16.0000000000
10028 2      14.2038485206      15.0000000000
10029 2      15.2812948366      19.0000000000
10030 2      15.0570297626      17.0000000000
10031 2      15.0600449848      16.0000000000
10032 2      15.1595225705      19.0000000000
10033 2      16.4419016370      19.0000000000
10034 2      15.9923614971      19.0000000000
10035 2      13.7351404784      17.0000000000
10036 2      15.6078932194      19.0000000000
10037 2      15.2700228319      17.0000000000
10038 2      13.2302151800      16.0000000000
10039 2      19.0396682029      23.0000000000
10040 2      16.2210377758      18.0000000000
10041 2      14.4606689261      20.0000000000
10042 2      14.7656129046      16.0000000000
10043 2      15.2311671686      20.0000000000
10044 2      13.5215754837      18.0000000000
10045 2      15.7806302871      20.0000000000
10046 2      14.0739816627      14.0000000000
10047 2      13.9322084162      17.0000000000
10048 2      13.7305870233      19.0000000000
10049 2      16.3818152547      20.0000000000
10050 2      13.7259694837      17.0000000000
10051 2      12.3310357498      13.0000000000
10052 2      16.1279095664      19.0000000000
10053 2      14.7383706218      16.0000000000
10054 2      14.3016016104      17.0000000000
10055 2      14.7073438501      17.0000000000
10056 2      13.6136586045      13.0000000000
10057 2      18.1278328152      18.0000000000
10058 2      15.5791792909      15.0000000000
10059 2      15.7877218262      19.0000000000
10060 2      15.2510104409      19.0000000000
10061 2      13.5082806933      18.0000000000
10062 2      14.2002680485      17.0000000000
10063 2      15.0673231485      18.0000000000
10064 2      16.4828553644      19.0000000000
10065 2      16.0396144960      19.0000000000
10066 2      18.5570422900      21.0000000000
10067 2      16.2571088689      19.0000000000
10068 2      17.4112771302      17.0000000000
10069 2      14.6325136554      18.0000000000
10070 2      15.1787836874      19.0000000000
10071 2      14.3206511254      20.0000000000
10072 2      16.6590452080      19.0000000000
10073 2      14.2306014910      16.0000000000
10074 2      14.9943375869      17.0000000000
10075 2      15.4152707237      15.0000000000
10076 2      16.0775145699      19.0000000000
10077 2      16.0802468564      22.0000000000
10078 2      17.0881227659      18.0000000000
10079 2      17.6284483279      21.0000000000
10080 2      16.7223201503      17.0000000000
10081 2      17.8366000481      21.0000000000
10082 2      14.4507950707      16.0000000000
10083 2      15.8210296941      16.0000000000
10084 2      17.7735805104      20.0000000000
10085 2      18.5109110527      20.0000000000
10086 2      16.5976277347      19.0000000000
10087 2      16.0016244314      20.0000000000
10088 2      12.8588411472      16.0000000000
10089 2      13.1637640768      12.0000000000
10090 2      13.4100639887      18.0000000000
10091 2      14.0804927515      16.0000000000
10092 2      13.6547377828      17.0000000000
10093 2      13.7822207842      17.0000000000
10094 2      16.0556369535      16.0000000000
10095 2      13.5974556548      18.0000000000
10096 2      14.4492556425      17.0000000000
10097 2      12.6912670687      13.0000000000
10098 2      17.2800284570      21.0000000000
10099 2      17.4152291601      19.0000000000
10100 2      12.3681212978      18.0000000000
10101 2      13.3776691461      16.0000000000
10102 2      18.5783090943      17.0000000000
10103 2      18.9386265401      20.0000000000
10104 2      15.3447289286      17.0000000000
10105 2      15.4003017569      17.0000000000
10106 2      18.5497282320      18.0000000000
10107 2      15.3662787619      15.0000000000
10108 2      15.0996893583      20.0000000000
10109 2      13.6295917598      16.0000000000
10110 2      16.9091116879      17.0000000000
10111 2      16.7916880237      20.0000000000
10112 2      13.5919811227      15.0000000000
10113 2      14.5945953142      17.0000000000
10114 2      16.4602805154      19.0000000000
10115 2      15.2815749306      17.0000000000
10116 2      14.1190722239      18.0000000000
10117 2      14.1499433018      18.0000000000
10118 2      18.3650411083      21.0000000000
10119 2      13.8278627956      18.0000000000
10120 2      14.4377220228      17.0000000000
10121 2      13.7122777595      14.0000000000
10122 2      15.7802090903      18.0000000000
10123 2      13.5765802760      16.0000000000
10124 2      14.0716669809      18.0000000000
10125 2      13.2722961054      17.0000000000
10126 2      19.5386542930      20.0000000000
10127 2      21.8879206502      20.0000000000
10128 2      12.7225428114      14.0000000000
10129 2      14.0442915121      15.0000000000
10130 2      15.6447563668      19.0000000000
10131 2      14.9279900477      22.0000000000
10132 2      15.5830291151      22.0000000000
10133 2      17.8474938178      25.0000000000
10134 2      18.9749569494      21.0000000000
10135 2      16.0138497018      20.0000000000
10136 2      15.0056217568      17.0000000000
10137 2      17.2722857777      21.0000000000
10138 2      16.8621583373      21.0000000000
10139 2      16.0051737417      19.0000000000
10140 2      15.5566853730      18.0000000000
10141 2      17.0064001819      18.0000000000
10142 2      16.9613372447      20.0000000000
10143 2      13.8427443062      17.0000000000
10144 2      12.7281187432      14.0000000000
10145 2      16.5658566857      18.0000000000
10146 2      17.0187775037      21.0000000000
10147 2      12.8042117619      12.0000000000
10148 2      15.0199532315      20.0000000000
10149 2      18.1128276191      23.0000000000
10150 2      15.5127633963      21.0000000000
10151 2      13.6318398784      15.0000000000
10152 2      14.7737730999      17.0000000000
10153 2      15.8905078769      20.0000000000
10154 2      14.0851210920      17.0000000000
10155 2      14.0867531673      16.0000000000
10156 2      14.9963243298      19.0000000000
10157 2      16.3305837785      19.0000000000
10158 2      16.6782450716      21.0000000000
10159 2      16.4786961161      19.0000000000
10160 2      14.0075271720      16.0000000000
10161 2      15.3848606166      15.0000000000
10162 2      18.4383095542      21.0000000000
10163 2      14.4109629028      18.0000000000
10164 2      15.5837720175      17.0000000000
10165 2      14.4395564744      18.0000000000
10166 2      16.1222809821      20.0000000000
10167 2      15.5154402693      19.0000000000
10168 2      15.5538939828      18.0000000000
10169 2      15.8910592078      17.0000000000
10170 2      13.2848907669      15.0000000000
10171 2      14.7565795809      20.0000000000
10172 2      14.4466658645      19.0000000000
10173 2      17.8548624736      19.0000000000
10174 2      15.8627677686      17.0000000000
10175 2      17.6120866973      19.0000000000
10176 2      17.7572316898      18.0000000000
10177 2      15.6898426660      15.0000000000
10178 2      17.6221495908      18.0000000000
10179 2      15.7386315098      23.0000000000
10180 2      12.9014092585      15.0000000000
10181 2      14.3419464951      18.0000000000
10182 2      15.6771666457      19.0000000000
10183 2      11.5803227048      17.0000000000
10184 2      14.2420589616      16.0000000000
10185 2      12.8008308227      19.0000000000
10186 2      13.5474615737      16.0000000000
10187 2      18.6694779667      22.0000000000
10188 2      14.3319748583      15.0000000000
10189 2      12.4992340120      16.0000000000
10190 2      18.1123426434      21.0000000000
10191 2      13.6251624466      17.0000000000
10192 2      16.5376530211      19.0000000000
10193 2      13.5474118148      20.0000000000
10194 2      15.9179249840      18.0000000000
10195 2      15.9599075775      18.0000000000
10196 2      13.5814303373      17.0000000000
10197 2      13.1997161827      15.0000000000
10198 2      15.1513698065      20.0000000000
10199 2      16.1169925220      15.0000000000
10200 2      16.1567999015      19.0000000000
10201 2      12.8494020085      16.0000000000
10202 2      14.4670532714      19.0000000000
10203 2      13.7709558435      18.0000000000
10204 2      17.3408813109      22.0000000000
10205 2      14.2153172877      18.0000000000
10206 2      14.1692434114      16.0000000000
10207 2      15.0611332858      18.0000000000
10208 2      15.9255521005      19.0000000000
10209 2      13.7825439438      17.0000000000
10210 2      16.3563481612      21.0000000000
10211 2      13.2130167116      17.0000000000
10212 2      12.9314862464      19.0000000000
10213 2      15.7880179487      21.0000000000
10214 2      13.1310325543      18.0000000000
10215 2      15.2497519929      16.0000000000
10216 2      15.2204989770      19.0000000000
10217 2      13.5330893217      20.0000000000
10218 2      14.6519125503      18.0000000000
10219 2      13.5245163452      19.0000000000
10220 2      13.5067636107      14.0000000000
10221 2      14.2748934008      17.0000000000
10222 2      15.1267721342      18.0000000000
10223 2      14.8595864458      16.0000000000
10224 2      15.2892743128      19.0000000000
10225 2      12.8346274154      14.0000000000
10226 2      14.9785502904      20.0000000000
10227 2      15.8763088256      17.0000000000
10228 2      13.9342118856      20.0000000000
10229 2      16.0578108598      20.0000000000
10230 2      19.2594690602      21.0000000000
10231 2      15.0198323891      22.0000000000
10232 2      17.0298622898      19.0000000000
10233 2      14.7296653848      15.0000000000
10234 2      15.6425485854      19.0000000000
10235 2      16.1628698345      18.0000000000
10236 2      16.8050473475      18.0000000000
10237 2      16.6047587871      23.0000000000
10238 2      15.9160831435      18.0000000000
10239 2      13.4188068097      17.0000000000
10240 2      14.5778447308      16.0000000000
10241 2      13.5421368115      18.0000000000
10242 2      15.2472311727      18.0000000000
10243 2      16.6712759285      18.0000000000
10244 2      17.4115365599      20.0000000000
10245 2      16.0465384193      18.0000000000
10246 2      14.4421388931      16.0000000000
10247 2      14.5056114831      15.0000000000
10248 2      17.3562133992      21.0000000000
10249 2      18.0026841841      23.0000000000
10250 2      13.3793316711      17.0000000000
10251 2      13.8052385110      19.0000000000
10252 2      14.2865565650      16.0000000000
10253 2      12.7420865964      17.0000000000
10254 2      13.4452141768      18.0000000000
10255 2      15.4695513871      18.0000000000
10256 2      17.7310791536      21.0000000000
10257 2      16.5528836205      18.0000000000
10258 2      12.9609240432      18.0000000000
10259 2      16.0886715119      19.0000000000
10260 2      14.6744833509      14.0000000000
10261 2      13.7709186218      17.0000000000
10262 2      14.3890567289      17.0000000000
10263 2      14.0020669090      19.0000000000
10264 2      18.6324585168      18.0000000000
10265 2      14.2129776921      17.0000000000
10266 2      14.7520780886      18.0000000000
10267 2      13.3753362865      17.0000000000
10268 2      12.7549107861      17.0000000000
10269 2      16.4354506146      18.0000000000
10270 2      12.6391626425      21.0000000000
10271 2      15.3670006986      21.0000000000
10272 2      16.5573869734      17.0000000000
10273 2      15.8827424145      16.0000000000
10274 2      14.8368962674      17.0000000000
10275 2      14.1525249879      15.0000000000
10276 2      16.5223785636      18.0000000000
10277 2      14.9146270281      21.0000000000
10278 2      15.1942059424      20.0000000000
10279 2      14.0308805937      14.0000000000
10280 2      15.6489432587      17.0000000000
10281 2      12.7228052812      15.0000000000
10282 2      16.3903332504      18.0000000000
10283 2      14.4970819673      18.0000000000
10284 2      14.5022967990      19.0000000000
10285 2      14.2853074276      16.0000000000
10286 2      16.1848047699      20.0000000000
10287 2      13.5698336951      16.0000000000
10288 2      14.6437670454      17.0000000000
10289 2      16.5715856411      23.0000000000
10290 2      15.2320540295      17.0000000000
10291 2      13.2378523491      16.0000000000
10292 2      13.8091409901      19.0000000000
10293 2      14.3353271503      17.0000000000
10294 2      14.2258250360      17.0000000000
10295 2      14.7667201713      19.0000000000
10296 2      12.7179298879      19.0000000000
10297 2      16.7259744272      16.0000000000
10298 2      14.9904926795      20.0000000000
10299 2      15.0253551295      22.0000000000
10300 2      18.8294336296      19.0000000000
10301 2      15.5676701123      21.0000000000
10302 2      13.1495631949      19.0000000000
10303 2      14.1845971063      17.0000000000
10304 2      16.1092680384      17.0000000000
10305 2      14.9403455476      17.0000000000
10306 2      16.4873113484      18.0000000000
10307 2      14.7533743680      16.0000000000
10308 2      15.7805491732      22.0000000000
10309 2      13.7206901125      18.0000000000
10310 2      15.7334708976      15.0000000000
10311 2      15.5609822433      18.0000000000
10312 2      18.0290612647      21.0000000000
10313 2      16.6379427315      20.0000000000
10314 2      14.2995617720      18.0000000000
10315 2      14.0420876161      14.0000000000
10316 2      15.7575111999      18.0000000000
10317 2      16.1169911172      18.0000000000
10318 2      14.3431752772      17.0000000000
10319 2      14.2684744247      19.0000000000
10320 2      14.0242183639      18.0000000000
10321 2      14.2730238942      19.0000000000
10322 2      15.3181555664      17.0000000000
10323 2      12.9062801886      16.0000000000
10324 2      14.3966869223      19.0000000000
10325 2      12.6355016877      16.0000000000
10326 2      13.8596574626      18.0000000000
10327 2      15.1084409280      20.0000000000
10328 2      14.3794216959      17.0000000000
10329 2      15.7525383131      15.0000000000
10330 2      15.4021766875      19.0000000000
10331 2      17.4800439122      21.0000000000
10332 2      16.6358331922      20.0000000000
10333 2      15.9240166158      18.0000000000
10334 2      22.7593960014      23.0000000000
10335 2      15.1387646668      19.0000000000
10336 2      14.8232846849      20.0000000000
10337 2      15.2729335720      17.0000000000
10338 2      13.4310582261      20.0000000000
10339 2      14.6202418507      16.0000000000
10340 2      13.3326749617      19.0000000000
10341 2      14.3995450941      16.0000000000
10342 2      15.4801556125      19.0000000000
10343 2      15.1999040986      16.0000000000
10344 2      14.5058267940      20.0000000000
10345 2      14.1191682125      18.0000000000
10346 2      13.3798172060      15.0000000000
10347 2      16.0709516074      17.0000000000
10348 2      17.4863542413      22.0000000000
10349 2      15.3809086436      19.0000000000
10350 2      14.2490772866      20.0000000000
10351 2      20.1676480159      21.0000000000
10352 2      14.9748486707      18.0000000000
10353 2      12.2025053478      16.0000000000
10354 2      14.5417345894      20.0000000000
10355 2      17.2655932447      18.0000000000
10356 2      16.9793716766      24.0000000000
10357 2      14.6882283344      21.0000000000
10358 2      14.6973618723      19.0000000000
10359 2      15.4375650471      16.0000000000
10360 2      13.6443788606      13.0000000000
10361 2      12.9347057377      17.0000000000
10362 2      15.3470088527      19.0000000000
10363 2      13.5419554972      18.0000000000
10364 2      15.2146557775      16.0000000000
10365 2      15.6467802915      19.0000000000
10366 2      13.1992745250      18.0000000000
10367 2      12.1399944792      18.0000000000
10368 2      14.2041834247      17.0000000000
10369 2      15.0903280078      18.0000000000
10370 2      15.0789790277      19.0000000000
10371 2      15.1891163126      20.0000000000
10372 2      14.9576557036      18.0000000000
10373 2      15.1857840622      20.0000000000
10374 2      13.7687565243      16.0000000000
10375 2      13.5110304077      15.0000000000
10376 2      12.7320321492      14.0000000000
10377 2      13.5808252900      19.0000000000
10378 2      18.1311940457      18.0000000000
10379 2      15.9170359852      17.0000000000
10380 2      13.4140738128      17.0000000000
10381 2      16.8560467857      20.0000000000
10382 2      12.5392374197      16.0000000000
10383 2      16.7879268840      20.0000000000
10384 2      16.0446272728      20.0000000000
10385 2      14.6052500382      16.0000000000
10386 2      14.8115940966      14.0000000000
10387 2      15.6983503222      18.0000000000
10388 2      15.2557173084      16.0000000000
10389 2      16.7255940491      20.0000000000
10390 2      14.7521945812      15.0000000000
10391 2      15.9354426557      23.0000000000
10392 2      12.5374217413      13.0000000000
10393 2      17.2235709572      16.0000000000
10394 2      18.4874999314      24.0000000000
10395 2      17.4948877953      17.0000000000
10396 2      12.5203027693      17.0000000000
10397 2      16.5615326544      19.0000000000
10398 2      15.1738897053      17.0000000000
10399 2      16.9257276826      19.0000000000
10400 2      15.6524245835      18.0000000000
10401 2      13.5227197459      16.0000000000
10402 2      14.7007488178      17.0000000000
10403 2      13.8219774874      17.0000000000
10404 2      13.2505113991      13.0000000000
10405 2      17.0258995956      20.0000000000
10406 2      14.6005796709      20.0000000000
10407 2      14.5907555752      20.0000000000
10408 2      14.9830635405      18.0000000000
10409 2      14.1177770189      19.0000000000
10410 2      13.1339057474      16.0000000000
10411 2      14.4964453801      18.0000000000
10412 2      12.7523278231      15.0000000000
10413 2      14.1336061664      15.0000000000
10414 2      14.3470671931      21.0000000000
10415 2      14.2935009248      15.0000000000
10416 2      15.6414775037      19.0000000000
10417 2      14.2171066819      15.0000000000
10418 2      13.3076847947      17.0000000000
10419 2      14.8232349757      16.0000000000
10420 2      12.6878223663      16.0000000000
10421 2      14.4113775436      23.0000000000
10422 2      15.9430865622      18.0000000000
10423 2      16.8271552132      19.0000000000
10424 2      17.8478770213      22.0000000000
10425 2      16.0098648046      16.0000000000
10426 2      13.1750435558      15.0000000000
10427 2      16.1352927629      19.0000000000
10428 2      16.1971908341      19.0000000000
10429 2      11.1958478944      12.0000000000
10430 2      15.9929074128      18.0000000000
10431 2      12.6725924046      14.0000000000
10432 2      15.6659762947      19.0000000000
10433 2      13.8286552129      18.0000000000
10434 2      16.2988687990      20.0000000000
10435 2      15.0203511545      20.0000000000
10436 2      13.5854909919      15.0000000000
10437 2      18.3078433645      22.0000000000
10438 2      17.5356117849      20.0000000000
10439 2      12.1941396584      16.0000000000
10440 2      16.0637593211      22.0000000000
10441 2      17.3633487990      17.0000000000
10442 2      14.8568348311      19.0000000000
10443 2      15.3519351267      20.0000000000
10444 2      14.2735461933      16.0000000000
10445 2      17.0086372197      18.0000000000
10446 2      15.4345019934      18.0000000000
10447 2      14.0165327168      18.0000000000
10448 2      14.6395557037      22.0000000000
10449 2      14.8197530562      19.0000000000
10450 2      13.4265870819      14.0000000000
10451 2      14.1602739990      18.0000000000
10452 2      15.5648122839      19.0000000000
10453 2      14.3252242577      20.0000000000
10454 2      13.0612600334      23.0000000000
10455 2      15.5886366336      21.0000000000
10456 2      13.9950962997      17.0000000000
10457 2      14.4623131097      16.0000000000
10458 2      16.6080060382      17.0000000000
10459 2      15.1099461428      18.0000000000
10460 2      16.4739601763      18.0000000000
10461 2      14.0867648730      17.0000000000
10462 2      13.8080150026      16.0000000000
10463 2      14.2598119163      17.0000000000
10464 2      16.2465043540      19.0000000000
10465 2      15.9126096005      20.0000000000
10466 2      14.8161385484      19.0000000000
10467 2      14.4800352185      19.0000000000
10468 2      15.5107774382      18.0000000000
10469 2      14.2162051971      16.0000000000
10470 2      17.3086266946      20.0000000000
10471 2      16.4466522989      16.0000000000
10472 2      16.9152427912      19.0000000000
10473 2      17.0618514632      20.0000000000
10474 2      14.2586610602      21.0000000000
10475 2      14.1979037864      19.0000000000
10476 2      15.9066729202      18.0000000000
10477 2      14.5277057420      20.0000000000
10478 2      14.5615516991      17.0000000000
10479 2      14.8362533573      17.0000000000
10480 2      13.8168795926      17.0000000000
10481 2      14.3240268700      20.0000000000
10482 2      14.4644640555      18.0000000000
10483 2      12.8918628792      15.0000000000
10484 2      16.2622220989      20.0000000000
10485 2      13.5553368416      15.0000000000
10486 2      12.6390839987      15.0000000000
10487 2      12.1639747546      14.0000000000
10488 2      11.4813158962      15.0000000000
10489 2      16.8927606989      15.0000000000
10490 2      14.1732956526      17.0000000000
10491 2      19.5441746772      21.0000000000
10492 2      15.8412224173      21.0000000000
10493 2      16.7518305522      20.0000000000
10494 2      14.4489469529      18.0000000000
10495 2      12.8683994459      17.0000000000
10496 2      15.0698539389      17.0000000000
10497 2      11.8343156255      13.0000000000
10498 2      13.2835511379      17.0000000000
10499 2      16.4371388977      20.0000000000
10500 2      16.6607799157      19.0000000000
10501 2      17.5698776746      19.0000000000
10502 2      16.8730513157      21.0000000000
10503 2      16.2612194159      18.0000000000
10504 2      17.1214178444      19.0000000000
10505 2      12.3440022225      16.0000000000
10506 2      16.9877707359      18.0000000000
10507 2      15.6261181303      19.0000000000
10508 2      15.1339179810      20.0000000000
10509 2      15.5624540010      17.0000000000
10510 2      16.3330226011      18.0000000000
10511 2      15.1290367710      15.0000000000
10512 2      15.4035038824      19.0000000000
10513 2      13.8937907941      18.0000000000
10514 2      15.5017857492      20.0000000000
10515 2      15.2192970067      18.0000000000
10516 2      15.6571874530      17.0000000000
10517 2      13.5495177882      18.0000000000
10518 2      15.3512713430      19.0000000000
10519 2      13.3644425109      19.0000000000
10520 2      12.9171485390      15.0000000000
10521 2      14.9411315610      20.0000000000
10522 2      13.5396802421      15.0000000000
10523 2      14.3926263258      16.0000000000
10524 2      16.3422800081      18.0000000000
10525 2      14.6748610440      19.0000000000
10526 2      14.1464133634      21.0000000000
10527 2      14.8263705491      14.0000000000
10528 2      13.9030170485      19.0000000000
10529 2      15.6285921057      19.0000000000
10530 2      14.9898568282      17.0000000000
10531 2      14.7724361098      20.0000000000
10532 2      14.4832107676      20.0000000000
10533 2      16.1718339930      18.0000000000
10534 2      16.0526572900      22.0000000000
10535 2      15.8269522790      16.0000000000
10536 2      16.3944318267      21.0000000000
10537 2      14.0127668447      16.0000000000
10538 2      17.4140065719      21.0000000000
10539 2      15.6886200489      16.0000000000
10540 2      15.8750977560      19.0000000000
10541 2      17.5925787454      21.0000000000
10542 2      15.1116867197      19.0000000000
10543 2      12.8805679137      17.0000000000
10544 2      12.7328739309      19.0000000000
10545 2      14.0641570236      15.0000000000
10546 2      14.8390134588      20.0000000000
10547 2      15.5383614796      16.0000000000
10548 2      13.7943531766      19.0000000000
10549 2      15.6007064914      17.0000000000
10550 2      15.9916242738      18.0000000000
10551 2      15.4261842447      19.0000000000
10552 2      14.9753620286      20.0000000000
10553 2      15.4667345207      22.0000000000
10554 2      15.8127826024      20.0000000000
10555 2      13.8151779999      18.0000000000
10556 2      12.0977085147      16.0000000000
10557 2      15.7463139358      21.0000000000
10558 2      16.2312811249      21.0000000000
10559 2      14.9962317416      22.0000000000
10560 2      15.0158442205      20.0000000000
10561 2      15.6833392488      18.0000000000
10562 2      16.0064981202      18.0000000000
10563 2      13.8961728234      16.0000000000
10564 2      15.6882291739      19.0000000000
10565 2      16.3004015594      19.0000000000
10566 2      15.5724429563      16.0000000000
10567 2      16.2384385905      18.0000000000
10568 2      14.8709324434      18.0000000000
10569 2      12.9698653410      17.0000000000
10570 2      17.7959806202      20.0000000000
10571 2      15.7246440965      16.0000000000
10572 2      14.5476737124      20.0000000000
10573 2      13.6920295276      19.0000000000
10574 2      13.4021363387      18.0000000000
10575 2      16.3845594211      22.0000000000
10576 2      14.6132275944      16.0000000000
10577 2      17.6532533637      19.0000000000
10578 2      15.3659857895      17.0000000000
10579 2      17.9690473599      17.0000000000
10580 2      15.0732998417      19.0000000000
10581 2      14.8865067857      17.0000000000
10582 2      15.2201451692      16.0000000000
10583 2      15.4009870899      18.0000000000
10584 2      13.7052668636      16.0000000000
10585 2      14.5911627219      17.0000000000
10586 2      16.0320707105      19.0000000000
10587 2      12.7878237724      16.0000000000
10588 2      13.9696388529      21.0000000000
10589 2      20.0059251138      24.0000000000
10590 2      12.2678012618      18.0000000000
10591 2      12.7966905452      19.0000000000
10592 2      13.4475457137      18.0000000000
10593 2      11.7760732448      15.0000000000
10594 2      14.4401321249      20.0000000000
10595 2      11.9852234709      18.0000000000
10596 2      13.3357626526      17.0000000000
10597 2      13.9110623807      15.0000000000
10598 2      14.3740003225      18.0000000000
10599 2      15.4157319764      18.0000000000
10600 2      14.1133722796      17.0000000000
10601 2      16.1387312943      20.0000000000
10602 2      13.0551258519      18.0000000000
10603 2      15.6508044396      17.0000000000
10604 2      16.9983193608      18.0000000000
10605 2      13.7812533167      19.0000000000
10606 2      14.5198930671      19.0000000000
10607 2      15.8435280017      16.0000000000
10608 2      13.0072838145      16.0000000000
10609 2      15.8635240596      18.0000000000
10610 2      16.9380584970      18.0000000000
10611 2      16.8528976521      20.0000000000
10612 2      13.7073521890      18.0000000000
10613 2      16.1034573607      19.0000000000
10614 2      14.6709449943      15.0000000000
10615 2      14.9555121225      15.0000000000
10616 2      14.1069905732      17.0000000000
10617 2      15.5787424435      18.0000000000
10618 2      17.2877679164      21.0000000000
10619 2      13.6464599794      15.0000000000
10620 2      16.5521117513      19.0000000000
10621 2      14.4161707578      16.0000000000
10622 2      12.9977547765      17.0000000000
10623 2      15.3976220774      17.0000000000
10624 2      14.2679400061      18.0000000000
10625 2      15.9577199528      19.0000000000
10626 2      12.8476341784      17.0000000000
10627 2      19.4587515844      20.0000000000
10628 2      13.6822576578      21.0000000000
10629 2      18.5338668994      19.0000000000
10630 2      14.7007814134      17.0000000000
10631 2      14.2317729631      18.0000000000
10632 2      13.5299996842      15.0000000000
10633 2      15.3579324671      18.0000000000
10634 2      13.9295860137      16.0000000000
10635 2      14.2191794338      17.0000000000
10636 2      18.6096155615      18.0000000000
10637 2      14.3142245864      15.0000000000
10638 2      16.2295401266      18.0000000000
10639 2      15.7963911771      16.0000000000
10640 2      15.1985794036      18.0000000000
10641 2      15.6443303708      19.0000000000
10642 2      14.8148593090      21.0000000000
10643 2      15.1014848793      18.0000000000
10644 2      15.5479523767      17.0000000000
10645 2      12.2665637565      17.0000000000
10646 2      15.5471715655      22.0000000000
10647 2      18.0014975511      25.0000000000
10648 2      14.2600792219      13.0000000000
10649 2      14.1434638375      17.0000000000
10650 2      14.0980540915      17.0000000000
10651 2      16.3225592171      20.0000000000
10652 2      13.3500013488      14.0000000000
10653 2      14.9427973553      18.0000000000
10654 2      16.3591505956      17.0000000000
10655 2      13.7337707188      18.0000000000
10656 2      14.6441832172      17.0000000000
10657 2      15.3154633399      15.0000000000
10658 2      14.1795316103      20.0000000000
10659 2      14.0887953411      14.0000000000
10660 2      13.5976927731      17.0000000000
10661 2      14.3266542844      17.0000000000
10662 2      14.7132699042      18.0000000000
10663 2      15.4904482412      20.0000000000
10664 2      15.8321891998      16.0000000000
10665 2      15.4315465050      19.0000000000
10666 2      14.6695311577      16.0000000000
10667 2      14.1393472152      19.0000000000
10668 2      15.6255400146      16.0000000000
10669 2      14.2197846773      19.0000000000
10670 2      14.7110836034      20.0000000000
10671 2      15.5847650146      19.0000000000
10672 2      14.6293741332      17.0000000000
10673 2      15.3253641749      13.0000000000
10674 2      15.9228762858      18.0000000000
10675 2      16.3766842712      20.0000000000
10676 2      17.8586672971      19.0000000000
10677 2      13.9297683652      16.0000000000
10678 2      15.2375538322      23.0000000000
10679 2      16.8164544554      20.0000000000
10680 2      14.3283442832      18.0000000000
10681 2      14.8579083737      15.0000000000
10682 2      15.0197586757      13.0000000000
10683 2      16.9234261347      19.0000000000
10684 2      16.5498288775      20.0000000000
10685 2      14.4013125043      17.0000000000
10686 2      14.2980469787      18.0000000000
10687 2      13.8260639959      19.0000000000
10688 2      14.7494994448      19.0000000000
10689 2      14.7172038621      14.0000000000
10690 2      15.0357540017      15.0000000000
10691 2      13.0318683504      17.0000000000
10692 2      15.6835572412      17.0000000000
10693 2      14.7974657061      18.0000000000
10694 2      13.6677260132      18.0000000000
10695 2      12.4994774238      15.0000000000
10696 2      15.0221906409      15.0000000000
10697 2      15.8661625800      18.0000000000
10698 2      13.6481599363      18.0000000000
10699 2      16.3915763874      21.0000000000
10700 2      13.0433357675      16.0000000000
10701 2      14.8926622347      20.0000000000
10702 2      13.0409119129      17.0000000000
10703 2      14.9635272858      21.0000000000
10704 2      13.4670935268      19.0000000000
10705 2      17.1936693878      18.0000000000
10706 2      14.9756504948      17.0000000000
10707 2      15.6288033009      21.0000000000
10708 2      14.6097799317      17.0000000000
10709 2      13.9982704644      18.0000000000
10710 2      16.1405892628      20.0000000000
10711 2      14.3044632358      20.0000000000
10712 2      15.1928765005      18.0000000000
10713 2      18.0496856423      21.0000000000
10714 2      16.7858760500      19.0000000000
10715 2      15.3016403654      17.0000000000
10716 2      14.2990456403      18.0000000000
10717 2      16.3428851788      17.0000000000
10718 2      17.9369678228      19.0000000000
10719 2      13.6298709098      17.0000000000
10720 2      12.7291379840      16.0000000000
10721 2      14.9422937373      20.0000000000
10722 2      16.1305911978      22.0000000000
10723 2      15.8865963916      21.0000000000
10724 2      13.8252720121      16.0000000000
10725 2      17.2473730746      21.0000000000
10726 2      15.0638567972      21.0000000000
10727 2      14.2007338075      17.0000000000
10728 2      13.1666904504      17.0000000000
10729 2      14.3865543305      20.0000000000
10730 2      13.6630640939      20.0000000000
10731 2      12.9523757530      14.0000000000
10732 2      17.5981564615      20.0000000000
10733 2      11.7755914329      19.0000000000
10734 2      13.7625312052      16.0000000000
10735 2      16.4137246797      20.0000000000
10736 2      15.7638187244      17.0000000000
10737 2      16.2189192798      21.0000000000
10738 2      15.4848426751      20.0000000000
10739 2      13.9894665420      17.0000000000
10740 2      16.3819090020      20.0000000000
10741 2      12.5652430113      16.0000000000
10742 2      15.5123226505      17.0000000000
10743 2      15.1645185489      20.0000000000
10744 2      17.1895311147      20.0000000000
10745 2      13.7516030373      16.0000000000
10746 2      15.1070978657      16.0000000000
10747 2      14.0805277736      19.0000000000
10748 2      15.2752408051      17.0000000000
10749 2      14.4644359994      18.0000000000
10750 2      14.4578059295      14.0000000000
10751 2      15.2516303933      19.0000000000
10752 2      14.8295928752      16.0000000000
10753 2      14.8330568417      20.0000000000
10754 2      16.2419197801      16.0000000000
10755 2      13.8399635101      18.0000000000
10756 2      16.1672669232      21.0000000000
10757 2      14.4730275198      18.0000000000
10758 2      15.8510866871      18.0000000000
10759 2      20.6291013322      20.0000000000
10760 2      12.9480640435      17.0000000000
10761 2      14.2608298677      18.0000000000
10762 2      15.3175047620      19.0000000000
10763 2      15.4014295586      19.0000000000
10764 2      11.2926681249      16.0000000000
10765 2      12.9248101994      15.0000000000
10766 2      13.4574845583      14.0000000000
10767 2      16.4191357722      19.0000000000
10768 2      13.9338189503      19.0000000000
10769 2      17.0867176354      18.0000000000
10770 2      13.2309772318      15.0000000000
10771 2      12.7439306984      17.0000000000
10772 2      16.1465997802      16.0000000000
10773 2      14.3965276146      15.0000000000
10774 2      17.1893429703      22.0000000000
10775 2      14.7396355363      18.0000000000
10776 2      13.3667798246      19.0000000000
10777 2      14.4849349589      14.0000000000
10778 2      16.5561794156      20.0000000000
10779 2      12.4447612939      16.0000000000
10780 2      16.5814563044      20.0000000000
10781 2      15.1097056803      15.0000000000
10782 2      13.3455530542      16.0000000000
10783 2      15.2539734088      19.0000000000
10784 2      13.8235040365      16.0000000000
10785 2      16.0213686929      20.0000000000
10786 2      18.0098517565      18.0000000000
10787 2      14.6369818672      21.0000000000
10788 2      14.1412215385      16.0000000000
10789 2      15.8102525337      22.0000000000
10790 2      16.6452071375      18.0000000000
10791 2      13.8287919471      19.0000000000
10792 2      13.4173934433      15.0000000000
10793 2      12.6927954913      15.0000000000
10794 2      14.6048551885      16.0000000000
10795 2      14.4225716755      20.0000000000
10796 2      14.3129395593      18.0000000000
10797 2      16.7083321330      16.0000000000
10798 2      13.1105866246      15.0000000000
10799 2      13.6194096294      19.0000000000
10800 2      15.0855016874      15.0000000000
10801 2      14.8597965385      16.0000000000
10802 2      15.5674296660      18.0000000000
10803 2      12.2044899885      14.0000000000
10804 2      13.9378157647      20.0000000000
10805 2      14.9052783408      17.0000000000
10806 2      13.4663543943      17.0000000000
10807 2      12.3615377475      15.0000000000
10808 2      17.6403329019      18.0000000000
10809 2      13.1301370000      14.0000000000
10810 2      16.3056275793      24.0000000000
10811 2      14.3501302123      17.0000000000
10812 2      14.1419746287      17.0000000000
10813 2      15.6249732439      19.0000000000
10814 2      12.2198698123      15.0000000000
10815 2      13.6546870699      17.0000000000
10816 2      15.8107889214      19.0000000000
10817 2      12.6231508191      16.0000000000
10818 2      15.6505798293      20.0000000000
10819 2      16.2807378404      19.0000000000
10820 2      20.2790897623      23.0000000000
10821 2      15.6133104904      17.0000000000
10822 2      17.6914677228      16.0000000000
10823 2      16.6880475738      19.0000000000
10824 2      13.6565478377      17.0000000000
10825 2      13.4849735942      19.0000000000
10826 2      13.0300723783      17.0000000000
10827 2      15.7227163919      18.0000000000
10828 2      20.9872393245      22.0000000000
10829 2      15.3220969335      21.0000000000
10830 2      15.7826219456      23.0000000000
10831 2      13.3745201542      17.0000000000
10832 2      17.0510444178      20.0000000000
10833 2      12.3984022924      14.0000000000
10834 2      18.0361271501      18.0000000000
10835 2      12.7478967127      20.0000000000
10836 2      13.9957544856      21.0000000000
10837 2      17.9998901600      19.0000000000
10838 2      16.0830077238      22.0000000000
10839 2      15.6487623117      17.0000000000
10840 2      17.2462836086      18.0000000000
10841 2      14.0593434243      18.0000000000
10842 2      11.8280503107      16.0000000000
10843 2      14.9127082659      18.0000000000
10844 2      14.8191794676      19.0000000000
10845 2      14.3592394971      17.0000000000
10846 2      15.9302372445      19.0000000000
10847 2      14.3441402107      15.0000000000
10848 2      15.3285200768      20.0000000000
10849 2      13.6675931742      19.0000000000
10850 2      15.6786559917      16.0000000000
10851 2      16.6363898624      20.0000000000
10852 2      14.7683630217      18.0000000000
10853 2      16.1419763236      21.0000000000
10854 2      14.4551775288      18.0000000000
10855 2      14.9623395580      19.0000000000
10856 2      13.5527513394      14.0000000000
10857 2      14.6930101490      20.0000000000
10858 2      13.5816204207      17.0000000000
10859 2      14.5868753537      17.0000000000
10860 2      14.6753428308      18.0000000000
10861 2      18.1832820723      25.0000000000
10862 2      14.3192323547      18.0000000000
10863 2      14.7463459781      20.0000000000
10864 2      13.2464960100      17.0000000000
10865 2      14.7617285905      19.0000000000
10866 2      14.3896751567      19.0000000000
10867 2      13.9650719266      16.0000000000
10868 2      11.3791136032      16.0000000000
10869 2      13.8413239177      17.0000000000
10870 2      16.1567145077      19.0000000000
10871 2      14.8549997532      17.0000000000
10872 2      12.8498278209      14.0000000000
10873 2      13.7713364905      13.0000000000
10874 2      14.1965031874      18.0000000000
10875 2      16.5552694115      20.0000000000
10876 2      14.8530149604      17.0000000000
10877 2      16.9115362929      18.0000000000
10878 2      15.7242908562      18.0000000000
10879 2      14.0873008597      15.0000000000
10880 2      16.4872239249      20.0000000000
10881 2      17.3679766626      19.0000000000
10882 2      15.6741136080      19.0000000000
10883 2      13.5566937770      15.0000000000
10884 2      13.2024376336      19.0000000000
10885 2      13.7733140891      16.0000000000
10886 2      13.9307657304      21.0000000000
10887 2      15.1739415788      19.0000000000
10888 2      12.9532270432      16.0000000000
10889 2      14.0196761012      18.0000000000
10890 2      15.2532081005      17.0000000000
10891 2      12.9954121264      16.0000000000
10892 2      15.9997653041      18.0000000000
10893 2      14.1662181207      17.0000000000
10894 2      17.3681568996      22.0000000000
10895 2      15.8685905874      20.0000000000
10896 2      15.5926042307      22.0000000000
10897 2      12.9815321416      18.0000000000
10898 2      15.3323100374      18.0000000000
10899 2      14.0925795138      14.0000000000
10900 2      16.3561865200      17.0000000000
10901 2      14.9691291737      18.0000000000
10902 2      14.3701001257      16.0000000000
10903 2      13.9062824433      18.0000000000
10904 2      16.6234554178      23.0000000000
10905 2      13.1123588863      14.0000000000
10906 2      17.0994992302      22.0000000000
10907 2      16.6029702863      20.0000000000
10908 2      14.9317543095      17.0000000000
10909 2      12.6433745761      12.0000000000
10910 2      16.8429674392      16.0000000000
10911 2      14.8385443991      19.0000000000
10912 2      14.5087470955      18.0000000000
10913 2      14.6816365320      20.0000000000
10914 2      13.5005678466      17.0000000000
10915 2      14.8792577630      20.0000000000
10916 2      19.4151948752      24.0000000000
10917 2      14.9477378403      16.0000000000
10918 2      16.3441142948      17.0000000000
10919 2      14.8674643043      19.0000000000
10920 2      16.0709348911      18.0000000000
10921 2      14.3070531942      15.0000000000
10922 2      14.5093772263      17.0000000000
10923 2      14.4783825327      21.0000000000
10924 2      14.9378601416      19.0000000000
10925 2      13.9420471806      19.0000000000
10926 2      15.2637787327      23.0000000000
10927 2      14.4296497976      18.0000000000
10928 2      16.1236393078      19.0000000000
10929 2      15.6721073998      24.0000000000
10930 2      15.4092375094      17.0000000000
10931 2      16.1216077014      18.0000000000
10932 2      12.5949918011      18.0000000000
10933 2      16.7482252547      19.0000000000
10934 2      14.6727086241      18.0000000000
10935 2      12.0303167183      18.0000000000
10936 2      18.6262966887      22.0000000000
10937 2      16.2139236181      17.0000000000
10938 2      14.5363512294      18.0000000000
10939 2      19.4592760737      24.0000000000
10940 2      18.4966718749      19.0000000000
10941 2      16.8408232696      22.0000000000
10942 2      13.3274599477      20.0000000000
10943 2      15.4783025081      18.0000000000
10944 2      18.1861973986      24.0000000000
10945 2      17.1778460902      18.0000000000
10946 2      14.3979112468      18.0000000000
10947 2      16.7971192055      19.0000000000
10948 2      12.4602323351      17.0000000000
10949 2      16.7836962039      20.0000000000
10950 2      14.8826198416      17.0000000000
10951 2      14.7976380715      16.0000000000
10952 2      14.2897859787      17.0000000000
10953 2      14.8038784890      20.0000000000
10954 2      13.5695581602      17.0000000000
10955 2      16.2872713940      22.0000000000
10956 2      13.8967893283      15.0000000000
10957 2      13.3305763481      17.0000000000
10958 2      17.7633894689      20.0000000000
10959 2      13.6828064114      17.0000000000
10960 2      16.5443795530      19.0000000000
10961 2      12.0564410293      15.0000000000
10962 2      15.6085414750      17.0000000000
10963 2      13.1037442693      20.0000000000
10964 2      15.9871836514      19.0000000000
10965 2      16.4759017362      17.0000000000
10966 2      14.9670073467      16.0000000000
10967 2      17.2668370720      19.0000000000
10968 2      15.3932196255      21.0000000000
10969 2      15.7098619335      15.0000000000
10970 2      13.8274077961      17.0000000000
10971 2      17.3054024487      18.0000000000
10972 2      16.1699097962      19.0000000000
10973 2      15.3044932078      18.0000000000
10974 2      14.9403534066      16.0000000000
10975 2      15.2003817477      14.0000000000
10976 2      13.9859186601      16.0000000000
10977 2      14.1195958531      17.0000000000
10978 2      13.9521444422      19.0000000000
10979 2      14.1399703524      18.0000000000
10980 2      13.7186096437      17.0000000000
10981 2      18.6394801849      22.0000000000
10982 2      16.0736676867      21.0000000000
10983 2      15.3677489167      17.0000000000
10984 2      14.5383702858      18.0000000000
10985 2      13.1665095598      18.0000000000
10986 2      18.0807802260      21.0000000000
10987 2      15.0680794823      14.0000000000
10988 2      17.3543346533      18.0000000000
10989 2      11.5242403064      17.0000000000
10990 2      14.5070716566      15.0000000000
10991 2      14.5607257552      20.0000000000
10992 2      15.1782550296      17.0000000000
10993 2      16.3996357090      19.0000000000
10994 2      13.1311940590      16.0000000000
10995 2      13.6299697580      20.0000000000
10996 2      13.8633292834      17.0000000000
10997 2      17.7920621396      18.0000000000
10998 2      15.1343483640      15.0000000000
10999 2      18.0463940014      21.0000000000
11000 2      15.6403826275      18.0000000000
11001 2      14.3755864387      18.0000000000
11002 2      13.4111048072      18.0000000000
11003 2      17.0026577862      17.0000000000
11004 2      15.3210525838      21.0000000000
11005 2      16.4861087651      18.0000000000
11006 2      15.6000412086      21.0000000000
11007 2      15.9886144075      19.0000000000
11008 2      13.9229900086      16.0000000000
11009 2      14.3726664536      17.0000000000
11010 2      17.7453964620      22.0000000000
11011 2      16.7003419704      21.0000000000
11012 2      17.0792330236      22.0000000000
11013 2      15.3011366027      18.0000000000
11014 2      13.7105122498      16.0000000000
11015 2      15.0455688249      16.0000000000
11016 2      14.1632565923      19.0000000000
11017 2      15.4000850649      20.0000000000
11018 2      12.5727908309      16.0000000000
11019 2      13.3941404667      13.0000000000
11020 2      18.3368963428      14.0000000000
11021 2      13.6952816792      15.0000000000
11022 2      16.1306854628      19.0000000000
11023 2      16.8847433174      19.0000000000
11024 2      12.3952780760      16.0000000000
11025 2      15.1672292229      16.0000000000
11026 2      18.1435089904      19.0000000000
11027 2      16.5361766844      16.0000000000
11028 2      14.6551327505      14.0000000000
11029 2      16.7698434454      20.0000000000
11030 2      13.9107507880      17.0000000000
11031 2      17.2518587845      21.0000000000
11032 2      16.7910630042      20.0000000000
11033 2      15.6226468443      20.0000000000
11034 2      14.1936763803      17.0000000000
11035 2      16.4569074402      18.0000000000
11036 2      15.8554116709      24.0000000000
11037 2      15.4391231032      15.0000000000
11038 2      14.4573097805      18.0000000000
11039 2      14.7639707532      15.0000000000
11040 2      15.8040855060      23.0000000000
11041 2      15.1324814539      20.0000000000
11042 2      16.6771478803      19.0000000000
11043 2      14.9721084266      20.0000000000
11044 2      11.9885487838      15.0000000000
11045 2      13.6362731586      18.0000000000
11046 2      15.8665854501      18.0000000000
11047 2      16.3768080397      19.0000000000
11048 2      17.0736139125      20.0000000000
11049 2      13.9926209692      16.0000000000
11050 2      19.6609363209      19.0000000000
11051 2      12.9649842303      19.0000000000
11052 2      13.0457191794      14.0000000000
11053 2      13.2047429095      19.0000000000
11054 2      16.9569715249      21.0000000000
11055 2      18.2676004677      21.0000000000
11056 2      14.8787389090      21.0000000000
11057 2      14.5923154720      19.0000000000
11058 2      19.7537278218      25.0000000000
11059 2      16.2687311120      22.0000000000
11060 2      13.6878252117      16.0000000000
11061 2      14.0397267429      19.0000000000
11062 2      19.3629644707      19.0000000000
11063 2      12.4190774997      15.0000000000
11064 2      14.8371432561      18.0000000000
11065 2      12.8071322158      18.0000000000
11066 2      14.4353101618      19.0000000000
11067 2      18.2638101360      19.0000000000
11068 2      14.1080520259      19.0000000000
11069 2      14.0019384708      22.0000000000
11070 2      14.0446502406      15.0000000000
11071 2      14.8715712623      17.0000000000
11072 2      14.5630282371      21.0000000000
11073 2      15.8529707276      23.0000000000
11074 2      13.2634080156      17.0000000000
11075 2      12.4407158656      16.0000000000
11076 2      15.9994074554      16.0000000000
11077 2      14.8712434743      17.0000000000
11078 2      13.6486153804      18.0000000000
11079 2      16.2584256100      19.0000000000
11080 2      14.1450918947      17.0000000000
11081 2      15.1911135239      17.0000000000
11082 2      15.9712332314      19.0000000000
11083 2      14.6825038401      20.0000000000
11084 2      16.5578253356      18.0000000000
11085 2      14.2915555277      16.0000000000
11086 2      14.5775503725      16.0000000000
11087 2      14.4664131011      19.0000000000
11088 2      16.6448987993      20.0000000000
11089 2      14.0646720247      17.0000000000
11090 2      16.9234511688      22.0000000000
11091 2      17.0528374236      19.0000000000
11092 2      16.6687729085      14.0000000000
11093 2      13.5129108943      13.0000000000
11094 2      12.6674098011      13.0000000000
11095 2      15.4461351692      17.0000000000
11096 2      14.9492622436      18.0000000000
11097 2      13.2535179635      18.0000000000
11098 2      13.5159949888      15.0000000000
11099 2      13.6480981494      14.0000000000
11100 2      14.2565921977      14.0000000000
11101 2      14.6433594817      16.0000000000
11102 2      13.1833206952      14.0000000000
11103 2      13.9368477521      17.0000000000
11104 2      14.7774661297      18.0000000000
11105 2      15.8933058655      15.0000000000
11106 2      14.9248461429      18.0000000000
11107 2      16.4457505497      19.0000000000
11108 2      13.9423552344      17.0000000000
11109 2      13.7829421722      17.0000000000
11110 2      12.2479555394      14.0000000000
11111 2      17.4013488292      20.0000000000
11112 2      13.7345041729      15.0000000000
11113 2      14.8425811259      22.0000000000
11114 2      15.7739763862      18.0000000000
11115 2      14.2556619039      21.0000000000
11116 2      13.3637631235      18.0000000000
11117 2      14.4238168506      17.0000000000
11118 2      13.8398439721      15.0000000000
11119 2      14.5614089022      17.0000000000
11120 2      15.3989907936      17.0000000000
11121 2      13.8466566105      19.0000000000
11122 2      15.2665062731      17.0000000000
11123 2      14.2113668901      22.0000000000
11124 2      17.7434798553      22.0000000000
11125 2      16.4562067654      15.0000000000
11126 2      13.6323229990      17.0000000000
11127 2      21.1473545263      21.0000000000
11128 2      16.8024164743      21.0000000000
11129 2      14.9619631730      19.0000000000
11130 2      16.2829367675      20.0000000000
11131 2      15.4032945284      21.0000000000
11132 2      14.4888718541      16.0000000000
11133 2      14.8414763300      16.0000000000
11134 2      16.2807562992      16.0000000000
11135 2      14.5313557093      18.0000000000
11136 2      16.4749235249      19.0000000000
11137 2      19.6765075521      23.0000000000
11138 2      13.9350948388      15.0000000000
11139 2      14.3185439862      16.0000000000
11140 2      12.9952254512      19.0000000000
11141 2      14.5213376865      17.0000000000
11142 2      15.9492016031      20.0000000000
11143 2      17.4188830325      21.0000000000
11144 2      14.2623642415      18.0000000000
11145 2      17.0946919784      17.0000000000
11146 2      14.3246156909      14.0000000000
11147 2      13.8292716739      15.0000000000
11148 2      14.6565452064      15.0000000000
11149 2      13.9181724846      17.0000000000
11150 2      14.9395942346      16.0000000000
11151 2      17.8131993957      20.0000000000
11152 2      16.6883957279      15.0000000000
11153 2      15.1381654292      18.0000000000
11154 2      17.0724144128      22.0000000000
11155 2      16.2057468353      19.0000000000
11156 2      12.8893917271      17.0000000000
11157 2      12.6254684904      16.0000000000
11158 2      14.5920854532      17.0000000000
11159 2      13.6091607733      17.0000000000
11160 2      12.5091779594      17.0000000000
11161 2      14.1664285407      19.0000000000
11162 2      14.4938744103      17.0000000000
11163 2      14.3960758496      17.0000000000
11164 2      14.2136336132      14.0000000000
11165 2      12.6305784561      17.0000000000
11166 2      16.6734210839      18.0000000000
11167 2      13.9616100166      16.0000000000
11168 2      14.7537928700      19.0000000000
11169 2      16.8697073085      16.0000000000
11170 2      11.6785658458      14.0000000000
11171 2      13.8525050187      15.0000000000
11172 2      13.8494180789      18.0000000000
11173 2      16.6207436188      19.0000000000
11174 2      14.6012226857      15.0000000000
11175 2      17.1086056038      20.0000000000
11176 2      13.6495514103      17.0000000000
11177 2      15.6198568540      17.0000000000
11178 2      15.1644898310      18.0000000000
11179 2      15.0522763110      22.0000000000
11180 2      15.1672575519      17.0000000000
11181 2      13.4227982463      20.0000000000
11182 2      14.9385092476      17.0000000000
11183 2      15.0365616559      16.0000000000
11184 2      12.8599460540      19.0000000000
11185 2      16.3775135865      19.0000000000
11186 2      15.5702194053      18.0000000000
11187 2      14.9341138921      20.0000000000
11188 2      15.0064658248      19.0000000000
11189 2      13.8538516363      16.0000000000
11190 2      16.0797789464      19.0000000000
11191 2      11.9745111992      17.0000000000
11192 2      15.1722135500      18.0000000000
11193 2      16.0016938528      17.0000000000
11194 2      15.4720594628      15.0000000000
11195 2      15.3565758263      20.0000000000
11196 2      16.9304914055      18.0000000000
11197 2      13.0975329578      15.0000000000
11198 2      14.1699212119      20.0000000000
11199 2      13.8297211228      19.0000000000
11200 2      14.1635012002      17.0000000000
11201 2      13.0041135919      17.0000000000
11202 2      16.7655127704      21.0000000000
11203 2      15.6657365453      18.0000000000
11204 2      13.7795951420      15.0000000000
11205 2      14.1972733638      16.0000000000
11206 2      13.7891066386      17.0000000000
11207 2      14.2600438855      17.0000000000
11208 2      14.7157097740      17.0000000000
11209 2      13.9239346128      16.0000000000
11210 2      14.3974808096      16.0000000000
11211 2      13.7100942208      18.0000000000
11212 2      13.5882431354      14.0000000000
11213 2      14.2534626617      16.0000000000
11214 2      13.7844400518      17.0000000000
11215 2      15.5975651342      17.0000000000
11216 2      16.4299507326      20.0000000000
11217 2      15.2871173857      20.0000000000
11218 2      15.7141088392      18.0000000000
11219 2      12.4831685799      16.0000000000
11220 2      11.5805831689      16.0000000000
11221 2      14.3831664754      20.0000000000
11222 2      18.0747012836      19.0000000000
11223 2      14.2505919840      16.0000000000
11224 2      14.9051341704      18.0000000000
11225 2      15.6400809298      17.0000000000
11226 2      15.0370104162      19.0000000000
11227 2      16.4106984407      20.0000000000
11228 2      17.6190455067      22.0000000000
11229 2      14.7936898110      20.0000000000
11230 2      17.7923625222      18.0000000000
11231 2      14.7188969328      21.0000000000
11232 2      14.0286327161      19.0000000000
11233 2      18.0813087396      19.0000000000
11234 2      14.5641265011      22.0000000000
11235 2      13.8629486314      19.0000000000
11236 2      16.1231542644      18.0000000000
11237 2      13.9816917867      21.0000000000
11238 2      15.0358708445      18.0000000000
11239 2      11.7384825156      14.0000000000
11240 2      14.1068040248      19.0000000000
11241 2      15.8598081275      19.0000000000
11242 2      14.1051868822      18.0000000000
11243 2      15.6147605529      19.0000000000
11244 2      15.0266439326      19.0000000000
11245 2      11.4358218361      15.0000000000
11246 2      12.4210162251      15.0000000000
11247 2      14.6568375119      21.0000000000
11248 2      15.7266450495      18.0000000000
11249 2      15.1986874633      20.0000000000
11250 2      13.7849841247      16.0000000000
11251 2      14.9322791317      19.0000000000
11252 2      17.3352277303      21.0000000000
11253 2      12.1158053805      17.0000000000
11254 2      14.9214909208      18.0000000000
11255 2      17.2630954979      20.0000000000
11256 2      15.2840855054      17.0000000000
11257 2      15.5334155887      18.0000000000
11258 2      16.5132786304      19.0000000000
11259 2      16.2491484348      20.0000000000
11260 2      15.0587707010      19.0000000000
11261 2      15.9761451398      18.0000000000
11262 2      13.1319463277      16.0000000000
11263 2      14.3652741561      22.0000000000
11264 2      16.4509374237      19.0000000000
11265 2      15.8326348202      19.0000000000
11266 2      14.3490544032      17.0000000000
11267 2      16.9300465979      20.0000000000
11268 2      12.7351595219      17.0000000000
11269 2      15.4762407178      18.0000000000
11270 2      14.8269975967      18.0000000000
11271 2      17.2171574828      23.0000000000
11272 2      12.2015835990      17.0000000000
11273 2      15.4892264287      20.0000000000
11274 2      16.3909021052      22.0000000000
11275 2      16.2801262636      17.0000000000
11276 2      14.2392273772      18.0000000000
11277 2      15.3232080738      16.0000000000
11278 2      16.9519933277      19.0000000000
11279 2      16.5872226605      20.0000000000
11280 2      13.2170291493      14.0000000000
11281 2      16.7822258581      19.0000000000
11282 2      21.8959334565      24.0000000000
11283 2      14.9846625844      16.0000000000
11284 2      14.9224271664      16.0000000000
11285 2      16.0346446670      19.0000000000
11286 2      13.4148388154      15.0000000000
11287 2      12.6157464833      14.0000000000
11288 2      14.6738877139      18.0000000000
11289 2      15.5240480150      21.0000000000
11290 2      16.0510212276      18.0000000000
11291 2      16.1556884269      17.0000000000
11292 2      16.2788988694      17.0000000000
11293 2      16.1648404873      15.0000000000
11294 2      12.8684395015      19.0000000000
11295 2      16.2808755437      19.0000000000
11296 2      17.3980407642      22.0000000000
11297 2      14.6546802370      19.0000000000
11298 2      15.9823650885      25.0000000000
11299 2      13.7899429451      16.0000000000
11300 2      14.6539330273      17.0000000000
11301 2      14.4535719693      15.0000000000
11302 2      16.5509421243      21.0000000000
11303 2      16.7892244098      22.0000000000
11304 2      13.5098344482      15.0000000000
11305 2      15.2989122503      18.0000000000
11306 2      17.4061410196      19.0000000000
11307 2      13.3634343628      15.0000000000
11308 2      13.4082858792      19.0000000000
11309 2      16.9894741588      20.0000000000
11310 2      14.7868203190      15.0000000000
11311 2      16.7830100756      19.0000000000
11312 2      15.6445682991      17.0000000000
11313 2      15.3749589040      16.0000000000
11314 2      14.9098571983      15.0000000000
11315 2      15.2553591132      16.0000000000
11316 2      16.5864642923      20.0000000000
11317 2      11.0473972157      13.0000000000
11318 2      12.7442050610      16.0000000000
11319 2      14.1295148661      18.0000000000
11320 2      14.8949990954      18.0000000000
11321 2      16.4532680631      21.0000000000
11322 2      14.2657344422      20.0000000000
11323 2      15.8590365546      20.0000000000
11324 2      14.8137610923      16.0000000000
11325 2      17.4443800285      20.0000000000
11326 2      14.7911313893      18.0000000000
11327 2      15.1531727629      21.0000000000
11328 2      15.6930948345      17.0000000000
11329 2      15.3428660275      18.0000000000
11330 2      15.0346330448      17.0000000000
11331 2      16.8115731440      18.0000000000
11332 2      15.3198548952      17.0000000000
11333 2      14.1223919816      18.0000000000
11334 2      15.3832059665      18.0000000000
11335 2      14.7824511021      17.0000000000
11336 2      17.0196873994      21.0000000000
11337 2      16.2730501135      20.0000000000
11338 2      14.4590852077      18.0000000000
11339 2      15.1589069392      17.0000000000
11340 2      12.3204839140      15.0000000000
11341 2      16.5336385309      22.0000000000
11342 2      16.0849029077      22.0000000000
11343 2      16.2532002665      20.0000000000
11344 2      15.5082432891      17.0000000000
11345 2      14.2303117246      21.0000000000
11346 2      14.1370071782      20.0000000000
11347 2      15.9001466170      20.0000000000
11348 2      13.4693276615      19.0000000000
11349 2      13.7467929361      15.0000000000
11350 2      14.2455018003      16.0000000000
11351 2      17.3997926438      20.0000000000
11352 2      13.7421012765      19.0000000000
11353 2      14.9662282448      17.0000000000
11354 2      17.3663590695      20.0000000000
11355 2      16.0430250243      16.0000000000
11356 2      16.3223470081      18.0000000000
11357 2      18.7692144405      18.0000000000
11358 2      15.1566372676      19.0000000000
11359 2      15.3286889806      17.0000000000
11360 2      14.2593558535      19.0000000000
11361 2      17.4302079262      18.0000000000
11362 2      12.7102667655      16.0000000000
11363 2      15.5693970584      21.0000000000
11364 2      12.4302843259      16.0000000000
11365 2      13.5872572415      17.0000000000
11366 2      16.6004206969      22.0000000000
11367 2      12.4314590991      15.0000000000
11368 2      16.2445724499      18.0000000000
11369 2      15.2673014429      18.0000000000
11370 2      16.2042690105      21.0000000000
11371 2      14.5807763397      15.0000000000
11372 2      14.4818675717      20.0000000000
11373 2      13.9534047878      19.0000000000
11374 2      11.9826568092      17.0000000000
11375 2      13.0038032206      15.0000000000
11376 2      17.6491250496      19.0000000000
11377 2      12.5170709576      16.0000000000
11378 2      15.4755013471      18.0000000000
11379 2      16.5893995002      22.0000000000
11380 2      15.3447989366      19.0000000000
11381 2      16.2775641130      22.0000000000
11382 2      16.4120056161      20.0000000000
11383 2      14.9308239833      21.0000000000
11384 2      15.2192676654      17.0000000000
11385 2      16.3351774092      18.0000000000
11386 2      15.0337791421      19.0000000000
11387 2      13.5427516951      18.0000000000
11388 2      12.8512190878      22.0000000000
11389 2      13.5385650410      17.0000000000
11390 2      14.6748599523      19.0000000000
11391 2      16.2882745296      21.0000000000
11392 2      15.0708837152      18.0000000000
11393 2      18.2236987386      23.0000000000
11394 2      13.2531068500      14.0000000000
11395 2      13.6128663076      19.0000000000
11396 2      15.6939198967      20.0000000000
11397 2      14.9839447191      19.0000000000
11398 2      13.0555762569      15.0000000000
11399 2      16.3763852043      17.0000000000
11400 2      14.4084662227      19.0000000000
11401 2      17.0759268150      19.0000000000
11402 2      19.9915788229      22.0000000000
11403 2      13.2000656288      16.0000000000
11404 2      14.1181817441      16.0000000000
11405 2      16.1116971215      20.0000000000
11406 2      19.1182663449      23.0000000000
11407 2      14.9695620510      18.0000000000
11408 2      14.7241548483      18.0000000000
11409 2      18.0990846459      18.0000000000
11410 2      15.4860170867      19.0000000000
11411 2      14.6033178871      17.0000000000
11412 2      15.1586754828      17.0000000000
11413 2      18.8360746539      18.0000000000
11414 2      15.9477758405      17.0000000000
11415 2      17.7449797677      20.0000000000
11416 2      15.7136319136      20.0000000000
11417 2      15.4970448642      17.0000000000
11418 2      14.5894599905      18.0000000000
11419 2      15.4564972649      17.0000000000
11420 2      15.4200445062      20.0000000000
11421 2      12.7117196501      16.0000000000
11422 2      15.2954644982      15.0000000000
11423 2      14.8756078533      17.0000000000
11424 2      16.4514136590      20.0000000000
11425 2      13.5688416521      15.0000000000
11426 2      16.1783759588      24.0000000000
11427 2      14.5196123176      16.0000000000
11428 2      15.7844829572      21.0000000000
11429 2      15.9228395288      21.0000000000
11430 2      13.6149128178      20.0000000000
11431 2      15.8638001876      19.0000000000
11432 2      17.1914805021      19.0000000000
11433 2      15.4242506347      17.0000000000
11434 2      21.7002472137      23.0000000000
11435 2      15.9042503236      16.0000000000
11436 2      12.6985896736      16.0000000000
11437 2      15.0706625619      16.0000000000
11438 2      16.9073824182      22.0000000000
11439 2      15.6293400953      15.0000000000
11440 2      15.5643365395      20.0000000000
11441 2      14.1767760158      21.0000000000
11442 2      16.1372997805      17.0000000000
11443 2      13.0649966650      15.0000000000
11444 2      14.4136657646      20.0000000000
11445 2      13.9583904950      17.0000000000
11446 2      15.6499016152      18.0000000000
11447 2      14.1611729145      18.0000000000
11448 2      13.1206864176      19.0000000000
11449 2      16.4887916235      18.0000000000
11450 2      14.6031963924      19.0000000000
11451 2      16.7198877835      18.0000000000
11452 2      15.9167565217      21.0000000000
11453 2      12.9149722206      19.0000000000
11454 2      14.2767265027      18.0000000000
11455 2      15.1292110821      19.0000000000
11456 2      15.8487151342      19.0000000000
11457 2      15.6113906540      19.0000000000
11458 2      14.1921399713      19.0000000000
11459 2      15.0416285806      18.0000000000
11460 2      15.0022542111      21.0000000000
11461 2      18.0897453180      20.0000000000
11462 2      14.8055233928      18.0000000000
11463 2      18.3180457479      23.0000000000
11464 2      14.3268488064      17.0000000000
11465 2      12.9053919119      15.0000000000
11466 2      15.6669544005      18.0000000000
11467 2      16.7684845974      20.0000000000
11468 2      14.6641234527      18.0000000000
11469 2      13.8684004316      15.0000000000
11470 2      14.7730559811      14.0000000000
11471 2      15.5257834166      21.0000000000
11472 2      14.9951378031      14.0000000000
11473 2      15.1156971768      17.0000000000
11474 2      15.0988502246      16.0000000000
11475 2      14.1606831124      15.0000000000
11476 2      18.4315849993      19.0000000000
11477 2      15.8480374442      18.0000000000
11478 2      14.7243506810      12.0000000000
11479 2      13.5746674916      15.0000000000
11480 2      16.2000406762      18.0000000000
11481 2      13.4432814164      23.0000000000
11482 2      15.9792358607      14.0000000000
11483 2      16.7291787215      17.0000000000
11484 2      11.8747466081      17.0000000000
11485 2      14.4729488713      17.0000000000
11486 2      16.3370090720      20.0000000000
11487 2      14.0467949716      18.0000000000
11488 2      15.7207975107      18.0000000000
11489 2      14.5472438403      15.0000000000
11490 2      14.4622272849      18.0000000000
11491 2      16.8851875580      22.0000000000
11492 2      15.6226107880      21.0000000000
11493 2      15.5575317335      18.0000000000
11494 2      11.7800900196      15.0000000000
11495 2      15.8109808391      20.0000000000
11496 2      16.5346339767      21.0000000000
11497 2      15.9270109095      21.0000000000
11498 2      16.8207283438      23.0000000000
11499 2      15.0896677103      22.0000000000
11500 2      17.7166505783      20.0000000000
11501 2      16.0516023799      24.0000000000
11502 2      17.5599509557      18.0000000000
11503 2      15.1594592828      17.0000000000
11504 2      13.3199812314      17.0000000000
11505 2      14.2986650024      19.0000000000
11506 2      15.6503489833      19.0000000000
11507 2      12.7219675031      15.0000000000
11508 2      12.4915419951      16.0000000000
11509 2      15.6873077121      21.0000000000
11510 2      16.3823891668      19.0000000000
11511 2      13.0652961933      17.0000000000
11512 2      19.9404982928      21.0000000000
11513 2      13.8541702123      13.0000000000
11514 2      17.3471886875      17.0000000000
11515 2      13.8033643747      17.0000000000
11516 2      14.9835062323      20.0000000000
11517 2      13.1493080421      18.0000000000
11518 2      16.3759982992      19.0000000000
11519 2      13.6679776503      18.0000000000
11520 2      15.4808058693      19.0000000000
11521 2      13.0838005483      18.0000000000
11522 2      16.5212553083      22.0000000000
11523 2      13.0402045909      16.0000000000
11524 2      16.3131427138      21.0000000000
11525 2      11.0720670292      16.0000000000
11526 2      16.2306969530      21.0000000000
11527 2      16.3611861860      20.0000000000
11528 2      12.4078974861      16.0000000000
11529 2      13.7920482161      18.0000000000
11530 2      16.7588931892      19.0000000000
11531 2      16.2890645446      22.0000000000
11532 2      14.7897150134      18.0000000000
11533 2      13.3640873833      16.0000000000
11534 2      13.5408681422      17.0000000000
11535 2      16.8856224446      21.0000000000
11536 2      16.4216382634      19.0000000000
11537 2      15.8289066849      16.0000000000
11538 2      13.2655316700      15.0000000000
11539 2      12.2006203237      16.0000000000
11540 2      16.8265723668      21.0000000000
11541 2      14.2880516022      19.0000000000
11542 2      14.4413023422      18.0000000000
11543 2      14.8337683497      20.0000000000
11544 2      14.1911471858      16.0000000000
11545 2      16.1232054418      18.0000000000
11546 2      14.9728404039      14.0000000000
11547 2      17.0501503639      18.0000000000
11548 2      14.8854374200      16.0000000000
11549 2      13.7774104363      16.0000000000
11550 2      14.7596127218      18.0000000000
11551 2      15.5073275189      18.0000000000
11552 2      13.2171700399      20.0000000000
11553 2      16.1319827299      24.0000000000
11554 2      15.3417315386      20.0000000000
11555 2      13.5436828124      15.0000000000
11556 2      18.4497394407      18.0000000000
11557 2      13.4781984511      22.0000000000
11558 2      14.5346988273      15.0000000000
11559 2      16.8926942958      16.0000000000
11560 2      12.6442167980      19.0000000000
11561 2      15.6585684601      22.0000000000
11562 2      14.3243773113      18.0000000000
11563 2      15.7398403173      19.0000000000
11564 2      14.6119572893      20.0000000000
11565 2      14.6853586741      18.0000000000
11566 2      14.7398152419      17.0000000000
11567 2      15.5018239919      18.0000000000
11568 2      15.3836225608      20.0000000000
11569 2      14.0506144502      16.0000000000
11570 2      14.1970726660      19.0000000000
11571 2      13.2956744081      15.0000000000
11572 2      14.8317565187      17.0000000000
11573 2      15.1580728135      16.0000000000
11574 2      13.6688134934      16.0000000000
11575 2      15.7904678805      19.0000000000
11576 2      16.2896753745      20.0000000000
11577 2      16.2128500140      17.0000000000
11578 2      17.5899794596      19.0000000000
11579 2      16.0859383520      22.0000000000
11580 2      15.4471642075      18.0000000000
11581 2      14.3860555012      17.0000000000
11582 2      17.6063546605      17.0000000000
11583 2      14.8489442430      17.0000000000
11584 2      12.5998835930      16.0000000000
11585 2      15.9231385086      20.0000000000
11586 2      14.7180118384      17.0000000000
11587 2      15.5504265654      19.0000000000
11588 2      14.9485083577      18.0000000000
11589 2      17.5561570881      22.0000000000
11590 2      13.2414721716      15.0000000000
11591 2      11.3109911809      17.0000000000
11592 2      17.4672683088      18.0000000000
11593 2      15.7883554961      20.0000000000
11594 2      15.2418516656      18.0000000000
11595 2      15.2236358121      21.0000000000
11596 2      13.8593294047      17.0000000000
11597 2      12.9968964743      18.0000000000
11598 2      14.3647003078      17.0000000000
11599 2      16.1620638081      17.0000000000
11600 2      14.5419873298      20.0000000000
11601 2      11.6939171643      18.0000000000
11602 2      13.6080414510      19.0000000000
11603 2      13.2921863865      21.0000000000
11604 2      13.0098422776      17.0000000000
11605 2      14.7342957141      18.0000000000
11606 2      15.4922742277      22.0000000000
11607 2      14.2547244942      16.0000000000
11608 2      14.5015711134      15.0000000000
11609 2      13.9221447526      17.0000000000
11610 2      15.4879136979      15.0000000000
11611 2      15.3353477443      17.0000000000
11612 2      17.5541328856      18.0000000000
11613 2      14.4594755031      19.0000000000
11614 2      15.8417788917      18.0000000000
11615 2      14.5806900721      17.0000000000
11616 2      15.4488730385      19.0000000000
11617 2      12.9965594345      18.0000000000
11618 2      13.0234430978      15.0000000000
11619 2      16.1039218943      18.0000000000
11620 2      14.0694793642      18.0000000000
11621 2      15.1738895059      17.0000000000
11622 2      14.1403065981      18.0000000000
11623 2      19.2234120708      20.0000000000
11624 2      12.5536628862      14.0000000000
11625 2      15.3028684344      19.0000000000
11626 2      15.0819279071      21.0000000000
11627 2      16.5360350695      21.0000000000
11628 2      14.0344658191      17.0000000000
11629 2      13.8008914446      16.0000000000
11630 2      15.2907264068      18.0000000000
11631 2      15.0109076762      19.0000000000
11632 2      18.9174917195      17.0000000000
11633 2      14.2091261962      17.0000000000
11634 2      13.2421583870      13.0000000000
11635 2      14.2891210633      17.0000000000
11636 2      14.8400669661      17.0000000000
11637 2      15.8222734741      19.0000000000
11638 2      14.1259190502      15.0000000000
11639 2      15.7529273853      20.0000000000
11640 2      15.5163940775      14.0000000000
11641 2      16.3923213967      17.0000000000
11642 2      17.0608241892      16.0000000000
11643 2      17.1784008779      20.0000000000
11644 2      17.3927286526      21.0000000000
11645 2      15.7484521596      21.0000000000
11646 2      17.1581759680      23.0000000000
11647 2      13.6153270407      15.0000000000
11648 2      16.5748889237      18.0000000000
11649 2      14.9640571879      16.0000000000
11650 2      13.9019671017      20.0000000000
11651 2      16.5962728585      19.0000000000
11652 2      15.1522756283      19.0000000000
11653 2      14.9776917086      16.0000000000
11654 2      18.2067186192      15.0000000000
11655 2      14.7882861884      18.0000000000
11656 2      13.7610999243      17.0000000000
11657 2      13.7436219453      16.0000000000
11658 2      17.8079464440      20.0000000000
11659 2      14.5679256008      19.0000000000
11660 2      15.2504432641      16.0000000000
11661 2      17.3522716780      19.0000000000
11662 2      14.9473517739      18.0000000000
11663 2      15.7876905084      19.0000000000
11664 2      14.3778796468      16.0000000000
11665 2      15.0578200439      18.0000000000
11666 2      13.7495489297      18.0000000000
11667 2      13.4344356335      16.0000000000
11668 2      12.8307619480      15.0000000000
11669 2      12.8488988165      17.0000000000
11670 2      14.6064121678      19.0000000000
11671 2      14.1102566534      17.0000000000
11672 2      15.3990179557      17.0000000000
11673 2      13.1957899907      14.0000000000
11674 2      17.1605389321      20.0000000000
11675 2      15.5536712362      16.0000000000
11676 2      12.9848510456      16.0000000000
11677 2      14.8744523974      16.0000000000
11678 2      15.6936646758      18.0000000000
11679 2      12.9342276713      16.0000000000
11680 2      14.8224092049      16.0000000000
11681 2      15.0417843142      20.0000000000
11682 2      15.6640918316      16.0000000000
11683 2      15.7934987364      19.0000000000
11684 2      16.4725199339      18.0000000000
11685 2      15.0032512725      16.0000000000
11686 2      13.6292724435      15.0000000000
11687 2      15.6550296418      17.0000000000
11688 2      14.4819337761      17.0000000000
11689 2      17.7321833404      18.0000000000
11690 2      13.6919475773      16.0000000000
11691 2      12.7967794754      15.0000000000
11692 2      14.8147838525      20.0000000000
11693 2      14.7536387496      17.0000000000
11694 2      14.6955809705      17.0000000000
11695 2      13.8817053612      15.0000000000
11696 2      13.6492015042      15.0000000000
11697 2      12.5865468396      15.0000000000
11698 2      14.0974392719      19.0000000000
11699 2      17.9600217819      20.0000000000
11700 2      12.9524093752      15.0000000000
11701 2      15.8142471293      21.0000000000
11702 2      15.1471492613      19.0000000000
11703 2      14.0458452909      17.0000000000
11704 2      15.4453859531      20.0000000000
11705 2      18.6391099068      18.0000000000
11706 2      14.2235359981      15.0000000000
11707 2      18.6300442738      18.0000000000
11708 2      15.5951699254      19.0000000000
11709 2      12.0767431701      21.0000000000
11710 2      16.3782490903      21.0000000000
11711 2      15.8769344452      20.0000000000
11712 2      12.0548742155      17.0000000000
11713 2      13.3333805576      19.0000000000
11714 2      14.4888820115      18.0000000000
11715 2      14.0674414724      14.0000000000
11716 2      13.3351824339      18.0000000000
11717 2      13.9618987675      16.0000000000
11718 2      15.7958860595      20.0000000000
11719 2      14.7523468233      16.0000000000
11720 2      12.0500198167      14.0000000000
11721 2      16.3187941477      20.0000000000
11722 2      16.7528794592      18.0000000000
11723 2      12.4776261501      16.0000000000
11724 2      14.0406694266      17.0000000000
11725 2      15.4428250932      18.0000000000
11726 2      14.1943546866      16.0000000000
11727 2      15.0729936135      19.0000000000
11728 2      12.6061574353      15.0000000000
11729 2      15.5517125542      17.0000000000
11730 2      13.7579029338      17.0000000000
11731 2      14.1749507042      17.0000000000
11732 2      15.3967715734      18.0000000000
11733 2      17.7910341086      22.0000000000
11734 2      18.2116588966      22.0000000000
11735 2      11.6130185134      16.0000000000
11736 2      13.0065529344      18.0000000000
11737 2      15.7821940380      18.0000000000
11738 2      18.4257562776      21.0000000000
11739 2      17.7085445255      20.0000000000
11740 2      12.9835871941      16.0000000000
11741 2      15.9752317922      18.0000000000
11742 2      16.7456911676      19.0000000000
11743 2      14.6236723880      18.0000000000
11744 2      12.6610142216      15.0000000000
11745 2      16.1844713230      16.0000000000
11746 2      14.6625275459      19.0000000000
11747 2      15.6734973387      21.0000000000
11748 2      16.9001065967      18.0000000000
11749 2      16.0497247404      19.0000000000
11750 2      17.7037171733      21.0000000000
11751 2      13.8692655240      19.0000000000
11752 2      14.0859111261      15.0000000000
11753 2      14.9228700388      19.0000000000
11754 2      14.9560140100      20.0000000000
11755 2      16.8708396589      23.0000000000
11756 2      14.6158616827      15.0000000000
11757 2      13.3298986144      16.0000000000
11758 2      12.8980921824      15.0000000000
11759 2      13.0254062519      15.0000000000
11760 2      16.7551226070      17.0000000000
11761 2      14.2893445186      21.0000000000
11762 2      14.5420809560      19.0000000000
11763 2      16.6337974444      21.0000000000
11764 2      18.3151028541      20.0000000000
11765 2      16.4819489817      17.0000000000
11766 2      14.6743008740      18.0000000000
11767 2      14.5322560085      19.0000000000
11768 2      14.9305378779      18.0000000000
11769 2      14.9462757428      18.0000000000
11770 2      16.1204338168      18.0000000000
11771 2      15.3379684620      18.0000000000
11772 2      16.0685883833      18.0000000000
11773 2      11.9888553631      16.0000000000
11774 2      18.1016851377      16.0000000000
11775 2      16.0978722674      18.0000000000
11776 2      16.5763499069      21.0000000000
11777 2      13.4437576856      16.0000000000
11778 2      16.6331572913      19.0000000000
11779 2      16.7720399341      18.0000000000
11780 2      14.8825403294      22.0000000000
11781 2      15.1957591127      15.0000000000
11782 2      14.2068270299      17.0000000000
11783 2      11.4973306334      17.0000000000
11784 2      14.8672425643      18.0000000000
11785 2      12.8933298745      14.0000000000
11786 2      14.6953913703      16.0000000000
11787 2      15.0756073370      17.0000000000
11788 2      15.5812668071      22.0000000000
11789 2      16.5009415827      18.0000000000
11790 2      12.6148172578      16.0000000000
11791 2      14.9693772530      20.0000000000
11792 2      14.0455274616      18.0000000000
11793 2      16.2227899052      17.0000000000
11794 2      17.4136633966      20.0000000000
11795 2      14.9808245537      17.0000000000
11796 2      15.6578802983      18.0000000000
11797 2      13.2129935260      17.0000000000
11798 2      12.5834916918      17.0000000000
11799 2      18.9984106182      18.0000000000
11800 2      14.7219717872      20.0000000000
11801 2      14.9465804802      17.0000000000
11802 2      16.2619690268      17.0000000000
11803 2      12.1696963942      15.0000000000
11804 2      16.3570647519      20.0000000000
11805 2      14.0593256061      17.0000000000
11806 2      15.1121564588      20.0000000000
11807 2      16.0044188875      22.0000000000
11808 2      14.5668766022      17.0000000000
11809 2      16.6027175870      23.0000000000
11810 2      17.0335916874      20.0000000000
11811 2      16.1697162122      18.0000000000
11812 2      16.1226637316      18.0000000000
11813 2      14.6061512977      17.0000000000
11814 2      14.4503909894      17.0000000000
11815 2      15.4260785531      18.0000000000
11816 2      12.5021892745      17.0000000000
11817 2      17.8475097499      17.0000000000
11818 2      14.6624895756      16.0000000000
11819 2      15.5002890971      18.0000000000
11820 2      15.3514673579      19.0000000000
11821 2      13.5819569257      19.0000000000
11822 2      13.0329461621      18.0000000000
11823 2      17.1112962851      18.0000000000
11824 2      17.1274944556      22.0000000000
11825 2      14.2993541233      17.0000000000
11826 2      15.8152532539      20.0000000000
11827 2      14.4303676017      16.0000000000
11828 2      18.5003922487      20.0000000000
11829 2      12.6856631593      17.0000000000
11830 2      13.1165329569      17.0000000000
11831 2      13.1788091467      18.0000000000
11832 2      14.1758200625      17.0000000000
11833 2      15.5230349838      24.0000000000
11834 2      14.4698095191      16.0000000000
11835 2      14.0060066255      16.0000000000
11836 2      13.2367524488      16.0000000000
11837 2      15.9569825528      16.0000000000
11838 2      14.4593787074      22.0000000000
11839 2      16.3968317074      20.0000000000
11840 2      13.9493414737      17.0000000000
11841 2      16.1061472371      19.0000000000
11842 2      14.1754114876      18.0000000000
11843 2      16.0819224041      19.0000000000
11844 2      13.9323230820      18.0000000000
11845 2      14.5033303609      17.0000000000
11846 2      13.1360796417      17.0000000000
11847 2      11.7698512247      17.0000000000
11848 2      13.6269515155      17.0000000000
11849 2      15.4410919507      18.0000000000
11850 2      11.1546515612      14.0000000000
11851 2      16.1272676149      19.0000000000
11852 2      14.1598382790      20.0000000000
11853 2      18.5349575906      20.0000000000
11854 2      15.8853551937      20.0000000000
11855 2      14.5265792557      20.0000000000
11856 2      15.9653964982      17.0000000000
11857 2      12.8128924466      17.0000000000
11858 2      14.8228358743      20.0000000000
11859 2      16.4961491803      20.0000000000
11860 2      14.3340514356      16.0000000000
11861 2      16.9844099562      20.0000000000
11862 2      14.2777998706      17.0000000000
11863 2      14.9342266365      20.0000000000
11864 2      13.8539532611      20.0000000000
11865 2      14.0146849924      20.0000000000
11866 2      12.9039521587      17.0000000000
11867 2      16.1045636889      20.0000000000
11868 2      13.8808389276      20.0000000000
11869 2      15.9707238569      21.0000000000
11870 2      18.2312699134      21.0000000000
11871 2      13.3760071408      19.0000000000
11872 2      14.0814835420      14.0000000000
11873 2      15.6794948083      17.0000000000
11874 2      14.0486092705      18.0000000000
11875 2      14.9423797181      14.0000000000
11876 2      18.3651052051      17.0000000000
11877 2      13.6876657838      18.0000000000
11878 2      14.5520462065      15.0000000000
11879 2      13.0245674311      16.0000000000
11880 2      16.6096875035      20.0000000000
11881 2      15.1402485538      20.0000000000
11882 2      17.6258394439      18.0000000000
11883 2      15.7255057917      16.0000000000
11884 2      13.6045923515      17.0000000000
11885 2      16.3901591755      15.0000000000
11886 2      14.6826747525      17.0000000000
11887 2      16.5104408356      17.0000000000
11888 2      16.6156741838      25.0000000000
11889 2      16.5561255394      19.0000000000
11890 2      12.6361582179      16.0000000000
11891 2      13.9296716094      21.0000000000
11892 2      18.4278153100      20.0000000000
11893 2      16.1097574825      18.0000000000
11894 2      15.8242733218      17.0000000000
11895 2      14.4386839004      17.0000000000
11896 2      14.8264180174      18.0000000000
11897 2      13.8559121850      19.0000000000
11898 2      14.4325781046      16.0000000000
11899 2      11.9891162540      15.0000000000
11900 2      15.1709258888      17.0000000000
11901 2      14.0644388438      17.0000000000
11902 2      15.0216792593      19.0000000000
11903 2      15.6454583061      20.0000000000
11904 2      13.7301864325      17.0000000000
11905 2      12.9671121623      15.0000000000
11906 2      16.0801589329      21.0000000000
11907 2      13.3093420670      18.0000000000
11908 2      15.5004899574      17.0000000000
11909 2      15.8495116455      17.0000000000
11910 2      14.8964529953      19.0000000000
11911 2      15.4456178184      16.0000000000
11912 2      14.8899764373      17.0000000000
11913 2      15.4586736825      18.0000000000
11914 2      14.9538694748      17.0000000000
11915 2      14.1599585416      16.0000000000
11916 2      14.2081385176      18.0000000000
11917 2      16.2612999637      20.0000000000
11918 2      12.7898574268      17.0000000000
11919 2      16.8724199273      19.0000000000
11920 2      14.9261897925      18.0000000000
11921 2      13.4159776046      18.0000000000
11922 2      11.8951736175      15.0000000000
11923 2      14.5671080659      20.0000000000
11924 2      16.0225630508      19.0000000000
11925 2      14.7620475156      18.0000000000
11926 2      15.8894360970      23.0000000000
11927 2      15.8084185400      18.0000000000
11928 2      15.0818739388      19.0000000000
11929 2      15.8097629171      20.0000000000
11930 2      14.9140843563      19.0000000000
11931 2      14.3840498094      19.0000000000
11932 2      16.1200072136      16.0000000000
11933 2      16.7181057374      16.0000000000
11934 2      15.9243172962      19.0000000000
11935 2      14.1925535191      19.0000000000
11936 2      14.4157302974      18.0000000000
11937 2      12.8123635597      16.0000000000
11938 2      16.5842148253      20.0000000000
11939 2      15.0209165742      19.0000000000
11940 2      12.9076537404      16.0000000000
11941 2      15.0831941327      22.0000000000
11942 2      15.6152368656      20.0000000000
11943 2      16.9861531186      21.0000000000
11944 2      12.9946971496      16.0000000000
11945 2      15.3132006336      19.0000000000
11946 2      15.0391961004      19.0000000000
11947 2      16.7198268117      21.0000000000
11948 2      13.2386173751      18.0000000000
11949 2      15.2233196396      18.0000000000
11950 2      16.0636697714      19.0000000000
11951 2      16.1600688433      21.0000000000
11952 2      14.8481744806      17.0000000000
11953 2      15.8033764567      19.0000000000
11954 2      13.5691248928      16.0000000000
11955 2      16.1364156723      20.0000000000
11956 2      16.4112769642      16.0000000000
11957 2      13.9656650687      18.0000000000
11958 2      17.4112017609      19.0000000000
11959 2      13.4674383301      17.0000000000
11960 2      13.8179513900      16.0000000000
11961 2      15.5562328948      20.0000000000
11962 2      14.7494872751      20.0000000000
11963 2      15.5770191662      20.0000000000
11964 2      17.2072139051      22.0000000000
11965 2      14.8549590194      16.0000000000
11966 2      14.9699515648      20.0000000000
11967 2      12.6332324436      17.0000000000
11968 2      13.9867249683      18.0000000000
11969 2      13.7486929687      19.0000000000
11970 2      15.8874646105      18.0000000000
11971 2      11.2871545051      15.0000000000
11972 2      13.9882797313      17.0000000000
11973 2      13.2260627693      17.0000000000
11974 2      12.5293442320      17.0000000000
11975 2      14.6282426998      18.0000000000
11976 2      15.2356282655      18.0000000000
11977 2      18.5132139746      21.0000000000
11978 2      13.9511066041      17.0000000000
11979 2      12.8742568056      19.0000000000
11980 2      13.3727901841      20.0000000000
11981 2      12.3326532574      15.0000000000
11982 2      16.4109912969      18.0000000000
11983 2      17.2591461532      21.0000000000
11984 2      14.4020890400      16.0000000000
11985 2      12.3831810320      13.0000000000
11986 2      13.9438976753      21.0000000000
11987 2      15.2970672851      17.0000000000
11988 2      16.5435018587      21.0000000000
11989 2      13.8937088873      16.0000000000
11990 2      13.8362180500      17.0000000000
11991 2      12.6988562964      17.0000000000
11992 2      18.2711306944      20.0000000000
11993 2      13.1538137053      16.0000000000
11994 2      13.8030033676      13.0000000000
11995 2      14.2820230970      17.0000000000
11996 2      15.1987512419      17.0000000000
11997 2      15.3110370991      17.0000000000
11998 2      14.7702186273      19.0000000000
11999 2      14.6690634319      19.0000000000
12000 2      13.3493254078      16.0000000000
12001 2      15.6906479424      18.0000000000
12002 2      14.2836615893      15.0000000000
12003 2      14.5253218872      19.0000000000
12004 2      15.3249726442      19.0000000000
12005 2      16.2305161405      16.0000000000
12006 2      14.9814202136      18.0000000000
12007 2      12.2375356040      16.0000000000
12008 2      15.4704807647      15.0000000000
12009 2      15.8482188556      20.0000000000
12010 2      13.2758826129      18.0000000000
12011 2      14.7824478098      18.0000000000
12012 2      11.6750969785      15.0000000000
12013 2      13.4992873163      16.0000000000
12014 2      14.6883442126      23.0000000000
12015 2      16.1400314640      19.0000000000
12016 2      16.5119746611      19.0000000000
12017 2      16.5762984730      24.0000000000
12018 2      16.4563338576      18.0000000000
12019 2      12.8465785748      15.0000000000
12020 2      14.1399303386      20.0000000000
12021 2      14.2940449141      18.0000000000
12022 2      14.9921434736      19.0000000000
12023 2      17.9140441947      19.0000000000
12024 2      11.9422582373      14.0000000000
12025 2      12.9802949423      16.0000000000
12026 2      14.8172805824      17.0000000000
12027 2      13.6241473958      17.0000000000
12028 2      13.7906230609      18.0000000000
12029 2      16.0068506804      21.0000000000
12030 2      13.2930650789      19.0000000000
12031 2      13.5495739575      18.0000000000
12032 2      13.7730783896      19.0000000000
12033 2      14.9977468322      19.0000000000
12034 2      14.8104350771      19.0000000000
12035 2      15.9586366796      16.0000000000
12036 2      17.0410308911      21.0000000000
12037 2      14.3033531062      14.0000000000
12038 2      15.2811053576      16.0000000000
12039 2      14.5051026315      17.0000000000
12040 2      14.4117245957      15.0000000000
12041 2      16.8326121084      17.0000000000
12042 2      15.9180845233      17.0000000000
12043 2      14.2403010879      19.0000000000
12044 2      15.4623435195      19.0000000000
12045 2      17.8329956822      15.0000000000
12046 2      14.6735505347      23.0000000000
12047 2      15.8318338402      18.0000000000
12048 2      14.6494503534      17.0000000000
12049 2      16.3943866066      19.0000000000
12050 2      18.3237650537      20.0000000000
12051 2      15.3867565376      14.0000000000
12052 2      15.5284539452      20.0000000000
12053 2      12.9029909534      13.0000000000
12054 2      14.5583045689      19.0000000000
12055 2      14.8014078942      22.0000000000
12056 2      14.5616301882      16.0000000000
12057 2      17.3032910370      17.0000000000
12058 2      15.0103562038      16.0000000000
12059 2      15.6100987489      20.0000000000
12060 2      14.9478807762      18.0000000000
12061 2      14.8119983704      21.0000000000
12062 2      12.0462517014      19.0000000000
12063 2      14.8062287796      16.0000000000
12064 2      16.1360871912      21.0000000000
12065 2      16.9710799708      18.0000000000
12066 2      14.8517209747      21.0000000000
12067 2      15.0397798011      16.0000000000
12068 2      15.2830620034      17.0000000000
12069 2      13.2004294186      17.0000000000
12070 2      13.3311429707      16.0000000000
12071 2      17.8712500511      20.0000000000
12072 2      15.7184111115      17.0000000000
12073 2      18.0161601913      15.0000000000
12074 2      14.3568788579      16.0000000000
12075 2      14.6137188340      19.0000000000
12076 2      14.8235903232      16.0000000000
12077 2      15.7914051953      20.0000000000
12078 2      16.6007068068      20.0000000000
12079 2      17.2378304430      18.0000000000
12080 2      13.7473572089      18.0000000000
12081 2      14.7522964870      17.0000000000
12082 2      13.9487525849      18.0000000000
12083 2      16.2694967793      21.0000000000
12084 2      16.1649545893      19.0000000000
12085 2      16.0655400556      21.0000000000
12086 2      15.2004865267      17.0000000000
12087 2      15.3185471031      18.0000000000
12088 2      14.5416709254      15.0000000000
12089 2      14.0225698465      17.0000000000
12090 2      16.4086500389      21.0000000000
12091 2      13.3814815471      18.0000000000
12092 2      15.6027452390      17.0000000000
12093 2      15.5217213929      18.0000000000
12094 2      15.2964890559      18.0000000000
12095 2      15.9194811212      18.0000000000
12096 2      14.3067213833      18.0000000000
12097 2      15.7866071216      18.0000000000
12098 2      14.6034080906      19.0000000000
12099 2      17.7611054394      20.0000000000
12100 2      14.1048571674      16.0000000000
12101 2      15.8015866404      18.0000000000
12102 2      14.1210282719      16.0000000000
12103 2      13.9011051109      18.0000000000
12104 2      16.0214684472      19.0000000000
12105 2      15.2330133011      17.0000000000
12106 2      14.9364664053      17.0000000000
12107 2      13.7288528190      19.0000000000
12108 2      12.2591310558      16.0000000000
12109 2      17.5133993044      16.0000000000
12110 2      15.1032884860      19.0000000000
12111 2      15.7455100869      21.0000000000
12112 2      14.7800452764      21.0000000000
12113 2      15.6602249658      19.0000000000
12114 2      16.3686498499      20.0000000000
12115 2      13.6552967840      21.0000000000
12116 2      15.7470905342      18.0000000000
12117 2      13.7492255606      16.0000000000
12118 2      16.4402357830      19.0000000000
12119 2      16.6980364498      20.0000000000
12120 2      15.9462979243      17.0000000000
12121 2      12.0838033017      16.0000000000
12122 2      14.1361059778      18.0000000000
12123 2      15.6961344862      22.0000000000
12124 2      17.9581147174      19.0000000000
12125 2      17.9005839892      17.0000000000
12126 2      15.9245358108      18.0000000000
12127 2      15.0758591150      17.0000000000
12128 2      14.8614581115      15.0000000000
12129 2      15.2197862404      21.0000000000
12130 2      13.9366966833      16.0000000000
12131 2      13.4123271102      18.0000000000
12132 2      15.3590460262      22.0000000000
12133 2      13.1205911821      19.0000000000
12134 2      17.2165891458      19.0000000000
12135 2      13.7455612509      18.0000000000
12136 2      16.4607474556      20.0000000000
12137 2      16.2188229248      21.0000000000
12138 2      13.9519250607      15.0000000000
12139 2      14.4909626213      18.0000000000
12140 2      15.8912881642      20.0000000000
12141 2      16.0094802876      16.0000000000
12142 2      14.9410932435      18.0000000000
12143 2      15.4999732344      21.0000000000
12144 2      13.9095042593      18.0000000000
12145 2      19.1355869109      23.0000000000
12146 2      12.6891995915      19.0000000000
12147 2      17.0047163821      24.0000000000
12148 2      14.8351620031      19.0000000000
12149 2      16.7962415216      21.0000000000
12150 2      15.3968454322      17.0000000000
12151 2      15.8511500563      20.0000000000
12152 2      17.9584934979      25.0000000000
12153 2      18.1402678722      20.0000000000
12154 2      14.5128339981      17.0000000000
12155 2      13.1799914891      18.0000000000
12156 2      14.8776106699      17.0000000000
12157 2      15.1650677162      21.0000000000
12158 2      15.6142535966      20.0000000000
12159 2      14.6312635679      20.0000000000
12160 2      16.7122789949      21.0000000000
12161 2      14.1255242954      18.0000000000
12162 2      14.6766615501      16.0000000000
12163 2      13.7628375545      16.0000000000
12164 2      15.4399782166      23.0000000000
12165 2      14.0434909527      16.0000000000
12166 2      17.2206573703      21.0000000000
12167 2      13.7311053413      17.0000000000
12168 2      14.7256513700      15.0000000000
12169 2      16.4697374133      16.0000000000
12170 2      14.8476589512      19.0000000000
12171 2      16.5717640475      17.0000000000
12172 2      15.4711775575      20.0000000000
12173 2      14.7930149165      19.0000000000
12174 2      14.7642454381      19.0000000000
12175 2      13.8461932194      21.0000000000
12176 2      19.0378238199      19.0000000000
12177 2      13.2899675664      18.0000000000
12178 2      16.8633186588      20.0000000000
12179 2      14.9654308348      17.0000000000
12180 2      14.9191778844      21.0000000000
12181 2      13.2191196726      15.0000000000
12182 2      15.9377349443      22.0000000000
12183 2      18.7653920227      20.0000000000
12184 2      14.5283885516      17.0000000000
12185 2      13.4443389469      16.0000000000
12186 2      16.4985953455      19.0000000000
12187 2      16.5817922423      19.0000000000
12188 2      14.0592627631      19.0000000000
12189 2      19.0226468861      21.0000000000
12190 2      17.6541795772      21.0000000000
12191 2      13.6965125944      18.0000000000
12192 2      12.8563300231      18.0000000000
12193 2      15.3224983532      16.0000000000
12194 2      15.0716142152      19.0000000000
12195 2      13.7795716016      20.0000000000
12196 2      15.8049225229      22.0000000000
12197 2      13.7361371340      16.0000000000
12198 2      16.0925535796      21.0000000000
12199 2      14.2735199579      15.0000000000
12200 2      16.9867398065      20.0000000000
12201 2      15.1117500669      17.0000000000
12202 2      14.3981946097      18.0000000000
12203 2      12.8345183246      15.0000000000
12204 2      16.7684645087      21.0000000000
12205 2      12.8199606447      14.0000000000
12206 2      16.4930014666      18.0000000000
12207 2      12.6314255195      14.0000000000
12208 2      16.6979532586      17.0000000000
12209 2      15.7150105805      18.0000000000
12210 2      13.7448516534      17.0000000000
12211 2      13.8474270905      16.0000000000
12212 2      16.0117982446      17.0000000000
12213 2      14.8009430439      18.0000000000
12214 2      12.9865037735      18.0000000000
12215 2      16.8510890558      21.0000000000
12216 2      13.1509551671      18.0000000000
12217 2      16.4961861273      20.0000000000
12218 2      15.4119369394      19.0000000000
12219 2      14.1803503389      18.0000000000
12220 2      15.0392749653      17.0000000000
12221 2      13.0616708249      17.0000000000
12222 2      13.5750322346      19.0000000000
12223 2      15.2487570263      17.0000000000
12224 2      13.4861684177      19.0000000000
12225 2      15.9026148527      16.0000000000
12226 2      13.9525787650      19.0000000000
12227 2      14.3980589081      19.0000000000
12228 2      14.2802283766      20.0000000000
12229 2      12.2873794286      14.0000000000
12230 2      18.2296918094      24.0000000000
12231 2      15.1210860905      18.0000000000
12232 2      15.5665025918      20.0000000000
12233 2      15.3805012684      17.0000000000
12234 2      16.1913988565      18.0000000000
12235 2      14.1887849962      15.0000000000
12236 2      16.1024967042      20.0000000000
12237 2      16.4019314682      22.0000000000
12238 2      15.4044013679      16.0000000000
12239 2      13.1011305927      16.0000000000
12240 2      14.2239261831      18.0000000000
12241 2      16.5972721601      18.0000000000
12242 2      13.5997645196      15.0000000000
12243 2      14.2655659062      18.0000000000
12244 2      15.1565282435      18.0000000000
12245 2      14.9693577398      21.0000000000
12246 2      14.5660021147      20.0000000000
12247 2      15.5266143694      17.0000000000
12248 2      13.3769660910      14.0000000000
12249 2      13.8471891561      19.0000000000
12250 2      15.1496831169      17.0000000000
12251 2      15.1796395897      18.0000000000
12252 2      13.5233893989      16.0000000000
12253 2      16.0127131743      16.0000000000
12254 2      17.6712783845      21.0000000000
12255 2      14.5067939915      14.0000000000
12256 2      12.6154307022      13.0000000000
12257 2      14.8209319674      17.0000000000
12258 2      15.1628725738      18.0000000000
12259 2      12.1861479989      13.0000000000
12260 2      15.0436378316      19.0000000000
12261 2      17.7544272037      21.0000000000
12262 2      13.7325168591      18.0000000000
12263 2      14.8121810161      17.0000000000
12264 2      15.2042766756      23.0000000000
12265 2      15.9778928952      18.0000000000
12266 2      17.0168888781      19.0000000000
12267 2      15.2212438396      16.0000000000
12268 2      16.1830976675      21.0000000000
12269 2      15.5469458425      18.0000000000
12270 2      12.8172597692      16.0000000000
12271 2      16.0538225338      18.0000000000
12272 2      13.2543497468      21.0000000000
12273 2      14.6097275921      17.0000000000
12274 2      15.7845247622      18.0000000000
12275 2      14.9787511651      19.0000000000
12276 2      13.8451565935      17.0000000000
12277 2      13.2832785600      14.0000000000
12278 2      16.1723461652      20.0000000000
12279 2      15.8669962070      19.0000000000
12280 2      15.7300853397      19.0000000000
12281 2      15.2583637750      16.0000000000
12282 2      18.5431615908      20.0000000000
12283 2      15.9143186812      20.0000000000
12284 2      14.9961475377      19.0000000000
12285 2      13.8110577177      18.0000000000
12286 2      16.8603580793      21.0000000000
12287 2      14.5471489869      18.0000000000
12288 2      14.2652929656      17.0000000000
12289 2      15.9696688866      23.0000000000
12290 2      15.1385207765      18.0000000000
12291 2      16.7442362271      17.0000000000
12292 2      17.3208218132      17.0000000000
12293 2      13.3465890206      14.0000000000
12294 2      12.4417470765      14.0000000000
12295 2      17.9699184835      17.0000000000
12296 2      13.7385870524      16.0000000000
12297 2      15.2226281103      18.0000000000
12298 2      13.6992168450      18.0000000000
12299 2      15.5314137653      17.0000000000
12300 2      15.7351031801      17.0000000000
12301 2      15.5977910240      19.0000000000
12302 2      13.0569627125      18.0000000000
12303 2      14.6687487036      19.0000000000
12304 2      11.4340492171      14.0000000000
12305 2      13.3835533454      20.0000000000
12306 2      13.3377187049      20.0000000000
12307 2      13.1649039742      16.0000000000
12308 2      14.7410547821      17.0000000000
12309 2      14.8502144570      13.0000000000
12310 2      14.0466143836      18.0000000000
12311 2      15.8090700828      18.0000000000
12312 2      15.3458190198      18.0000000000
12313 2      15.0657214778      16.0000000000
12314 2      15.7390840749      17.0000000000
12315 2      13.9739719175      17.0000000000
12316 2      14.8280397136      17.0000000000
12317 2      15.9364430238      19.0000000000
12318 2      19.3151422798      18.0000000000
12319 2      15.2665116984      18.0000000000
12320 2      15.3073418324      15.0000000000
12321 2      18.7612104147      23.0000000000
12322 2      15.7418608538      16.0000000000
12323 2      14.5280293314      14.0000000000
12324 2      14.9287795223      17.0000000000
12325 2      16.3163224936      18.0000000000
12326 2      15.1264523378      18.0000000000
12327 2      16.0918773317      17.0000000000
12328 2      16.1137830394      17.0000000000
12329 2      16.6431695743      18.0000000000
12330 2      16.0547209333      17.0000000000
12331 2      14.3445128129      18.0000000000
12332 2      12.2880808653      16.0000000000
12333 2      12.5497080439      17.0000000000
12334 2      13.2849627372      17.0000000000
12335 2      15.5687906327      19.0000000000
12336 2      16.8856314382      20.0000000000
12337 2      12.4637826037      15.0000000000
12338 2      14.7733941331      18.0000000000
12339 2      15.1370548809      18.0000000000
12340 2      16.5916377120      18.0000000000
12341 2      12.9023545964      18.0000000000
12342 2      13.9324947913      19.0000000000
12343 2      12.7087831780      14.0000000000
12344 2      13.4947688276      19.0000000000
12345 2      13.1916346260      19.0000000000
12346 2      17.1024230609      20.0000000000
12347 2      15.7461391493      18.0000000000
12348 2      16.8526698938      22.0000000000
12349 2      14.9806874266      21.0000000000
12350 2      15.7416324372      22.0000000000
12351 2      17.5984887400      20.0000000000
12352 2      14.9182351595      21.0000000000
12353 2      14.7564891358      18.0000000000
12354 2      14.6771274267      18.0000000000
12355 2      16.7942607984      19.0000000000
12356 2      15.6231027357      17.0000000000
12357 2      15.5256353186      18.0000000000
12358 2      14.3580146542      16.0000000000
12359 2      15.1293011390      19.0000000000
12360 2      15.1237845416      18.0000000000
12361 2      15.2307452933      17.0000000000
12362 2      13.1347123251      14.0000000000
12363 2      13.4048424461      19.0000000000
12364 2      15.9641701881      16.0000000000
12365 2      14.3094704863      18.0000000000
12366 2      14.5972159124      16.0000000000
12367 2      13.1740365140      16.0000000000
12368 2      17.3647250623      20.0000000000
12369 2      13.9946521440      16.0000000000
12370 2      13.8205795960      16.0000000000
12371 2      15.9946585680      18.0000000000
12372 2      14.2124914295      15.0000000000
12373 2      14.1974753861      22.0000000000
12374 2      15.9174726675      19.0000000000
12375 2      17.1287934349      19.0000000000
12376 2      14.4794472000      18.0000000000
12377 2      15.8721731818      20.0000000000
12378 2      13.3949478013      15.0000000000
12379 2      18.2651783899      20.0000000000
12380 2      13.0628999427      16.0000000000
12381 2      14.6160339328      15.0000000000
12382 2      13.4016593271      18.0000000000
12383 2      14.8808567458      18.0000000000
12384 2      14.9714894093      13.0000000000
12385 2      13.7645637272      18.0000000000
12386 2      16.3544692053      18.0000000000
12387 2      16.8487138689      18.0000000000
12388 2      13.2825044687      16.0000000000
12389 2      16.9780251290      17.0000000000
12390 2      17.3424239466      20.0000000000
12391 2      15.6551048263      19.0000000000
12392 2      15.3030160757      18.0000000000
12393 2      17.6329504721      18.0000000000
12394 2      13.5732422628      19.0000000000
12395 2      14.2544127029      20.0000000000
12396 2      14.1119569698      15.0000000000
12397 2      13.9149117727      17.0000000000
12398 2      17.4605484751      18.0000000000
12399 2      16.3119933195      22.0000000000
12400 2      15.4054503062      17.0000000000
12401 2      15.2392003771      17.0000000000
12402 2      15.8049754962      18.0000000000
12403 2      14.9357463998      15.0000000000
12404 2      16.0542848252      15.0000000000
12405 2      16.1075722707      18.0000000000
12406 2      12.6864465390      14.0000000000
12407 2      15.6080554558      23.0000000000
12408 2      13.2489946832      16.0000000000
12409 2      13.9184131535      14.0000000000
12410 2      15.0789564156      21.0000000000
12411 2      16.7222720665      20.0000000000
12412 2      18.2870611897      17.0000000000
12413 2      15.5564341506      18.0000000000
12414 2      17.4147675033      19.0000000000
12415 2      16.6343031174      18.0000000000
12416 2      13.5915901521      15.0000000000
12417 2      14.7819611525      16.0000000000
12418 2      15.2033380386      18.0000000000
12419 2      15.4037266306      17.0000000000
12420 2      15.5424431562      20.0000000000
12421 2      17.0167320808      20.0000000000
12422 2      14.0302073517      22.0000000000
12423 2      17.3334536457      21.0000000000
12424 2      15.6699228167      17.0000000000
12425 2      19.2276863832      17.0000000000
12426 2      14.4446668700      18.0000000000
12427 2      15.2460264129      18.0000000000
12428 2      15.8075757397      17.0000000000
12429 2      14.8526592100      22.0000000000
12430 2      14.7586508544      18.0000000000
12431 2      15.7665086192      19.0000000000
12432 2      17.8772545896      20.0000000000
12433 2      16.0778258250      20.0000000000
12434 2      13.6647814399      16.0000000000
12435 2      15.6409126800      15.0000000000
12436 2      15.6717892022      18.0000000000
12437 2      18.0846525086      22.0000000000
12438 2      14.9153912701      16.0000000000
12439 2      14.0274912021      17.0000000000
12440 2      15.3088157990      19.0000000000
12441 2      12.5395413343      20.0000000000
12442 2      13.3259620590      21.0000000000
12443 2      15.2074959858      16.0000000000
12444 2      17.0472127557      21.0000000000
12445 2      14.9900022290      20.0000000000
12446 2      15.4191034527      19.0000000000
12447 2      15.3693030000      21.0000000000
12448 2      16.6866086187      22.0000000000
12449 2      14.1662149618      18.0000000000
12450 2      14.1040989795      16.0000000000
12451 2      14.1998403935      15.0000000000
12452 2      15.6367739437      19.0000000000
12453 2      13.4676224447      21.0000000000
12454 2      13.5550398981      15.0000000000
12455 2      13.8366450075      17.0000000000
12456 2      15.4355070251      18.0000000000
12457 2      16.0209278000      19.0000000000
12458 2      15.2085957156      18.0000000000
12459 2      13.9131609824      17.0000000000
12460 2      15.0532526007      20.0000000000
12461 2      15.2887965170      22.0000000000
12462 2      12.5638687694      16.0000000000
12463 2      16.2802280882      20.0000000000
12464 2      17.4724029992      23.0000000000
12465 2      12.6033797633      16.0000000000
12466 2      14.6896742925      19.0000000000
12467 2      18.2645624238      19.0000000000
12468 2      12.7922772464      18.0000000000
12469 2      14.5864082727      20.0000000000
12470 2      14.2421919286      22.0000000000
12471 2      14.5697395516      19.0000000000
12472 2      15.2141794895      21.0000000000
12473 2      13.5628955872      16.0000000000
12474 2      18.9543353179      20.0000000000
12475 2      14.6354551768      15.0000000000
12476 2      16.5815291135      20.0000000000
12477 2      15.0060688121      17.0000000000
12478 2      16.7010543651      19.0000000000
12479 2      13.4560012161      15.0000000000
12480 2      15.4111033567      18.0000000000
12481 2      16.7346524046      20.0000000000
12482 2      15.2232790448      17.0000000000
12483 2      12.5023867110      16.0000000000
12484 2      18.1042243963      18.0000000000
12485 2      14.0255499657      19.0000000000
12486 2      16.5443124370      20.0000000000
12487 2      16.0311598962      21.0000000000
12488 2      17.9553128567      19.0000000000
12489 2      15.8319759496      23.0000000000
12490 2      14.5992442246      17.0000000000
12491 2      13.6837349410      18.0000000000
12492 2      16.6376894040      19.0000000000
12493 2      13.4198392626      15.0000000000
12494 2      14.8792636607      16.0000000000
12495 2      13.8524236525      19.0000000000
12496 2      13.7014675518      20.0000000000
12497 2      15.4893815303      15.0000000000
12498 2      14.4249009019      20.0000000000
12499 2      14.3640737058      16.0000000000
12500 2      18.2254427283      20.0000000000
12501 3      16.4618918938      16.0000000000
12502 3      16.3659472202      18.0000000000
12503 3      19.6401566710      13.0000000000
12504 3      15.6110955024      16.0000000000
12505 3      15.8411031078      16.0000000000
12506 3      14.8607054459      16.0000000000
12507 3      14.7316873584      13.0000000000
12508 3      15.9177784999      16.0000000000
12509 3      13.6106954899      16.0000000000
12510 3      16.3620662584      17.0000000000
12511 3      15.2025791895      13.0000000000
12512 3      14.5690567715      13.0000000000
12513 3      15.6804520533      15.0000000000
12514 3      16.3661310083      16.0000000000
12515 3      16.8252955367      15.0000000000
12516 3      15.8983126388      15.0000000000
12517 3      15.9660743866      15.0000000000
12518 3      16.6492643410      16.0000000000
12519 3      18.4612670997      19.0000000000
12520 3      16.1030960189      17.0000000000
12521 3      17.9283998644      17.0000000000
12522 3      17.3415618150      18.0000000000
12523 3      18.0795813070      12.0000000000
12524 3      19.6356516955      20.0000000000
12525 3      15.8897895341      18.0000000000
12526 3      17.4614070597      13.0000000000
12527 3      14.4641235871      15.0000000000
12528 3      16.2028521178      14.0000000000
12529 3      16.8558367584      18.0000000000
12530 3      16.8052015227      15.0000000000
12531 3      18.2559865852      18.0000000000
12532 3      21.0109720321      16.0000000000
12533 3      17.8974903696      15.0000000000
12534 3      14.3110276357      17.0000000000
12535 3      17.6576011894      19.0000000000
12536 3      14.4825326391      13.0000000000
12537 3      15.2563524483      14.0000000000
12538 3      14.7449452625      17.0000000000
12539 3      17.1485325745      17.0000000000
12540 3      18.3488584825      17.0000000000
12541 3      16.8984117354      17.0000000000
12542 3      13.8249643156      13.0000000000
12543 3      17.8498062169      16.0000000000
12544 3      16.0847015389      18.0000000000
12545 3      14.4398593991      13.0000000000
12546 3      16.8630969712      17.0000000000
12547 3      13.7926069145      17.0000000000
12548 3      18.2803647942      14.0000000000
12549 3      15.0087934444      15.0000000000
12550 3      16.4241164504      17.0000000000
12551 3      15.2434427407      15.0000000000
12552 3      17.1078334972      14.0000000000
12553 3      18.5131723606      20.0000000000
12554 3      16.7121305215      14.0000000000
12555 3      13.0521420322      14.0000000000
12556 3      18.4572013934      20.0000000000
12557 3      15.1398322608      17.0000000000
12558 3      16.9973084680      18.0000000000
12559 3      15.0467975401      15.0000000000
12560 3      15.4574126673      18.0000000000
12561 3      14.8492875575      14.0000000000
12562 3      14.8751111785      19.0000000000
12563 3      16.2408907827      18.0000000000
12564 3      17.8867484341      14.0000000000
12565 3      16.3937300823      16.0000000000
12566 3      15.3380849857      17.0000000000
12567 3      14.2798333624      15.0000000000
12568 3      14.8758368890      14.0000000000
12569 3      15.0361207072      14.0000000000
12570 3      16.8364266843      19.0000000000
12571 3      15.9708331802      18.0000000000
12572 3      18.2247187100      15.0000000000
12573 3      14.4025344419      14.0000000000
12574 3      14.2737947523      15.0000000000
12575 3      15.5475251887      15.0000000000
12576 3      21.1397457280      17.0000000000
12577 3      15.4212477767      12.0000000000
12578 3      14.2084002364      15.0000000000
12579 3      16.6840783078      15.0000000000
12580 3      15.1883311191      16.0000000000
12581 3      19.0677430644      19.0000000000
12582 3      15.6808865754      15.0000000000
12583 3      15.3998496626      16.0000000000
12584 3      14.4106589424      15.0000000000
12585 3      17.6248671236      14.0000000000
12586 3      15.9727414295      13.0000000000
12587 3      16.3642643907      17.0000000000
12588 3      18.5487158186      15.0000000000
12589 3      16.5817902845      15.0000000000
12590 3      15.2964119110      16.0000000000
12591 3      13.6942743887      11.0000000000
12592 3      14.6651658442      15.0000000000
12593 3      18.4641966994      17.0000000000
12594 3      17.1428846718      19.0000000000
12595 3      16.7802584663      15.0000000000
12596 3      17.4723986970      16.0000000000
12597 3      18.3164326563      16.0000000000
12598 3      13.4999715976      13.0000000000
12599 3      14.4191445798      14.0000000000
12600 3      16.9252040930      15.0000000000
12601 3      14.2287911479      15.0000000000
12602 3      14.7646682429      16.0000000000
12603 3      16.2505388966      14.0000000000
12604 3      18.1260187185      18.0000000000
12605 3      15.0369076291      14.0000000000
12606 3      17.3503025609      15.0000000000
12607 3      13.8989667237      12.0000000000
12608 3      13.6585020962      11.0000000000
12609 3      16.8583968757      18.0000000000
12610 3      18.1736397909      20.0000000000
12611 3      16.6340524716      16.0000000000
12612 3      14.3060748357      13.0000000000
12613 3      17.6778840117      18.0000000000
12614 3      13.8726658221      14.0000000000
12615 3      16.2607237914      16.0000000000
12616 3      18.2298696505      23.0000000000
12617 3      14.5875076182      14.0000000000
12618 3      17.3145365572      14.0000000000
12619 3      16.3291799057      17.0000000000
12620 3      15.0005412322      16.0000000000
12621 3      15.3197843391      15.0000000000
12622 3      13.3938562676      14.0000000000
12623 3      15.2259458826      17.0000000000
12624 3      18.5705652552      19.0000000000
12625 3      15.7303267848      14.0000000000
12626 3      16.1425524846      20.0000000000
12627 3      14.5638277077      14.0000000000
12628 3      17.3538906117      15.0000000000
12629 3      19.8582873021      20.0000000000
12630 3      15.4355386438      17.0000000000
12631 3      18.0468097655      21.0000000000
12632 3      15.5558899353      15.0000000000
12633 3      17.3064678353      17.0000000000
12634 3      17.2921850854      20.0000000000
12635 3      16.2291276364      15.0000000000
12636 3      16.4106165985      17.0000000000
12637 3      16.2667854653      16.0000000000
12638 3      17.6621060117      17.0000000000
12639 3      17.4179008064      14.0000000000
12640 3      15.4319445887      17.0000000000
12641 3      15.0756726064      14.0000000000
12642 3      16.5845387573      18.0000000000
12643 3      17.6605316703      19.0000000000
12644 3      17.1200689418      16.0000000000
12645 3      16.3788058462      15.0000000000
12646 3      14.6364580923      13.0000000000
12647 3      16.3189020496      16.0000000000
12648 3      18.1011423610      20.0000000000
12649 3      17.1369821700      12.0000000000
12650 3      14.4264778432      14.0000000000
12651 3      12.9103095297      12.0000000000
12652 3      18.3481344595      17.0000000000
12653 3      13.7959077427      13.0000000000
12654 3      17.6041944575      17.0000000000
12655 3      14.9238334064      13.0000000000
12656 3      15.3180121503      14.0000000000
12657 3      14.9134787253      13.0000000000
12658 3      17.8444939022      18.0000000000
12659 3      16.2839066935      15.0000000000
12660 3      16.0890324811      18.0000000000
12661 3      16.8701357482      19.0000000000
12662 3      18.5318998757      20.0000000000
12663 3      18.3249302517      14.0000000000
12664 3      15.1506107059      16.0000000000
12665 3      16.8857240393      14.0000000000
12666 3      16.3655558281      15.0000000000
12667 3      17.8749567874      19.0000000000
12668 3      14.9217734871      18.0000000000
12669 3      16.1924537872      18.0000000000
12670 3      14.2493970670      12.0000000000
12671 3      15.8900693547      14.0000000000
12672 3      15.6717931769      13.0000000000
12673 3      16.6536267242      14.0000000000
12674 3      15.6674335516      16.0000000000
12675 3      16.4955466923      14.0000000000
12676 3      16.9576846094      18.0000000000
12677 3      15.3800381572      15.0000000000
12678 3      14.5403494172      15.0000000000
12679 3      16.8389844671      13.0000000000
12680 3      14.0303549303      14.0000000000
12681 3      15.8248942726      13.0000000000
12682 3      18.4002703835      15.0000000000
12683 3      15.7057553978      15.0000000000
12684 3      16.3559382764      20.0000000000
12685 3      14.7021102551      12.0000000000
12686 3      17.0034778708      16.0000000000
12687 3      16.3116917509      17.0000000000
12688 3      19.1742134373      16.0000000000
12689 3      16.2526653976      18.0000000000
12690 3      15.6013662242      15.0000000000
12691 3      15.8235482621      14.0000000000
12692 3      17.3724854281      19.0000000000
12693 3      16.4227662137      17.0000000000
12694 3      16.0735943957      10.0000000000
12695 3      15.2294633781      13.0000000000
12696 3      16.6500711564      18.0000000000
12697 3      14.7491919842      13.0000000000
12698 3      13.8173894064      15.0000000000
12699 3      18.4535853317      17.0000000000
12700 3      14.6468802397      16.0000000000
12701 3      17.7828476701      15.0000000000
12702 3      17.2816205514      16.0000000000
12703 3      14.2445779197      15.0000000000
12704 3      15.1103267892      15.0000000000
12705 3      15.4781208656      14.0000000000
12706 3      14.4374009845      12.0000000000
12707 3      15.9852292655      15.0000000000
12708 3      13.2668259715      15.0000000000
12709 3      16.3894823115      18.0000000000
12710 3      15.2704157358      15.0000000000
12711 3      17.0688893479      19.0000000000
12712 3      16.6040502984      17.0000000000
12713 3      16.1761453859      14.0000000000
12714 3      16.1387682243      16.0000000000
12715 3      14.8698321201      15.0000000000
12716 3      14.1914318947      17.0000000000
12717 3      21.0436834566      19.0000000000
12718 3      15.9566683509      16.0000000000
12719 3      17.3033889077      18.0000000000
12720 3      16.0706294461      18.0000000000
12721 3      16.2200121665      16.0000000000
12722 3      17.6639580739      16.0000000000
12723 3      16.5048213586      15.0000000000
12724 3      18.6186059372      15.0000000000
12725 3      17.1954856792      16.0000000000
12726 3      16.5476070342      15.0000000000
12727 3      17.3595910061      18.0000000000
12728 3      16.2598743011      18.0000000000
12729 3      15.2131291828      15.0000000000
12730 3      16.3900268812      13.0000000000
12731 3      16.3669074466      16.0000000000
12732 3      15.1803096587      14.0000000000
12733 3      14.9054348131      14.0000000000
12734 3      15.2535854340      17.0000000000
12735 3      15.2979610463      12.0000000000
12736 3      14.0991460472      15.0000000000
12737 3      13.4435077411      12.0000000000
12738 3      14.7220817900      17.0000000000
12739 3      13.6225642747      13.0000000000
12740 3      14.6783221338      18.0000000000
12741 3      14.2621541191      17.0000000000
12742 3      15.8796529129      14.0000000000
12743 3      14.4182512001      15.0000000000
12744 3      16.1704109484      18.0000000000
12745 3      14.9370155652      15.0000000000
12746 3      16.1140343113      16.0000000000
12747 3      16.1447082753      13.0000000000
12748 3      15.6387050233      14.0000000000
12749 3      16.1476899395      15.0000000000
12750 3      16.1410027599      18.0000000000
12751 3      14.6809754931      13.0000000000
12752 3      17.3718902323      14.0000000000
12753 3      14.9205126705      14.0000000000
12754 3      16.1475432055      17.0000000000
12755 3      14.6868957228      14.0000000000
12756 3      15.2132543586      13.0000000000
12757 3      19.4306299330      15.0000000000
12758 3      17.3963277203      13.0000000000
12759 3      16.7623834824      18.0000000000
12760 3      13.4311800816      14.0000000000
12761 3      19.0828449099      15.0000000000
12762 3      15.2640070210      16.0000000000
12763 3      14.3993363001      13.0000000000
12764 3      17.1183379939      15.0000000000
12765 3      16.6760704161      16.0000000000
12766 3      16.4098828671      17.0000000000
12767 3      18.0809004883      15.0000000000
12768 3      17.6693508315      17.0000000000
12769 3      18.2203536229      16.0000000000
12770 3      15.8640106724      16.0000000000
12771 3      15.5638314650      13.0000000000
12772 3      15.0861626307      16.0000000000
12773 3      17.8360525314      18.0000000000
12774 3      14.3398234231      13.0000000000
12775 3      17.0837773173      18.0000000000
12776 3      15.0147615524      19.0000000000
12777 3      14.3064780969      13.0000000000
12778 3      16.3258019196      11.0000000000
12779 3      17.0880325868      19.0000000000
12780 3      18.0644988694      17.0000000000
12781 3      19.2389066095      18.0000000000
12782 3      15.0441302520      17.0000000000
12783 3      15.9426760454      18.0000000000
12784 3      16.0384173631      21.0000000000
12785 3      15.7447467214      12.0000000000
12786 3      16.0783155976      14.0000000000
12787 3      16.0188328765      16.0000000000
12788 3      14.5443913769      13.0000000000
12789 3      14.8573803729      17.0000000000
12790 3      16.4592433217      13.0000000000
12791 3      15.8562935912      14.0000000000
12792 3      19.1016912112      18.0000000000
12793 3      16.9671940732      15.0000000000
12794 3      16.2646537261      16.0000000000
12795 3      15.9666610956      17.0000000000
12796 3      15.5703710110      18.0000000000
12797 3      14.8735217410      15.0000000000
12798 3      14.9467876797      19.0000000000
12799 3      17.2555138708      16.0000000000
12800 3      15.6554630834      15.0000000000
12801 3      15.4939047344      13.0000000000
12802 3      18.1019363626      14.0000000000
12803 3      14.8659223627      10.0000000000
12804 3      17.5093703927      16.0000000000
12805 3      14.3292739519      14.0000000000
12806 3      16.7899756863      17.0000000000
12807 3      16.1182227247      15.0000000000
12808 3      13.8721546710      12.0000000000
12809 3      14.6357293153      15.0000000000
12810 3      14.7745135644      14.0000000000
12811 3      14.2921927829      15.0000000000
12812 3      15.8468381910      14.0000000000
12813 3      16.1476181074      14.0000000000
12814 3      17.3047178282      15.0000000000
12815 3      15.7578310368      15.0000000000
12816 3      16.0535341547      16.0000000000
12817 3      15.8580826195      16.0000000000
12818 3      14.9156235500      15.0000000000
12819 3      15.3948028173      15.0000000000
12820 3      18.1844252065      18.0000000000
12821 3      14.3396749729      16.0000000000
12822 3      14.3933108775      13.0000000000
12823 3      13.1862443605      14.0000000000
12824 3      16.5745282202      16.0000000000
12825 3      16.0132935130      15.0000000000
12826 3      19.3791852558      16.0000000000
12827 3      16.9267415811      19.0000000000
12828 3      16.3510828127      16.0000000000
12829 3      16.3334055125      20.0000000000
12830 3      15.6180623904      15.0000000000
12831 3      14.9828235191      13.0000000000
12832 3      14.3675515700      13.0000000000
12833 3      16.7286592100      13.0000000000
12834 3      16.0380968006      17.0000000000
12835 3      14.2087546250      12.0000000000
12836 3      15.7059681330      16.0000000000
12837 3      16.3472517527      20.0000000000
12838 3      17.0135904881      18.0000000000
12839 3      18.6013094997      17.0000000000
12840 3      15.3296809308      15.0000000000
12841 3      16.2252084339      16.0000000000
12842 3      18.6324532711      16.0000000000
12843 3      17.3027950804      16.0000000000
12844 3      16.9468954187      17.0000000000
12845 3      16.8854444667      20.0000000000
12846 3      14.2432030936      13.0000000000
12847 3      14.3344698617      14.0000000000
12848 3      16.4540972883      17.0000000000
12849 3      17.2425742701      16.0000000000
12850 3      16.0699349279      15.0000000000
12851 3      18.9479797499      19.0000000000
12852 3      17.3542496961      13.0000000000
12853 3      17.3814618288      14.0000000000
12854 3      19.0335206231      20.0000000000
12855 3      17.4826996116      20.0000000000
12856 3      13.7455457183      12.0000000000
12857 3      14.5768310313      15.0000000000
12858 3      15.6953863722      14.0000000000
12859 3      14.5379047353      13.0000000000
12860 3      14.2690809428      14.0000000000
12861 3      15.5469705949      14.0000000000
12862 3      19.9196237627      19.0000000000
12863 3      16.2707120196      17.0000000000
12864 3      16.8484621825      14.0000000000
12865 3      15.0008897011      15.0000000000
12866 3      15.3444460301      15.0000000000
12867 3      18.3562635292      14.0000000000
12868 3      14.8231201072      13.0000000000
12869 3      14.9233062559      14.0000000000
12870 3      14.6548884474      14.0000000000
12871 3      15.6481713210      17.0000000000
12872 3      17.9443082421      16.0000000000
12873 3      15.7115819062      15.0000000000
12874 3      14.7095652637      14.0000000000
12875 3      16.1753897765      14.0000000000
12876 3      13.3352939074      13.0000000000
12877 3      16.8428211243      13.0000000000
12878 3      15.4258032217      14.0000000000
12879 3      13.9359923127      15.0000000000
12880 3      17.7037810466      17.0000000000
12881 3      14.0876743952      17.0000000000
12882 3      17.4360348843      13.0000000000
12883 3      14.5903210512      15.0000000000
12884 3      17.0617554733      15.0000000000
12885 3      16.4095023727      15.0000000000
12886 3      16.3665668200      17.0000000000
12887 3      16.7381059200      16.0000000000
12888 3      13.8080362569      15.0000000000
12889 3      17.4062718746      14.0000000000
12890 3      17.2159726944      18.0000000000
12891 3      18.2404646345      16.0000000000
12892 3      18.1958483761      18.0000000000
12893 3      14.8129512159      17.0000000000
12894 3      15.8321874744      17.0000000000
12895 3      19.6119930528      18.0000000000
12896 3      16.1324713362      16.0000000000
12897 3      16.2471167743      15.0000000000
12898 3      16.6976474515      14.0000000000
12899 3      14.7996229209      12.0000000000
12900 3      17.8052887333      15.0000000000
12901 3      16.8402808288      13.0000000000
12902 3      20.0612065828      23.0000000000
12903 3      14.4612295663      15.0000000000
12904 3      14.3719050181      15.0000000000
12905 3      15.6113382480      15.0000000000
12906 3      15.9979689808      16.0000000000
12907 3      16.6400335423      19.0000000000
12908 3      16.1695102800      14.0000000000
12909 3      19.4428966827      19.0000000000
12910 3      15.8322259815      15.0000000000
12911 3      14.7082171545      15.0000000000
12912 3      14.3191183566      13.0000000000
12913 3      16.6825440589      19.0000000000
12914 3      14.1733641581      14.0000000000
12915 3      14.3803616685      12.0000000000
12916 3      15.4567363431      14.0000000000
12917 3      15.0951664568      16.0000000000
12918 3      17.3613287461      16.0000000000
12919 3      14.7485273468      13.0000000000
12920 3      16.3200562489      16.0000000000
12921 3      15.5094104476      15.0000000000
12922 3      19.0995091045      16.0000000000
12923 3      14.0845967131      13.0000000000
12924 3      15.6329598230      13.0000000000
12925 3      17.1553809423      16.0000000000
12926 3      18.1728315541      19.0000000000
12927 3      14.1427000585      12.0000000000
12928 3      14.8421378475      14.0000000000
12929 3      17.0030649326      14.0000000000
12930 3      17.6303403494      19.0000000000
12931 3      16.4841792097      16.0000000000
12932 3      15.8854598291      15.0000000000
12933 3      16.4106861973      17.0000000000
12934 3      16.7276851558      14.0000000000
12935 3      18.1164733957      19.0000000000
12936 3      14.6872375930      13.0000000000
12937 3      15.2598208550      15.0000000000
12938 3      14.8506783424      13.0000000000
12939 3      15.3067869583      15.0000000000
12940 3      15.8668438091      14.0000000000
12941 3      14.1147807237      14.0000000000
12942 3      17.3808245337      15.0000000000
12943 3      14.6731724200      16.0000000000
12944 3      15.6637407852      13.0000000000
12945 3      16.2578189180      15.0000000000
12946 3      13.9173312875      16.0000000000
12947 3      16.3149076052      16.0000000000
12948 3      16.9400183542      18.0000000000
12949 3      15.3590783490      12.0000000000
12950 3      15.2213742389      16.0000000000
12951 3      18.4973317921      13.0000000000
12952 3      13.7180892784      18.0000000000
12953 3      15.8057582495      15.0000000000
12954 3      15.0218403256      12.0000000000
12955 3      16.5772519684      15.0000000000
12956 3      14.1344337378      16.0000000000
12957 3      16.6114460590      15.0000000000
12958 3      15.1967672787      16.0000000000
12959 3      17.4424944272      17.0000000000
12960 3      16.3744472373      18.0000000000
12961 3      15.2019866614      17.0000000000
12962 3      17.3407997675      19.0000000000
12963 3      16.1470838027      17.0000000000
12964 3      17.9443043963      18.0000000000
12965 3      15.9306450879      16.0000000000
12966 3      14.5914639711      16.0000000000
12967 3      14.6470898365      20.0000000000
12968 3      16.7944081903      17.0000000000
12969 3      14.7215283409      15.0000000000
12970 3      17.9972114330      21.0000000000
12971 3      14.8389965206      13.0000000000
12972 3      19.1412282345      21.0000000000
12973 3      16.7301574674      15.0000000000
12974 3      18.1943223811      16.0000000000
12975 3      15.4742971042      15.0000000000
12976 3      15.7843525859      13.0000000000
12977 3      16.2072263231      18.0000000000
12978 3      16.7848600302      17.0000000000
12979 3      17.0681673351      19.0000000000
12980 3      16.8712224043      19.0000000000
12981 3      15.7204192060      17.0000000000
12982 3      14.5918049313      15.0000000000
12983 3      14.2759568886      16.0000000000
12984 3      14.3678218170      14.0000000000
12985 3      18.1460366422      16.0000000000
12986 3      16.7071822878      19.0000000000
12987 3      15.0242685094      13.0000000000
12988 3      14.3087207693      16.0000000000
12989 3      13.5119288178      13.0000000000
12990 3      13.9071498434      15.0000000000
12991 3      16.1777244502      17.0000000000
12992 3      14.4138122066      15.0000000000
12993 3      14.8149807090      15.0000000000
12994 3      18.6296683026      18.0000000000
12995 3      16.2987224692      15.0000000000
12996 3      18.5518681151      20.0000000000
12997 3      15.2424289596      14.0000000000
12998 3      15.8156147439      17.0000000000
12999 3      18.3799949864      18.0000000000
13000 3      15.0057628164      16.0000000000
13001 4      19.4877639935      19.0000000000
13002 4      17.2300703215      21.0000000000
13003 4      15.6932144216      19.0000000000
13004 4      18.2543212983      20.0000000000
13005 4      15.9144356677      21.0000000000
13006 4      21.1900206099      21.0000000000
13007 4      16.8701092937      21.0000000000
13008 4      18.6207850696      19.0000000000
13009 5      20.6067683579      17.0000000000
13010 5      19.7080202734      18.0000000000
13011 4      17.5469213789      18.0000000000
13012 4      18.4267948706      17.0000000000
13013 4      18.7786123530      17.0000000000
13014 5      20.5936193726      19.0000000000
13015 4      16.5898113086      20.0000000000
13016 4      18.7885635148      17.0000000000
13017 4      16.2302795363      17.0000000000
13018 4      20.7624725875      20.0000000000
13019 4      18.0658267724      18.0000000000
13020 4      16.8968970494      22.0000000000
13021 5      21.7922965636      21.0000000000
13022 5      20.0111097179      21.0000000000
13023 4      16.6864122215      20.0000000000
13024 4      15.7242640154      19.0000000000
13025 4      15.9595652511      16.0000000000
13026 4      13.7788465341      14.0000000000
13027 4      16.3848529054      15.0000000000
13028 4      17.4700906090      18.0000000000
13029 4      17.1865743073      17.0000000000
13030 4      17.8132001043      17.0000000000
13031 4      20.8190508853      18.0000000000
13032 4      19.6460722797      23.0000000000
13033 4      13.6874277955      17.0000000000
13034 5      20.6671962232      18.0000000000
13035 4      18.2338840924      18.0000000000
13036 5      18.9533812888      20.0000000000
13037 4      17.1734540056      17.0000000000
13038 4      17.8108049336      18.0000000000
13039 4      18.9470729879      19.0000000000
13040 4      19.6281318565      19.0000000000
13041 4      18.8696319550      19.0000000000
13042 4      17.3890342632      14.0000000000
13043 4      15.4138921532      17.0000000000
13044 5      14.9597755072      16.0000000000
13045 4      15.4006493819      17.0000000000
13046 4      19.4016120895      20.0000000000
13047 4      18.7016040917      20.0000000000
13048 4      18.5733217930      20.0000000000
13049 4      17.0761188259      19.0000000000
13050 4      18.0747306666      17.0000000000
13051 4      19.4326171145      20.0000000000
13052 4      17.5392331053      21.0000000000
13053 4      19.0253070696      18.0000000000
13054 5      19.8307581641      20.0000000000
13055 5      22.1994975034      18.0000000000
13056 4      14.0337212037      15.0000000000
13057 4      14.6650884734      15.0000000000
13058 5      24.3428428738      25.0000000000
13059 4      20.0415131025      18.0000000000
13060 4      13.9909298779      14.0000000000
13061 4      20.3497121946      22.0000000000
13062 4      16.0001133856      17.0000000000
13063 5      18.0622523427      16.0000000000
13064 4      18.4334324047      21.0000000000
13065 5      22.0408787705      23.0000000000
13066 5      23.3097603875      18.0000000000
13067 4      17.9570171164      18.0000000000
13068 4      18.6441367425      19.0000000000
13069 4      15.9395065443      16.0000000000
13070 4      16.8798650886      16.0000000000
13071 5      22.7009552907      17.0000000000
13072 4      16.8173004035      18.0000000000
13073 4      16.7727563845      19.0000000000
13074 4      13.7868878928      17.0000000000
13075 5      17.4770969924      22.0000000000
13076 4      20.6798560648      22.0000000000
13077 4      18.9785321148      22.0000000000
13078 4      16.9306988403      17.0000000000
13079 4      18.0468428802      20.0000000000
13080 4      16.8717998287      22.0000000000
13081 4      21.2320188809      22.0000000000
13082 5      26.4479335623      21.0000000000
13083 4      15.0663524312      16.0000000000
13084 4      15.4583455449      16.0000000000
13085 4      17.3418488318      20.0000000000
13086 4      21.1072600789      18.0000000000
13087 5      23.1529295254      24.0000000000
13088 4      17.3756358461      19.0000000000
13089 5      22.8620327251      22.0000000000
13090 4      15.6978675365      16.0000000000
13091 5      18.3720756234      21.0000000000
13092 4      17.5292867591      17.0000000000
13093 4      18.9580932515      16.0000000000
13094 4      16.6528036364      17.0000000000
13095 4      18.7708480508      15.0000000000
13096 5      17.5454319646      16.0000000000
13097 4      17.2762240023      22.0000000000
13098 4      15.6008886689      18.0000000000
13099 5      19.5886096862      20.0000000000
13100 5      24.2054594027      25.0000000000
13101 4      14.9645235798      14.0000000000
13102 4      18.7158996262      19.0000000000
13103 4      21.6009998475      22.0000000000
13104 4      17.4838315108      18.0000000000
13105 4      16.4580432693      17.0000000000
13106 4      16.0466766329      17.0000000000
13107 5      21.9893765790      19.0000000000
13108 4      15.7384902515      18.0000000000
13109 4      16.7963333992      17.0000000000
13110 4      17.4945072371      16.0000000000
13111 4      17.6860575016      19.0000000000
13112 5      15.7593004756      18.0000000000
13113 4      16.9416411045      19.0000000000
13114 5      19.1408213013      18.0000000000
13115 4      16.7912910024      20.0000000000
13116 4      21.3800903512      23.0000000000
13117 4      15.4485659814      17.0000000000
13118 4      14.0489457731      16.0000000000
13119 4      20.0356329704      20.0000000000
13120 4      14.1338475861      18.0000000000
13121 4      15.0320556757      14.0000000000
13122 5      24.1014051545      23.0000000000
13123 4      20.0024835500      19.0000000000
13124 4      16.0020866134      16.0000000000
13125 4      19.5574439704      20.0000000000
13126 5      20.9202802727      18.0000000000
13127 4      16.6099382936      21.0000000000
13128 4      17.0394667461      20.0000000000
13129 4      20.1573762116      20.0000000000
13130 4      16.5541300551      18.0000000000
13131 4      13.5363150935      14.0000000000
13132 4      14.1420078061      12.0000000000
13133 5      17.7168909823      18.0000000000
13134 4      20.1209139520      22.0000000000
13135 4      14.3846175111      15.0000000000
13136 5      21.1734416803      22.0000000000
13137 4      15.8867980103      22.0000000000
13138 4      16.7890905992      20.0000000000
13139 4      19.0826208559      18.0000000000
13140 5      22.9327122014      23.0000000000
13141 4      14.7196430933      17.0000000000
13142 4      16.9557738156      22.0000000000
13143 5      22.7644305472      21.0000000000
13144 5      21.9523354073      25.0000000000
13145 4      22.2351427527      23.0000000000
13146 4      21.4441862116      25.0000000000
13147 4      16.3720775502      15.0000000000
13148 4      15.0696177151      14.0000000000
13149 4      17.9707950931      18.0000000000
13150 4      14.1477261640      13.0000000000
13151 4      17.2411780409      18.0000000000
13152 5      24.1793878770      18.0000000000
13153 5      22.8385126989      23.0000000000
13154 5      18.3324806629      19.0000000000
13155 4      16.9414948071      18.0000000000
13156 4      14.5237147738      15.0000000000
13157 4      15.6894493003      18.0000000000
13158 4      16.9402886568      18.0000000000
13159 4      19.9095428984      21.0000000000
13160 4      17.7857071144      18.0000000000
13161 4      16.6258180575      16.0000000000
13162 4      17.3562627741      17.0000000000
13163 4      17.3203914135      17.0000000000
13164 4      18.3981606295      23.0000000000
13165 4      19.2451316320      18.0000000000
13166 4      16.1211090280      15.0000000000
13167 4      16.6965496332      20.0000000000
13168 4      17.9937342135      20.0000000000
13169 4      16.3889180943      18.0000000000
13170 4      20.7458111525      23.0000000000
13171 4      15.4788012466      16.0000000000
13172 4      18.8577716895      17.0000000000
13173 4      15.3086468506      17.0000000000
13174 5      19.4153642985      15.0000000000
13175 4      20.0018326563      21.0000000000
13176 4      18.0964003037      19.0000000000
13177 4      16.9563422257      17.0000000000
13178 4      16.6032732972      18.0000000000
13179 4      18.3103531877      19.0000000000
13180 5      26.1002958769      25.0000000000
13181 4      20.8689389324      20.0000000000
13182 4      17.0181993022      15.0000000000
13183 4      19.1691701618      18.0000000000
13184 4      17.8332421695      24.0000000000
13185 4      16.5204171296      16.0000000000
13186 4      15.1109136628      14.0000000000
13187 4      16.8590732372      18.0000000000
13188 5      19.3985540652      19.0000000000
13189 4      15.9898764371      18.0000000000
13190 4      18.4392363217      19.0000000000
13191 4      17.1192258717      19.0000000000
13192 4      18.1362130868      19.0000000000
13193 4      18.6305134401      15.0000000000
13194 4      14.2284125494      16.0000000000
13195 4      15.3549243161      16.0000000000
13196 4      14.8108710051      17.0000000000
13197 4      15.6724570298      17.0000000000
13198 5      22.3578701622      18.0000000000
13199 4      16.7609714773      18.0000000000
13200 4      16.1538192173      18.0000000000
13201 4      15.5896726725      14.0000000000
13202 4      14.8505727254      17.0000000000
13203 4      18.8623263586      16.0000000000
13204 4      16.7008058059      17.0000000000
13205 4      13.5640186251      17.0000000000
13206 4      15.0315924150      16.0000000000
13207 4      16.5224910062      17.0000000000
13208 5      23.9365611124      19.0000000000
13209 4      14.3220305640      17.0000000000
13210 4      17.7372159563      19.0000000000
13211 4      16.5892859819      21.0000000000
13212 4      17.9044877356      21.0000000000
13213 4      16.5210176170      15.0000000000
13214 4      19.8467195017      21.0000000000
13215 4      17.1262593455      17.0000000000
13216 4      14.7156606707      17.0000000000
13217 4      20.0264021251      21.0000000000
13218 4      16.2546113617      16.0000000000
13219 4      15.7534332453      18.0000000000
13220 4      14.1000434294      14.0000000000
13221 5      17.6852801227      21.0000000000
13222 4      18.2700310915      18.0000000000
13223 4      19.2528359007      24.0000000000
13224 4      18.8961738208      20.0000000000
13225 4      17.2342080361      16.0000000000
13226 5      21.0398595569      17.0000000000
13227 4      15.4014800489      17.0000000000
13228 4      17.5793386919      17.0000000000
13229 4      16.4028552384      19.0000000000
13230 4      17.9114942047      18.0000000000
13231 4      16.3061509094      16.0000000000
13232 4      16.0486901921      21.0000000000
13233 5      20.2327866996      17.0000000000
13234 5      18.7688016327      17.0000000000
13235 4      17.6250718015      19.0000000000
13236 4      14.8414675883      17.0000000000
13237 5      19.0255558266      23.0000000000
13238 4      16.9023143314      15.0000000000
13239 4      17.5718146280      21.0000000000
13240 4      15.2011878716      16.0000000000
13241 4      15.7700563202      16.0000000000
13242 5      16.7801276246      18.0000000000
13243 4      15.6393337399      17.0000000000
13244 5      19.2521677348      19.0000000000
13245 5      25.6629811991      22.0000000000
13246 4      15.5588783179      15.0000000000
13247 5      21.7910635036      24.0000000000
13248 4      13.2529213259      15.0000000000
13249 4      16.7264918643      19.0000000000
13250 4      14.8937409267      17.0000000000
13251 4      20.0099046786      18.0000000000
13252 4      14.7796304831      15.0000000000
13253 4      18.5421150341      19.0000000000
13254 5      19.7877009335      24.0000000000
13255 4      16.3812451062      17.0000000000
13256 4      21.4171207820      23.0000000000
13257 4      14.6485887477      19.0000000000
13258 4      15.9339788782      20.0000000000
13259 4      20.1460300863      19.0000000000
13260 4      14.7148344622      17.0000000000
13261 4      14.7239864708      17.0000000000
13262 4      20.8906120529      22.0000000000
13263 4      18.4662000641      16.0000000000
13264 4      17.5740072785      16.0000000000
13265 4      15.5322490325      19.0000000000
13266 4      16.2682642121      15.0000000000
13267 4      14.5207513431      17.0000000000
13268 4      16.4386589372      19.0000000000
13269 4      19.5147264212      20.0000000000
13270 4      13.3240126581      14.0000000000
13271 4      18.4394948871      17.0000000000
13272 4      21.3422778524      20.0000000000
13273 4      21.0160645811      22.0000000000
13274 4      17.0146121077      18.0000000000
13275 5      19.8362174366      18.0000000000
13276 4      16.9580641255      19.0000000000
13277 4      16.6670769481      19.0000000000
13278 4      21.3514584958      16.0000000000
13279 5      18.3091079542      20.0000000000
13280 4      15.9044760570      21.0000000000
13281 4      17.1877527908      18.0000000000
13282 4      16.1421576489      18.0000000000
13283 4      16.3811838225      20.0000000000
13284 4      20.5576404977      22.0000000000
13285 4      19.5500478088      21.0000000000
13286 4      15.9880411250      19.0000000000
13287 4      15.9514639404      17.0000000000
13288 4      16.6820020565      15.0000000000
13289 4      17.0605503934      18.0000000000
13290 4      13.3102695661      18.0000000000
13291 4      14.8927954899      12.0000000000
13292 5      17.7725259580      16.0000000000
13293 4      19.5889923566      19.0000000000
13294 4      17.2678955496      18.0000000000
13295 4      17.1686747032      18.0000000000
13296 4      15.3060919701      15.0000000000
13297 5      22.8955557723      21.0000000000
13298 4      15.4406630804      17.0000000000
13299 4      14.2833706341      15.0000000000
13300 4      17.6504062027      19.0000000000
13301 4      17.3536715499      15.0000000000
13302 4      19.6897221203      18.0000000000
13303 5      20.3553310700      22.0000000000
13304 5      20.1121074485      16.0000000000
13305 4      16.6480510467      15.0000000000
13306 4      15.9047378078      18.0000000000
13307 4      18.2214750384      18.0000000000
13308 4      17.9404484719      17.0000000000
13309 5      19.7431698615      18.0000000000
13310 4      16.1907011820      17.0000000000
13311 5      22.0958039143      17.0000000000
13312 4      22.0619702628      17.0000000000
13313 5      23.4799338302      24.0000000000
13314 4      19.1101435541      20.0000000000
13315 4      15.9439425741      16.0000000000
13316 4      21.1331827221      20.0000000000
13317 4      18.0411530566      17.0000000000
13318 5      22.5158632495      17.0000000000
13319 5      20.5795645507      19.0000000000
13320 4      20.6275607029      22.0000000000
13321 4      13.9300628831      15.0000000000
13322 4      12.4653763269      13.0000000000
13323 5      20.5439890380      18.0000000000
13324 4      18.3665437188      19.0000000000
13325 5      25.1343591449      22.0000000000
13326 5      23.4524016565      22.0000000000
13327 5      23.8482081657      20.0000000000
13328 5      24.1840955053      19.0000000000
13329 4      15.4715976350      17.0000000000
13330 4      18.3420867496      17.0000000000
13331 4      15.2659304106      16.0000000000
13332 4      18.8402752782      21.0000000000
13333 4      17.7498423873      22.0000000000
13334 4      15.8873503074      20.0000000000
13335 5      20.6797034325      22.0000000000
13336 4      15.2179675060      14.0000000000
13337 4      14.8400315178      16.0000000000
13338 4      15.5141471462      18.0000000000
13339 4      17.3155477808      17.0000000000
13340 5      24.8741022848      21.0000000000
13341 4      18.3741228651      21.0000000000
13342 4      19.7072161914      15.0000000000
13343 4      15.7071912244      17.0000000000
13344 4      16.8426901478      17.0000000000
13345 4      18.0234669978      19.0000000000
13346 5      22.6281363897      18.0000000000
13347 4      15.4702298489      18.0000000000
13348 4      15.0004662390      20.0000000000
13349 5      25.8290995105      24.0000000000
13350 4      23.8121385473      25.0000000000
13351 4      15.9149286052      15.0000000000
13352 4      21.4179353513      21.0000000000
13353 4      16.3015709710      20.0000000000
13354 4      15.7686951488      17.0000000000
13355 4      16.1650380674      18.0000000000
13356 5      20.8322382598      23.0000000000
13357 4      15.5551860955      16.0000000000
13358 4      13.9390283502      18.0000000000
13359 4      14.3811144127      18.0000000000
13360 4      18.4531716570      19.0000000000
13361 5      22.5674441155      20.0000000000
13362 4      15.7781852375      17.0000000000
13363 4      15.3377989141      16.0000000000
13364 4      22.4368160217      20.0000000000
13365 4      17.7366349919      16.0000000000
13366 5      22.9021639013      23.0000000000
13367 4      16.4483258851      17.0000000000
13368 4      18.1568642442      21.0000000000
13369 4      15.8255203200      19.0000000000
13370 4      15.2854538140      17.0000000000
13371 4      20.9773727197      23.0000000000
13372 4      16.9265801564      20.0000000000
13373 5      24.9910645162      21.0000000000
13374 4      13.9936045242      16.0000000000
13375 4      15.8244844335      16.0000000000
13376 4      16.1371290777      23.0000000000
13377 4      14.6519024297      17.0000000000
13378 5      21.5985647644      18.0000000000
13379 5      24.9712714026      23.0000000000
13380 4      13.0019840753      13.0000000000
13381 4      16.1042446624      17.0000000000
13382 4      19.0402552100      19.0000000000
13383 4      16.7213617952      21.0000000000
13384 4      20.2183935507      26.0000000000
13385 5      20.8316289983      16.0000000000
13386 4      16.0133796488      19.0000000000
13387 4      14.4976368102      17.0000000000
13388 4      13.8610194706      14.0000000000
13389 4      17.8620594123      16.0000000000
13390 4      14.5725221818      14.0000000000
13391 5      23.2357164283      24.0000000000
13392 5      24.4740325560      19.0000000000
13393 4      16.8250052504      18.0000000000
13394 4      16.1998050022      20.0000000000
13395 4      16.2479555958      19.0000000000
13396 4      18.0397903410      18.0000000000
13397 4      15.6902095358      18.0000000000
13398 4      14.7590702743      17.0000000000
13399 5      22.4592946694      17.0000000000
13400 4      20.7121734093      20.0000000000
13401 4      16.9886581960      21.0000000000
13402 4      18.6055196486      21.0000000000
13403 4      18.2974876737      16.0000000000
13404 4      19.7201627025      18.0000000000
13405 5      22.0338729403      20.0000000000
13406 4      16.7901085839      17.0000000000
13407 4      16.0202591579      21.0000000000
13408 5      22.9358701293      18.0000000000
13409 4      17.5830840059      22.0000000000
13410 4      20.7069933824      20.0000000000
13411 4      18.8729499759      17.0000000000
13412 4      18.7771043950      17.0000000000
13413 4      19.9297234168      21.0000000000
13414 4      17.3955890000      22.0000000000
13415 5      17.3700076766      16.0000000000
13416 4      18.2964605788      20.0000000000
13417 5      20.0222039095      19.0000000000
13418 4      17.4809891344      17.0000000000
13419 4      15.7106015525      16.0000000000
13420 4      19.6148294998      20.0000000000
13421 4      17.2922480465      18.0000000000
13422 4      18.8195842887      20.0000000000
13423 4      17.6503469901      18.0000000000
13424 5      20.4707907742      19.0000000000
13425 4      18.0026169229      23.0000000000
13426 4      19.2944095223      19.0000000000
13427 4      17.6839200153      19.0000000000
13428 4      18.4085235243      18.0000000000
13429 4      17.3348222593      20.0000000000
13430 5      21.4817048817      21.0000000000
13431 5      22.7777976907      21.0000000000
13432 4      15.0766982071      15.0000000000
13433 4      18.0196662725      21.0000000000
13434 4      16.6118989976      16.0000000000
13435 4      16.8903775693      19.0000000000
13436 5      25.7401391188      24.0000000000
13437 4      18.3802166503      21.0000000000
13438 4      14.2287731984      17.0000000000
13439 4      18.8245756120      22.0000000000
13440 4      17.5057225833      17.0000000000
13441 4      15.9474429539      18.0000000000
13442 4      14.6882977385      18.0000000000
13443 4      21.4704127818      18.0000000000
13444 5      28.6826430827      27.0000000000
13445 4      22.6918331255      21.0000000000
13446 4      15.5094529653      16.0000000000
13447 4      17.8323827157      15.0000000000
13448 4      16.3165012062      18.0000000000
13449 4      16.9630472470      16.0000000000
13450 4      15.9581824043      18.0000000000
13451 4      20.5697818839      19.0000000000
13452 4      15.1428726065      16.0000000000
13453 4      15.9739491790      19.0000000000
13454 5      22.9273193199      24.0000000000
13455 4      19.2229587081      19.0000000000
13456 4      17.8301536412      16.0000000000
13457 4      19.1812441038      21.0000000000
13458 5      21.4665080355      16.0000000000
13459 4      15.8408816960      16.0000000000
13460 5      21.9714995446      20.0000000000
13461 4      18.0737154500      18.0000000000
13462 4      13.9837749101      17.0000000000
13463 5      19.9501966047      21.0000000000
13464 4      16.7993063175      16.0000000000
13465 4      16.9577474202      22.0000000000
13466 4      14.5584178387      15.0000000000
13467 4      14.0655709976      14.0000000000
13468 4      16.9028244960      14.0000000000
13469 4      17.6228416088      19.0000000000
13470 4      19.6596869206      22.0000000000
13471 4      20.5630308641      22.0000000000
13472 4      14.2263177618      19.0000000000
13473 5      16.4701203074      15.0000000000
13474 4      15.0208139827      14.0000000000
13475 4      15.3794822157      17.0000000000
13476 4      14.2639231218      18.0000000000
13477 4      14.8614655819      15.0000000000
13478 4      15.6861775269      18.0000000000
13479 4      18.4512367480      19.0000000000
13480 4      19.3752709340      23.0000000000
13481 4      18.4119604831      16.0000000000
13482 5      20.4938676783      20.0000000000
13483 4      20.3961780907      20.0000000000
13484 4      17.4781764422      18.0000000000
13485 4      19.9896465971      21.0000000000
13486 4      17.1664281923      17.0000000000
13487 4      18.1967715341      20.0000000000
13488 4      16.6422130081      20.0000000000
13489 4      17.6223429096      17.0000000000
13490 4      18.8704586858      19.0000000000
13491 4      14.2688029578      19.0000000000
13492 4      15.1133167505      15.0000000000
13493 5      18.8070533090      18.0000000000
13494 4      15.8580976283      16.0000000000
13495 4      17.5007352481      15.0000000000
13496 4      16.1978802350      13.0000000000
13497 4      15.8872217848      15.0000000000
13498 5      20.4681876243      18.0000000000
13499 4      14.1505890172      16.0000000000
13500 4      14.5173942317      16.0000000000
13501 5      21.3485368377      23.0000000000
13502 5      21.1320846022      22.0000000000
13503 4      14.9693937328      19.0000000000
13504 4      17.8890622929      15.0000000000
13505 4      13.5870573820      17.0000000000
13506 4      15.2747241017      18.0000000000
13507 4      17.0143245004      18.0000000000
13508 4      21.1657012279      24.0000000000
13509 4      18.5027379672      21.0000000000
13510 4      19.8376186042      22.0000000000
13511 4      15.5690895444      15.0000000000
13512 5      18.1345492611      16.0000000000
13513 5      22.3694574610      22.0000000000
13514 4      15.2468014281      18.0000000000
13515 4      13.2957580967      13.0000000000
13516 4      15.2632230781      13.0000000000
13517 5      20.1239099420      20.0000000000
13518 4      20.3703541964      21.0000000000
13519 4      20.3709593768      21.0000000000
13520 4      17.8117171424      18.0000000000
13521 4      15.8228212433      16.0000000000
13522 4      14.7569440799      17.0000000000
13523 4      16.9642718109      19.0000000000
13524 4      17.4933654396      20.0000000000
13525 5      23.5635697708      22.0000000000
13526 4      22.5142821554      22.0000000000
13527 4      15.3063933726      17.0000000000
13528 4      15.3531055452      18.0000000000
13529 4      14.4806586927      15.0000000000
13530 4      16.0223304327      19.0000000000
13531 4      16.0529375070      20.0000000000
13532 4      19.8244310683      19.0000000000
13533 5      21.3391125584      20.0000000000
13534 4      14.7479387045      14.0000000000
13535 5      22.7125709792      23.0000000000
13536 4      13.0076201955      13.0000000000
13537 4      15.6270760752      18.0000000000
13538 5      25.0217059208      26.0000000000
13539 4      16.4422718749      22.0000000000
13540 4      19.5104912383      21.0000000000
13541 4      15.6374925650      23.0000000000
13542 4      15.6615184122      19.0000000000
13543 4      19.2032458098      18.0000000000
13544 4      23.5795487077      23.0000000000
13545 4      17.6824431247      23.0000000000
13546 5      21.0667335144      17.0000000000
13547 4      16.9920873814      18.0000000000
13548 4      15.0953410497      17.0000000000
13549 5      20.7052194121      21.0000000000
13550 4      19.2632841011      22.0000000000
13551 5      23.5979436452      24.0000000000
13552 4      19.3685385568      21.0000000000
13553 4      15.0307257587      19.0000000000
13554 4      16.8956757877      18.0000000000
13555 5      22.9836524825      22.0000000000
13556 5      23.5772709622      21.0000000000
13557 4      21.4899627524      24.0000000000
13558 4      13.2217986170      13.0000000000
13559 4      18.4206082873      19.0000000000
13560 4      14.8099021881      17.0000000000
13561 4      21.8393361166      21.0000000000
13562 4      17.2763164304      18.0000000000
13563 4      17.3714163179      18.0000000000
13564 4      16.0604524279      23.0000000000
13565 4      16.1555867908      17.0000000000
13566 5      18.8757039922      26.0000000000
13567 4      17.4636248602      21.0000000000
13568 4      16.3461141222      16.0000000000
13569 5      17.7752546808      19.0000000000
13570 4      14.8025547346      17.0000000000
13571 4      16.3815271032      16.0000000000
13572 4      19.5552746188      17.0000000000
13573 4      21.2946094946      22.0000000000
13574 4      15.5177400592      17.0000000000
13575 4      14.1155530676      18.0000000000
13576 4      12.2950423962      17.0000000000
13577 4      17.6290287275      16.0000000000
13578 4      20.7342124179      22.0000000000
13579 5      19.3671743900      22.0000000000
13580 4      15.6820296906      19.0000000000
13581 4      16.5858404943      17.0000000000
13582 4      16.9600468512      17.0000000000
13583 4      16.8810943010      20.0000000000
13584 4      16.0724038017      18.0000000000
13585 4      17.3775956694      17.0000000000
13586 4      16.3348829089      19.0000000000
13587 4      16.7688658684      21.0000000000
13588 4      16.2546331165      18.0000000000
13589 4      16.2052184048      23.0000000000
13590 4      15.0036402833      14.0000000000
13591 4      16.6329311269      14.0000000000
13592 4      16.3990047871      17.0000000000
13593 4      14.7547253166      18.0000000000
13594 4      19.9731386555      22.0000000000
13595 4      14.7939108936      14.0000000000
13596 4      15.2025526692      15.0000000000
13597 4      18.3398382862      17.0000000000
13598 4      17.0353979219      17.0000000000
13599 4      17.4117864342      16.0000000000
13600 4      14.7934633866      19.0000000000
13601 4      12.9777250048      17.0000000000
13602 4      16.3691555328      19.0000000000
13603 4      14.6884186087      13.0000000000
13604 5      20.9401949134      19.0000000000
13605 4      16.8967908826      20.0000000000
13606 4      18.5222974089      22.0000000000
13607 4      18.1086027965      19.0000000000
13608 4      19.1364765790      20.0000000000
13609 4      16.0366950673      16.0000000000
13610 4      16.0132750805      16.0000000000
13611 4      17.2892123391      21.0000000000
13612 4      16.1102751227      18.0000000000
13613 4      15.3580854944      17.0000000000
13614 4      17.3149311428      19.0000000000
13615 4      17.2151126462      18.0000000000
13616 5      23.2454069200      20.0000000000
13617 4      14.5657232478      16.0000000000
13618 4      16.9731150269      21.0000000000
13619 4      17.8792703868      19.0000000000
13620 5      20.0212072432      18.0000000000
13621 5      19.3948160180      20.0000000000
13622 5      23.9982166747      20.0000000000
13623 4      15.0115446069      15.0000000000
13624 4      15.7084695330      15.0000000000
13625 4      16.5134853793      17.0000000000
13626 4      15.8381645429      14.0000000000
13627 5      21.6387970146      24.0000000000
13628 4      16.1820218758      15.0000000000
13629 4      14.4992586586      19.0000000000
13630 4      17.3579817675      18.0000000000
13631 4      15.8170269473      17.0000000000
13632 5      20.1981070225      17.0000000000
13633 4      16.3208646713      19.0000000000
13634 4      16.0040561382      20.0000000000
13635 4      17.7919859767      17.0000000000
13636 4      18.0812517131      20.0000000000
13637 4      20.6534528253      18.0000000000
13638 4      21.9421051846      24.0000000000
13639 4      15.5875848571      19.0000000000
13640 4      15.3720856601      20.0000000000
13641 4      15.7345304568      18.0000000000
13642 4      15.5462141191      14.0000000000
13643 4      15.9625280312      16.0000000000
13644 5      22.0266402075      22.0000000000
13645 5      19.1338362144      21.0000000000
13646 4      14.0586212646      15.0000000000
13647 4      16.7045616055      13.0000000000
13648 4      17.9225423884      21.0000000000
13649 4      16.6171749048      21.0000000000
13650 4      15.8519057821      15.0000000000
13651 4      18.4227152942      19.0000000000
13652 4      15.6327964839      14.0000000000
13653 4      16.3702558593      16.0000000000
13654 5      21.8293754180      17.0000000000
13655 5      21.4030996347      19.0000000000
13656 4      14.6644679410      17.0000000000
13657 4      16.3746287607      17.0000000000
13658 4      14.7325346882      18.0000000000
13659 4      16.0906421958      15.0000000000
13660 4      18.7003080990      21.0000000000
13661 4      15.2045449794      16.0000000000
13662 5      17.6841617162      18.0000000000
13663 4      19.5288259102      18.0000000000
13664 4      16.1731301298      18.0000000000
13665 4      18.8264724062      21.0000000000
13666 5      21.0209215310      19.0000000000
13667 4      17.2772908043      20.0000000000
13668 4      16.6078784721      15.0000000000
13669 4      15.8204139144      15.0000000000
13670 4      15.8447969702      13.0000000000
13671 4      16.4486750632      20.0000000000
13672 4      17.6936499767      20.0000000000
13673 5      16.7301894790      17.0000000000
13674 4      13.9366296523      13.0000000000
13675 4      18.1187823615      20.0000000000
13676 4      18.4438296392      20.0000000000
13677 4      17.2261342731      21.0000000000
13678 4      17.0229650125      18.0000000000
13679 4      17.7933957770      16.0000000000
13680 4      16.9078500334      17.0000000000
13681 4      15.3026965566      20.0000000000
13682 4      17.8801158983      22.0000000000
13683 4      15.5718167149      15.0000000000
13684 4      21.4277064944      22.0000000000
13685 5      18.2387838246      21.0000000000
13686 4      17.0591238564      20.0000000000
13687 4      17.4682124072      20.0000000000
13688 4      15.8875399454      18.0000000000
13689 4      18.7474674486      19.0000000000
13690 4      15.4557386488      20.0000000000
13691 4      17.6780247312      15.0000000000
13692 4      20.9993915161      20.0000000000
13693 5      21.3547798171      24.0000000000
13694 4      19.3091107302      19.0000000000
13695 4      16.4134834566      22.0000000000
13696 4      16.9099627314      17.0000000000
13697 4      17.3207896607      18.0000000000
13698 5      23.6759686381      26.0000000000
13699 4      19.5183648588      20.0000000000
13700 4      18.6913606923      18.0000000000
13701 5      22.3717891599      19.0000000000
13702 4      17.7012341735      21.0000000000
13703 5      21.9897945281      21.0000000000
13704 4      18.2845733311      19.0000000000
13705 4      18.2875952464      16.0000000000
13706 4      18.4686113206      22.0000000000
13707 4      18.7188801913      19.0000000000
13708 5      24.2503462874      22.0000000000
13709 4      18.3249097060      19.0000000000
13710 4      16.5203103738      19.0000000000
13711 4      14.8023802028      13.0000000000
13712 4      16.2367954935      18.0000000000
13713 4      15.6299028568      17.0000000000
13714 4      15.7698881431      17.0000000000
13715 4      13.2037243960      13.0000000000
13716 4      16.4373883436      20.0000000000
13717 4      15.8670109924      17.0000000000
13718 4      16.3029802869      18.0000000000
13719 4      19.2624735960      19.0000000000
13720 4      14.4571499602      16.0000000000
13721 5      20.9742230912      23.0000000000
13722 4      16.9688087241      16.0000000000
13723 4      19.0298695997      21.0000000000
13724 4      16.1621553244      16.0000000000
13725 4      19.8931010830      19.0000000000
13726 5      21.3053154807      22.0000000000
13727 4      15.1753784148      17.0000000000
13728 4      18.9888484682      23.0000000000
13729 4      21.1910156040      19.0000000000
13730 4      15.1091662926      14.0000000000
13731 4      20.4333913271      19.0000000000
13732 4      16.8177337631      20.0000000000
13733 4      16.2810795734      18.0000000000
13734 4      20.6111306107      24.0000000000
13735 5      20.8360671554      18.0000000000
13736 5      19.8202828970      20.0000000000
13737 4      15.7205360672      15.0000000000
13738 4      14.0996411583      16.0000000000
13739 5      22.0649818255      20.0000000000
13740 4      17.1561399091      17.0000000000
13741 4      25.0440053305      25.0000000000
13742 4      14.6853174747      16.0000000000
13743 4      15.3915473985      15.0000000000
13744 4      16.9834364349      19.0000000000
13745 4      16.8940894707      19.0000000000
13746 4      18.1652655474      19.0000000000
13747 4      21.3691701135      20.0000000000
13748 4      14.3298529231      18.0000000000
13749 5      23.6030084312      22.0000000000
13750 4      14.7606685386      18.0000000000
13751 4      15.7918292258      13.0000000000
13752 5      18.8993582806      21.0000000000
13753 4      23.5367661158      23.0000000000
13754 4      17.3351887614      17.0000000000
13755 4      15.1727744170      16.0000000000
13756 4      17.2431630362      18.0000000000
13757 4      15.9304289448      17.0000000000
13758 5      22.1929348462      22.0000000000
13759 4      17.1810418758      18.0000000000
13760 4      17.3805272184      19.0000000000
13761 5      20.6884228887      21.0000000000
13762 4      14.4227888886      18.0000000000
13763 4      17.4100213499      21.0000000000
13764 4      19.1182722386      19.0000000000
13765 4      13.6835785613      16.0000000000
13766 5      19.0818801329      20.0000000000
13767 4      16.0950904292      21.0000000000
13768 4      16.4260657106      18.0000000000
13769 4      15.9822281610      19.0000000000
13770 5      23.2642010429      21.0000000000
13771 4      20.8217266341      21.0000000000
13772 4      12.6512487520      14.0000000000
13773 4      16.7410435609      21.0000000000
13774 4      15.9648160883      17.0000000000
13775 4      18.8968349146      17.0000000000
13776 5      21.5039588396      20.0000000000
13777 4      18.4089457353      18.0000000000
13778 4      17.2588498767      21.0000000000
13779 4      17.9908368573      19.0000000000
13780 4      20.3750942245      18.0000000000
13781 5      21.1745570941      22.0000000000
13782 4      18.4798058492      21.0000000000
13783 4      18.1040837018      18.0000000000
13784 5      19.9011716975      24.0000000000
13785 4      22.2065692902      20.0000000000
13786 5      19.4455221278      19.0000000000
13787 4      18.3903965431      23.0000000000
13788 4      18.3715297328      17.0000000000
13789 4      18.6518982269      16.0000000000
13790 5      22.8839679041      21.0000000000
13791 4      16.1521435755      17.0000000000
13792 4      18.4403920750      18.0000000000
13793 4      15.6176494609      16.0000000000
13794 4      18.9325013833      15.0000000000
13795 4      14.7142625162      16.0000000000
13796 4      16.7893047319      19.0000000000
13797 4      17.6492223809      16.0000000000
13798 4      14.8105308341      14.0000000000
13799 4      16.2509856514      18.0000000000
13800 4      17.4126892839      16.0000000000
13801 5      18.0212930045      20.0000000000
13802 4      18.6615474535      19.0000000000
13803 4      18.3841766700      17.0000000000
13804 4      18.0284288430      18.0000000000
13805 4      13.9886652581      14.0000000000
13806 4      14.3562758932      19.0000000000
13807 4      19.6297362748      18.0000000000
13808 4      18.6850969530      21.0000000000
13809 5      22.7860197580      26.0000000000
13810 4      18.6912226431      22.0000000000
13811 4      20.7941168333      19.0000000000
13812 4      18.9828610529      19.0000000000
13813 4      14.9865744142      17.0000000000
13814 4      18.7831652368      20.0000000000
13815 4      17.8578277344      15.0000000000
13816 4      14.5817002707      19.0000000000
13817 4      18.9473551389      18.0000000000
13818 4      18.8231571885      18.0000000000
13819 4      15.4041392559      17.0000000000
13820 4      13.7709091354      16.0000000000
13821 5      19.0334299916      19.0000000000
13822 5      15.9340089251      15.0000000000
13823 4      18.8734888255      17.0000000000
13824 4      17.6554313863      17.0000000000
13825 5      22.2590876493      19.0000000000
13826 4      18.5699655702      20.0000000000
13827 4      16.2616234573      19.0000000000
13828 4      17.5627602214      16.0000000000
13829 4      15.9267054414      19.0000000000
13830 4      18.5595752037      15.0000000000
13831 4      19.0747272289      20.0000000000
13832 4      17.9109671842      17.0000000000
13833 4      17.1792439811      21.0000000000
13834 5      19.0464548330      18.0000000000
13835 5      19.4087100921      21.0000000000
13836 5      20.7936718817      18.0000000000
13837 4      18.1465157944      22.0000000000
13838 5      20.9572907662      16.0000000000
13839 4      19.3319383324      21.0000000000
13840 5      20.9141269335      18.0000000000
13841 4      15.5599473768      21.0000000000
13842 5      20.6938801888      22.0000000000
13843 4      17.2589705386      19.0000000000
13844 4      16.0474340523      18.0000000000
13845 4      16.7059813835      19.0000000000
13846 5      21.0409027868      21.0000000000
13847 4      18.4308750857      20.0000000000
13848 4      18.4156732704      23.0000000000
13849 4      16.4833948176      19.0000000000
13850 4      16.6625303578      18.0000000000
13851 4      13.8816750735      15.0000000000
13852 4      26.7986361924      24.0000000000
13853 4      18.2916564590      20.0000000000
13854 4      19.2047705012      21.0000000000
13855 4      17.7559495729      21.0000000000
13856 4      18.2279081799      17.0000000000
13857 4      17.4308154999      17.0000000000
13858 4      17.6130005251      18.0000000000
13859 4      20.0794916121      21.0000000000
13860 4      16.2111931466      21.0000000000
13861 4      16.0805905646      18.0000000000
13862 5      23.1086050750      25.0000000000
13863 4      18.1174309347      19.0000000000
13864 4      17.9025298202      16.0000000000
13865 4      16.6049658947      18.0000000000
13866 4      15.2965695590      20.0000000000
13867 5      21.3625794553      20.0000000000
13868 4      17.6973525688      19.0000000000
13869 4      18.0632266151      21.0000000000
13870 4      13.6023420748      15.0000000000
13871 4      15.1963644391      13.0000000000
13872 4      15.9027791501      19.0000000000
13873 4      18.3649310599      18.0000000000
13874 4      16.1282306369      16.0000000000
13875 4      16.5189310341      15.0000000000
13876 4      18.6442762508      23.0000000000
13877 5      24.9046695823      20.0000000000
13878 4      18.8975602255      19.0000000000
13879 4      19.4689771163      18.0000000000
13880 4      16.5714359530      19.0000000000
13881 4      16.5077107541      23.0000000000
13882 4      16.3603153863      19.0000000000
13883 4      17.7301042163      21.0000000000
13884 4      16.8866436900      18.0000000000
13885 5      19.9489612234      19.0000000000
13886 4      16.6795484765      18.0000000000
13887 4      21.1969929904      20.0000000000
13888 4      16.3142767479      18.0000000000
13889 4      16.6995226768      17.0000000000
13890 4      18.8233120688      19.0000000000
13891 4      16.0615698158      17.0000000000
13892 4      17.9414200542      21.0000000000
13893 4      17.6107713702      21.0000000000
13894 5      26.1524657251      22.0000000000
13895 5      18.3946133138      23.0000000000
13896 5      19.3465558475      17.0000000000
13897 4      20.9270484348      26.0000000000
13898 4      16.3793605187      16.0000000000
13899 4      16.6636062805      20.0000000000
13900 4      17.9331884417      15.0000000000
13901 4      14.9096109541      15.0000000000
13902 4      17.0532107801      19.0000000000
13903 5      20.1383931707      17.0000000000
13904 5      21.7432279984      19.0000000000
13905 5      17.7011861114      18.0000000000
13906 4      19.2995000095      21.0000000000
13907 5      18.6993468945      19.0000000000
13908 5      21.8100733854      20.0000000000
13909 5      17.5292121631      17.0000000000
13910 4      15.0006810940      18.0000000000
13911 5      21.2832500660      21.0000000000
13912 4      14.4819476393      17.0000000000
13913 4      18.5735084763      17.0000000000
13914 4      19.1652520234      19.0000000000
13915 5      20.3733666150      21.0000000000
13916 5      21.5365119038      24.0000000000
13917 4      18.2410624029      18.0000000000
13918 4      18.1733478685      18.0000000000
13919 4      18.8338339801      18.0000000000
13920 4      16.8694041652      18.0000000000
13921 4      16.2746473548      18.0000000000
13922 4      18.3901826422      20.0000000000
13923 4      18.3442767190      16.0000000000
13924 4      17.3958127356      17.0000000000
13925 5      18.2064709942      20.0000000000
13926 4      18.4248727889      19.0000000000
13927 4      17.4229963610      15.0000000000
13928 4      18.3174741383      20.0000000000
13929 5      21.4780724848      16.0000000000
13930 4      19.7476708240      18.0000000000
13931 4      16.7597904523      16.0000000000
13932 5      27.5677776432      26.0000000000
13933 4      18.8949874274      18.0000000000
13934 4      19.0189701631      21.0000000000
13935 4      17.6528686046      19.0000000000
13936 4      16.6015018967      20.0000000000
13937 4      18.7468558748      18.0000000000
13938 4      17.4294909246      16.0000000000
13939 5      22.8751008595      22.0000000000
13940 4      18.0648735616      23.0000000000
13941 4      17.4864081326      22.0000000000
13942 5      20.6405232648      19.0000000000
13943 4      13.3062867357      16.0000000000
13944 4      17.6584305726      16.0000000000
13945 4      20.4060011515      19.0000000000
13946 4      18.0098962434      17.0000000000
13947 4      16.3767760566      17.0000000000
13948 4      20.3842021249      25.0000000000
13949 4      22.2950073231      20.0000000000
13950 4      18.0239401403      20.0000000000
13951 4      17.5180279311      19.0000000000
13952 4      20.6356634667      20.0000000000
13953 4      19.5668496572      21.0000000000
13954 5      19.2127864188      16.0000000000
13955 4      18.1848398997      17.0000000000
13956 4      14.6335411640      18.0000000000
13957 4      15.4753346320      16.0000000000
13958 5      23.0848787360      23.0000000000
13959 4      15.9846165926      17.0000000000
13960 4      18.3507220962      15.0000000000
13961 4      15.6011718458      18.0000000000
13962 4      25.8857659651      20.0000000000
13963 5      15.9471901357      19.0000000000
13964 4      17.8312874568      21.0000000000
13965 4      14.3028557168      16.0000000000
13966 4      16.1515994161      19.0000000000
13967 4      17.4591064881      18.0000000000
13968 4      20.9780934898      21.0000000000
13969 4      14.8421266077      16.0000000000
13970 4      16.4884956795      16.0000000000
13971 4      20.4196816440      22.0000000000
13972 4      16.7921378727      19.0000000000
13973 4      14.6250760596      13.0000000000
13974 5      19.0055287974      16.0000000000
13975 4      15.8113222185      17.0000000000
13976 4      16.2613983220      16.0000000000
13977 4      15.0827723562      18.0000000000
13978 4      21.0654630815      17.0000000000
13979 4      19.4114552817      21.0000000000
13980 4      16.7211337425      16.0000000000
13981 4      15.1415071319      19.0000000000
13982 5      24.4812479907      19.0000000000
13983 4      18.1370302191      25.0000000000
13984 5      22.4588589437      21.0000000000
13985 4      17.1476228051      21.0000000000
13986 4      19.2117473634      20.0000000000
13987 4      19.7750962466      23.0000000000
13988 5      20.2684673157      17.0000000000
13989 4      12.7450502051      14.0000000000
13990 5      30.1341147964      27.0000000000
13991 4      15.7263850226      17.0000000000
13992 4      21.0848895951      24.0000000000
13993 4      15.9907268205      17.0000000000
13994 4      17.8026268105      16.0000000000
13995 4      19.0396938216      21.0000000000
13996 5      17.8985694250      22.0000000000
13997 4      17.1229426379      18.0000000000
13998 4      14.9886744935      15.0000000000
13999 4      18.7253211711      21.0000000000
14000 4      18.2677587456      17.0000000000
14001 4      15.2902070889      13.0000000000
14002 4      17.5101636788      19.0000000000
14003 4      17.3326174829      15.0000000000
14004 4      18.6777911800      17.0000000000
14005 4      16.5633776090      17.0000000000
14006 4      16.8909989106      14.0000000000
14007 5      24.3004137244      24.0000000000
14008 4      16.2821151336      20.0000000000
14009 4      18.2029023383      19.0000000000
14010 4      21.0548913078      19.0000000000
14011 4      19.4061491560      17.0000000000
14012 4      16.3362290513      18.0000000000
14013 4      20.0753741186      23.0000000000
14014 4      17.7852834860      18.0000000000
14015 4      15.3149981629      18.0000000000
14016 4      19.7359803984      19.0000000000
14017 4      12.9374193028      13.0000000000
14018 4      18.1646863874      21.0000000000
14019 4      14.5188473537      15.0000000000
14020 4      17.9654379693      19.0000000000
14021 5      23.0587820561      25.0000000000
14022 4      18.4465809403      20.0000000000
14023 4      15.3872307755      16.0000000000
14024 4      20.2025144487      21.0000000000
14025 4      17.7953149893      18.0000000000
14026 4      13.4615554928      12.0000000000
14027 4      19.9151262933      21.0000000000
14028 4      14.7781316876      16.0000000000
14029 4      12.3807536267      15.0000000000
14030 5      21.4951961598      23.0000000000
14031 4      13.8002672390      13.0000000000
14032 4      15.0082808106      16.0000000000
14033 4      15.4126056386      17.0000000000
14034 4      17.5699632309      18.0000000000
14035 4      19.3546561999      22.0000000000
14036 4      18.5055732157      19.0000000000
14037 4      15.4199781809      17.0000000000
14038 5      22.5751670258      25.0000000000
14039 4      17.6074686234      22.0000000000
14040 4      18.9482106291      17.0000000000
14041 5      18.8186814763      20.0000000000
14042 4      19.1164764975      21.0000000000
14043 4      17.2141876844      18.0000000000
14044 4      15.0783230001      15.0000000000
14045 4      16.9441005001      19.0000000000
14046 5      23.2289218210      26.0000000000
14047 4      15.8017538751      18.0000000000
14048 4      17.4534644037      18.0000000000
14049 5      20.2119966964      18.0000000000
14050 4      17.1389766357      21.0000000000
14051 4      18.2227749844      16.0000000000
14052 4      14.1373688992      16.0000000000
14053 4      14.4736644072      17.0000000000
14054 4      17.6565997859      13.0000000000
14055 4      16.8944025540      19.0000000000
14056 4      15.5991359082      16.0000000000
14057 4      15.2662217837      15.0000000000
14058 5      19.0262979878      18.0000000000
14059 4      14.2842034426      16.0000000000
14060 4      17.1961229622      18.0000000000
14061 4      13.9709763106      14.0000000000
14062 4      17.8910969127      17.0000000000
14063 4      15.9037673269      15.0000000000
14064 4      18.3595526915      16.0000000000
14065 5      19.7003236951      19.0000000000
14066 4      15.9895878346      16.0000000000
14067 4      21.1198902676      24.0000000000
14068 4      15.0231377269      16.0000000000
14069 4      15.6824383987      18.0000000000
14070 4      16.7362587176      19.0000000000
14071 4      15.0327462391      18.0000000000
14072 4      20.3594454748      20.0000000000
14073 5      23.3908852832      17.0000000000
14074 5      19.4848306488      16.0000000000
14075 4      18.1365616281      17.0000000000
14076 5      20.9371698010      20.0000000000
14077 4      17.4144694291      18.0000000000
14078 4      15.1642516314      18.0000000000
14079 4      19.0924856724      18.0000000000
14080 4      17.0814689990      20.0000000000
14081 4      13.4222865904      19.0000000000
14082 4      17.9477533337      17.0000000000
14083 4      17.3231072898      16.0000000000
14084 4      18.2272908419      18.0000000000
14085 4      23.2360115509      23.0000000000
14086 5      22.2316311725      21.0000000000
14087 4      18.1430005884      21.0000000000
14088 4      18.1184127684      18.0000000000
14089 4      15.5771901509      19.0000000000
14090 4      14.5663658915      16.0000000000
14091 5      18.8941572628      19.0000000000
14092 4      15.6049796070      18.0000000000
14093 5      21.4023965150      22.0000000000
14094 4      19.9206046162      22.0000000000
14095 5      18.4896310203      20.0000000000
14096 4      21.0391351465      23.0000000000
14097 4      15.3677457451      16.0000000000
14098 4      15.5988201437      16.0000000000
14099 5      18.0016804157      19.0000000000
14100 4      18.4976995669      18.0000000000
14101 4      18.9930572442      24.0000000000
14102 4      18.9346848442      18.0000000000
14103 4      18.6091760495      19.0000000000
14104 4      16.2496067666      18.0000000000
14105 5      22.6035872938      21.0000000000
14106 4      15.9619703357      16.0000000000
14107 4      17.4811734102      20.0000000000
14108 5      20.6105842490      20.0000000000
14109 5      21.1331155873      20.0000000000
14110 5      18.8871611367      18.0000000000
14111 4      16.6109196313      21.0000000000
14112 5      18.3854521428      19.0000000000
14113 4      16.8565323980      18.0000000000
14114 5      22.2015834844      21.0000000000
14115 4      20.1278836526      22.0000000000
14116 4      19.2240082402      20.0000000000
14117 4      16.7631996036      16.0000000000
14118 4      17.3523245281      16.0000000000
14119 4      16.8574168022      20.0000000000
14120 4      17.1723806376      20.0000000000
14121 4      19.0035649430      17.0000000000
14122 4      17.7495044524      17.0000000000
14123 5      20.5041312194      15.0000000000
14124 4      16.4892426297      20.0000000000
14125 4      16.0459476598      19.0000000000
14126 4      14.5170813464      15.0000000000
14127 4      14.4732306063      12.0000000000
14128 4      17.2911173157      16.0000000000
14129 5      19.5399996909      20.0000000000
14130 4      16.9964234315      19.0000000000
14131 5      23.8090502238      19.0000000000
14132 4      18.1608541155      21.0000000000
14133 4      16.5164004281      21.0000000000
14134 4      14.9799331106      14.0000000000
14135 4      17.5094437141      19.0000000000
14136 4      20.3880448646      20.0000000000
14137 4      16.8433942714      19.0000000000
14138 5      20.3995282248      14.0000000000
14139 4      14.1819727514      19.0000000000
14140 4      14.7087728997      18.0000000000
14141 5      18.8796991157      17.0000000000
14142 4      17.7229284006      19.0000000000
14143 5      19.5225395420      18.0000000000
14144 5      18.8277146777      18.0000000000
14145 4      21.7433575536      27.0000000000
14146 4      16.7449174257      15.0000000000
14147 4      17.0372185657      18.0000000000
14148 4      18.0313997027      20.0000000000
14149 4      19.2314826362      25.0000000000
14150 4      23.2380705821      21.0000000000
14151 4      17.3306559339      19.0000000000
14152 5      30.2571727068      27.0000000000
14153 5      19.7443658111      16.0000000000
14154 4      16.5116438270      18.0000000000
14155 5      17.1637458032      18.0000000000
14156 4      14.6923669670      16.0000000000
14157 5      19.7216803684      20.0000000000
14158 4      16.4985282909      19.0000000000
14159 4      19.8170508581      21.0000000000
14160 5      22.9636810485      24.0000000000
14161 4      16.5619315533      17.0000000000
14162 4      22.5101215566      24.0000000000
14163 4      18.6682062165      19.0000000000
14164 4      16.1468784115      19.0000000000
14165 5      21.3247155777      26.0000000000
14166 4      17.2638751061      18.0000000000
14167 5      21.1388042509      17.0000000000
14168 4      19.1179456946      22.0000000000
14169 4      18.4381671217      20.0000000000
14170 4      18.2164959012      19.0000000000
14171 4      15.1471598802      17.0000000000
14172 5      18.4348565327      18.0000000000
14173 4      15.7842910443      17.0000000000
14174 4      26.4998074336      27.0000000000
14175 4      15.6422993797      17.0000000000
14176 4      20.6188039146      22.0000000000
14177 4      16.9349162442      21.0000000000
14178 4      15.1556701121      20.0000000000
14179 4      18.2103444276      20.0000000000
14180 4      18.3324682878      17.0000000000
14181 4      14.0242890418      18.0000000000
14182 5      19.5901321139      20.0000000000
14183 4      18.4380442677      20.0000000000
14184 5      25.4455071430      27.0000000000
14185 5      23.3684603608      22.0000000000
14186 4      14.6897515271      17.0000000000
14187 4      15.9555670949      17.0000000000
14188 4      18.6331261668      18.0000000000
14189 4      22.8731983220      23.0000000000
14190 4      16.0873129499      19.0000000000
14191 5      21.9171195296      18.0000000000
14192 4      17.4035466879      18.0000000000
14193 5      20.0482666724      20.0000000000
14194 5      20.7853449053      23.0000000000
14195 4      16.5341378894      18.0000000000
14196 4      15.4856338416      18.0000000000
14197 5      17.7810409610      18.0000000000
14198 4      15.2708091698      18.0000000000
14199 4      21.7071106927      21.0000000000
14200 4      17.5342824551      20.0000000000
14201 4      15.9049172602      17.0000000000
14202 4      21.5142205785      20.0000000000
14203 5      24.7469946421      27.0000000000
14204 4      14.4550939211      13.0000000000
14205 5      19.3177350195      20.0000000000
14206 4      15.9692658587      13.0000000000
14207 4      21.5731091702      17.0000000000
14208 5      18.5423045056      22.0000000000
14209 4      17.5190055835      18.0000000000
14210 4      19.3661819285      18.0000000000
14211 4      16.7529090829      15.0000000000
14212 4      16.3799457165      16.0000000000
14213 4      20.5682228755      16.0000000000
14214 5      20.7847345323      19.0000000000
14215 4      15.8061625081      17.0000000000
14216 5      23.0418502070      23.0000000000
14217 5      22.4703432781      24.0000000000
14218 4      16.7632616097      16.0000000000
14219 4      13.6041322821      12.0000000000
14220 5      21.2137801366      23.0000000000
14221 4      15.1375601743      17.0000000000
14222 4      20.6250756691      19.0000000000
14223 5      23.2349281750      21.0000000000
14224 4      18.3961225441      20.0000000000
14225 5      26.0359088340      22.0000000000
14226 4      20.9089536150      20.0000000000
14227 4      17.2098825195      17.0000000000
14228 4      16.3470698459      18.0000000000
14229 4      17.5978228947      17.0000000000
14230 4      19.7681076818      20.0000000000
14231 5      20.3536070047      18.0000000000
14232 5      21.1049254762      21.0000000000
14233 4      17.5954490598      14.0000000000
14234 4      18.9967298445      21.0000000000
14235 5      21.1740006716      20.0000000000
14236 4      16.8524894248      19.0000000000
14237 4      18.6311548869      19.0000000000
14238 4      13.9125216754      15.0000000000
14239 4      19.1829024411      18.0000000000
14240 4      16.3738752727      16.0000000000
14241 4      15.5461684004      14.0000000000
14242 5      22.9324475292      22.0000000000
14243 4      17.2096353492      18.0000000000
14244 4      17.1548670643      19.0000000000
14245 4      15.7684170290      17.0000000000
14246 4      18.8469049713      21.0000000000
14247 5      23.2659646776      19.0000000000
14248 4      14.7504721940      18.0000000000
14249 4      16.1025125104      17.0000000000
14250 4      14.5747585862      16.0000000000
14251 4      18.8626306238      19.0000000000
14252 4      16.2660798716      14.0000000000
14253 4      13.9914944739      14.0000000000
14254 4      18.0743689208      18.0000000000
14255 4      17.5834622403      19.0000000000
14256 4      17.6911953040      21.0000000000
14257 4      17.4595955543      19.0000000000
14258 5      19.7645552039      20.0000000000
14259 4      18.2963380277      23.0000000000
14260 4      15.0465525267      14.0000000000
14261 4      16.0257721832      14.0000000000
14262 4      15.6907993353      15.0000000000
14263 4      17.4612529872      15.0000000000
14264 4      19.6088885729      17.0000000000
14265 5      19.0775116744      19.0000000000
14266 4      25.7022617768      25.0000000000
14267 4      17.4525386725      20.0000000000
14268 5      21.3584531511      18.0000000000
14269 4      15.3248821601      17.0000000000
14270 4      17.7254993390      17.0000000000
14271 5      17.8925423414      19.0000000000
14272 4      17.8585740688      15.0000000000
14273 4      16.5407754682      21.0000000000
14274 4      13.7748546953      14.0000000000
14275 4      16.7981796251      19.0000000000
14276 4      14.8708065540      16.0000000000
14277 4      15.4296445373      23.0000000000
14278 5      21.1419532527      20.0000000000
14279 5      22.3634120670      16.0000000000
14280 4      15.5716174416      16.0000000000
14281 4      16.6446385736      15.0000000000
14282 4      18.7453930268      15.0000000000
14283 4      18.0497557012      17.0000000000
14284 4      19.8507305437      21.0000000000
14285 4      18.3514269218      18.0000000000
14286 4      15.2643032464      19.0000000000
14287 5      20.2468849035      18.0000000000
14288 5      19.7664613525      20.0000000000
14289 4      16.7033358285      15.0000000000
14290 5      19.4702229258      18.0000000000
14291 4      16.8276319289      16.0000000000
14292 4      13.8919364358      15.0000000000
14293 5      17.2728795907      19.0000000000
14294 4      16.6150756978      19.0000000000
14295 4      16.6181712418      15.0000000000
14296 4      17.0081080798      18.0000000000
14297 5      22.0238715284      22.0000000000
14298 4      16.9418667150      19.0000000000
14299 4      17.6370471726      17.0000000000
14300 4      19.1651456447      19.0000000000
14301 5      18.2750589008      18.0000000000
14302 4      16.1425057311      20.0000000000
14303 4      18.5176309913      20.0000000000
14304 4      16.2651429555      14.0000000000
14305 4      15.9939647068      17.0000000000
14306 4      16.9301799144      17.0000000000
14307 4      19.4867654061      21.0000000000
14308 4      21.1696594791      22.0000000000
14309 4      19.3842673285      20.0000000000
14310 5      20.3572734288      19.0000000000
14311 4      15.4046936738      17.0000000000
14312 4      16.3540998266      15.0000000000
14313 5      18.6184167007      22.0000000000
14314 4      19.2718902420      18.0000000000
14315 4      18.5375547463      19.0000000000
14316 4      18.2817920536      19.0000000000
14317 4      18.3980977029      20.0000000000
14318 4      13.8851537829      13.0000000000
14319 4      16.5687550236      19.0000000000
14320 4      16.6059383275      18.0000000000
14321 5      24.8662052970      21.0000000000
14322 4      17.9695614068      18.0000000000
14323 4      15.0161189761      13.0000000000
14324 5      20.5242026087      24.0000000000
14325 4      16.4909341465      15.0000000000
14326 4      20.5574798468      24.0000000000
14327 4      16.6706894974      20.0000000000
14328 5      23.3794279961      20.0000000000
14329 4      16.6763142013      17.0000000000
14330 4      16.1700957129      17.0000000000
14331 4      20.7067856982      17.0000000000
14332 4      19.1853852478      18.0000000000
14333 4      15.4298306909      14.0000000000
14334 4      16.3049694577      16.0000000000
14335 4      19.2364017143      22.0000000000
14336 4      16.5761068463      19.0000000000
14337 4      16.2946761604      17.0000000000
14338 4      13.4331782418      14.0000000000
14339 4      19.0769565352      20.0000000000
14340 5      22.4385703616      18.0000000000
14341 4      17.9826603887      21.0000000000
14342 5      16.8027557776      19.0000000000
14343 4      16.0811811262      16.0000000000
14344 4      18.6288147728      22.0000000000
14345 4      15.4930827084      15.0000000000
14346 5      18.0028298655      18.0000000000
14347 5      19.7675982647      18.0000000000
14348 4      17.2193561280      23.0000000000
14349 4      17.8661443575      19.0000000000
14350 4      15.2930547249      17.0000000000
14351 4      15.3883073546      16.0000000000
14352 5      20.0457915881      16.0000000000
14353 5      26.2011468010      17.0000000000
14354 4      15.7761312131      16.0000000000
14355 4      18.7365700418      16.0000000000
14356 4      16.1983187812      15.0000000000
14357 5      23.0168472704      24.0000000000
14358 4      20.9991150407      20.0000000000
14359 4      17.8586090118      13.0000000000
14360 5      20.5001045888      20.0000000000
14361 4      17.3672879601      18.0000000000
14362 4      14.9949327489      16.0000000000
14363 4      14.6905220609      17.0000000000
14364 4      16.9883686536      22.0000000000
14365 4      15.5932572114      19.0000000000
14366 5      21.5436546984      22.0000000000
14367 4      18.1030798725      17.0000000000
14368 5      22.3307384568      21.0000000000
14369 4      17.7277660635      18.0000000000
14370 4      16.1305265867      17.0000000000
14371 4      19.4329706366      17.0000000000
14372 4      19.3364282192      22.0000000000
14373 4      15.8795607820      17.0000000000
14374 4      14.4329186246      13.0000000000
14375 4      18.6294531397      20.0000000000
14376 4      16.1473981838      14.0000000000
14377 5      19.0426668348      22.0000000000
14378 5      18.3244257997      20.0000000000
14379 4      15.0582884061      17.0000000000
14380 4      15.6916361697      18.0000000000
14381 4      21.2306950869      21.0000000000
14382 4      17.6023615189      21.0000000000
14383 4      18.0944030457      20.0000000000
14384 4      16.5437177239      18.0000000000
14385 4      19.1872240127      15.0000000000
14386 4      18.7841248000      20.0000000000
14387 4      15.4466668481      18.0000000000
14388 4      17.1504282902      18.0000000000
14389 4      17.9696844287      19.0000000000
14390 4      14.1310658199      14.0000000000
14391 4      18.1836399401      17.0000000000
14392 4      17.7102498640      18.0000000000
14393 4      15.8998400998      16.0000000000
14394 4      16.0050390728      18.0000000000
14395 5      22.6018157140      21.0000000000
14396 4      19.4457660910      20.0000000000
14397 4      16.5969510123      17.0000000000
14398 4      23.2570483852      24.0000000000
14399 4      18.4632589447      22.0000000000
14400 4      19.8822122602      20.0000000000
14401 4      14.9098716408      16.0000000000
14402 4      19.6899138721      18.0000000000
14403 4      17.2314397959      17.0000000000
14404 4      14.4548214099      12.0000000000
14405 4      16.4140774693      18.0000000000
14406 4      16.0868903130      16.0000000000
14407 4      15.9128956365      17.0000000000
14408 5      24.8327306221      20.0000000000
14409 5      20.9256040325      21.0000000000
14410 4      19.9825789175      21.0000000000
14411 4      19.1885397986      20.0000000000
14412 5      21.3673775926      22.0000000000
14413 5      20.6704959952      18.0000000000
14414 4      17.1287161203      16.0000000000
14415 4      17.5489167244      17.0000000000
14416 4      15.1437554774      15.0000000000
14417 5      18.0305229889      17.0000000000
14418 4      15.7767340341      17.0000000000
14419 4      14.4560473724      16.0000000000
14420 5      20.5094258827      19.0000000000
14421 4      13.5459454809      15.0000000000
14422 4      14.8974638118      19.0000000000
14423 5      19.8401312224      19.0000000000
14424 4      15.6201384559      17.0000000000
14425 4      15.6623688051      18.0000000000
14426 4      17.6048000077      21.0000000000
14427 4      22.1479799833      22.0000000000
14428 5      22.3461834344      20.0000000000
14429 4      22.6350507248      24.0000000000
14430 4      18.6882180319      21.0000000000
14431 5      21.4083791701      21.0000000000
14432 4      20.1368852922      21.0000000000
14433 4      18.2405164650      22.0000000000
14434 5      29.5212523109      27.0000000000
14435 4      18.7363941157      20.0000000000
14436 4      17.1752550879      16.0000000000
14437 4      16.9328625077      23.0000000000
14438 4      20.5389689240      21.0000000000
14439 4      17.9077322189      19.0000000000
14440 4      22.0933297672      20.0000000000
14441 4      19.7348968536      23.0000000000
14442 4      16.8580127365      18.0000000000
14443 4      15.8433921943      21.0000000000
14444 4      16.7489640771      17.0000000000
14445 4      14.7606775058      18.0000000000
14446 4      19.9200365964      19.0000000000
14447 4      17.7002606426      24.0000000000
14448 4      15.6380623989      17.0000000000
14449 4      16.6966354028      17.0000000000
14450 4      16.0397375958      20.0000000000
14451 5      18.3803757263      17.0000000000
14452 4      15.9014003623      13.0000000000
14453 4      18.3572208120      18.0000000000
14454 4      15.1448937746      16.0000000000
14455 4      18.5013317204      18.0000000000
14456 4      19.7206997763      20.0000000000
14457 4      15.7473744459      19.0000000000
14458 4      22.8772647375      26.0000000000
14459 4      16.3934827991      18.0000000000
14460 5      17.3578749816      17.0000000000
14461 4      17.5696511403      19.0000000000
14462 4      23.1624579277      20.0000000000
14463 4      19.0940488562      21.0000000000
14464 4      15.2710418322      19.0000000000
14465 4      17.8205201676      18.0000000000
14466 4      17.2506391217      21.0000000000
14467 4      19.7217033098      19.0000000000
14468 4      21.1547460888      21.0000000000
14469 4      15.2592119873      15.0000000000
14470 4      21.4563784093      19.0000000000
14471 4      17.3050701514      20.0000000000
14472 5      16.7901036684      13.0000000000
14473 5      19.7213168075      19.0000000000
14474 4      18.7123801721      22.0000000000
14475 4      15.5388666042      18.0000000000
14476 4      14.9700206847      15.0000000000
14477 4      16.8866021844      19.0000000000
14478 4      18.4730799261      21.0000000000
14479 4      16.2334101572      18.0000000000
14480 4      17.1828188856      20.0000000000
14481 5      21.1820299020      21.0000000000
14482 4      21.1071792950      22.0000000000
14483 5      21.3464479430      18.0000000000
14484 5      19.7667718765      18.0000000000
14485 4      20.2488100721      20.0000000000
14486 4      21.1912712251      20.0000000000
14487 4      18.0790632664      17.0000000000
14488 4      18.3250969721      20.0000000000
14489 4      16.5538771716      18.0000000000
14490 4      16.5385863803      19.0000000000
14491 4      15.2387983379      16.0000000000
14492 5      19.8532275171      21.0000000000
14493 4      13.7503577125      17.0000000000
14494 4      17.4973942198      20.0000000000
14495 4      16.0280424418      15.0000000000
14496 4      15.0653389202      16.0000000000
14497 4      17.3409514396      21.0000000000
14498 4      14.9843944048      17.0000000000
14499 4      14.5230408979      15.0000000000
14500 4      15.7945674592      17.0000000000
