ITEM: TIMESTEP
0
ITEM: NUMBER OF ATOMS
15000
ITEM: BOX BOUNDS pp pp pp
2.9731964182460402e-01 5.8857315403342199e+01
2.9731964182460402e-01 5.8857315403342199e+01
2.9731964182460402e-01 5.8857315403342199e+01
ITEM: ATOMS id type c_voro[1] c_voro[2]
1 1       7.1523772949       9.0000000000
2 1       7.0871656256       9.0000000000
3 1       7.4416336155      10.0000000000
4 1       7.1442731311      10.0000000000
5 1       7.2436198696       8.0000000000
6 1       7.2147735262      10.0000000000
7 1       8.0367296358      10.0000000000
8 1       7.0488390387      11.0000000000
9 1       6.6715607197       8.0000000000
10 1       7.3588286216       8.0000000000
11 1       7.0902492092      12.0000000000
12 1       7.6489496333      11.0000000000
13 1       7.4005205082       9.0000000000
14 1       7.0519170718       8.0000000000
15 1       6.9970672395       7.0000000000
16 1       7.3474877348      12.0000000000
17 1       7.3581032228      10.0000000000
18 1       6.8193651162       8.0000000000
19 1       7.6731135572      10.0000000000
20 1       7.9769683447       9.0000000000
21 1       7.2758218391       9.0000000000
22 1       6.9492688424       9.0000000000
23 1       7.3015641310       9.0000000000
24 1       7.2246672677       7.0000000000
25 1       7.1537032682       8.0000000000
26 1       7.4848415836      12.0000000000
27 1       7.6284229300       9.0000000000
28 1       6.8013510210      10.0000000000
29 1       6.9652894250       9.0000000000
30 1       7.1870499789       9.0000000000
31 1       7.2656217273      11.0000000000
32 1       6.9486387143      10.0000000000
33 1       7.2378890344       9.0000000000
34 1       6.9726875628       8.0000000000
35 1       7.6221853804      10.0000000000
36 1       7.4252474341       9.0000000000
37 1       7.6251208376       8.0000000000
38 1       7.9587595689      12.0000000000
39 1       7.1665242627       9.0000000000
40 1       7.1055293623       9.0000000000
41 1       7.0051500502       8.0000000000
42 1       7.2922683297       9.0000000000
43 1       6.8694023794       9.0000000000
44 1       7.1894270737       9.0000000000
45 1       6.8241096341       9.0000000000
46 1       7.2266533134       9.0000000000
47 1       7.1200135742       9.0000000000
48 1       7.0545103800       9.0000000000
49 1       7.4425215255      10.0000000000
50 1       7.3839755175       7.0000000000
51 1       6.9313776080       8.0000000000
52 1       7.3116876526       9.0000000000
53 1       7.2309640548       6.0000000000
54 1       7.1871960503       8.0000000000
55 1       6.9698849922       8.0000000000
56 1       6.9638637735       9.0000000000
57 1       7.7887242075      13.0000000000
58 1       7.8255148907      10.0000000000
59 1       7.0119436642       9.0000000000
60 1       7.0528314534       8.0000000000
61 1       7.3897615569      13.0000000000
62 1       6.6577445974       8.0000000000
63 1       7.8599589133       8.0000000000
64 1       6.9075690130      11.0000000000
65 1       7.6796439638      11.0000000000
66 1       6.7487189018      10.0000000000
67 1       7.1318154728       7.0000000000
68 1       7.0235540348       9.0000000000
69 1       7.1770083143      10.0000000000
70 1       7.4875912426       8.0000000000
71 1       6.8951043072      10.0000000000
72 1       7.2416897741       9.0000000000
73 1       7.7254748913      11.0000000000
74 1       7.5333228724       9.0000000000
75 1       7.7888439689      11.0000000000
76 1       6.7095568156      11.0000000000
77 1       7.3483496455      11.0000000000
78 1       7.6407342112       9.0000000000
79 1       7.0378478616      11.0000000000
80 1       7.2326424772       9.0000000000
81 1       6.9643391274       8.0000000000
82 1       7.3924968652      12.0000000000
83 1       7.5310486780       9.0000000000
84 1       7.2288393047      10.0000000000
85 1       7.4142098142       9.0000000000
86 1       7.6969952359      11.0000000000
87 1       7.4538409513      12.0000000000
88 1       7.2027733057      11.0000000000
89 1       7.2123306119      10.0000000000
90 1       6.9639555571      11.0000000000
91 1       7.2645203351       8.0000000000
92 1       6.9832393257      10.0000000000
93 1       7.1820528805      10.0000000000
94 1       7.2202385473      13.0000000000
95 1       7.6152655917      11.0000000000
96 1       7.7105833940       8.0000000000
97 1       6.8312786175       9.0000000000
98 1       7.2688548662      10.0000000000
99 1       7.7063585970      10.0000000000
100 1       7.5084051092       9.0000000000
101 1       7.2256534703       8.0000000000
102 1       7.1126707614      10.0000000000
103 1       7.3865956017      10.0000000000
104 1       7.1993863306       8.0000000000
105 1       7.2768293606      10.0000000000
106 1       8.2456061509      10.0000000000
107 1       7.1546189501       9.0000000000
108 1       7.8896623512       9.0000000000
109 1       7.8652836375       9.0000000000
110 1       8.0610958020      10.0000000000
111 1       7.2681107242      10.0000000000
112 1       7.5872498307       9.0000000000
113 1       7.2259018830      10.0000000000
114 1       7.3029895670      11.0000000000
115 1       7.6597602919      10.0000000000
116 1       7.6138556981      11.0000000000
117 1       7.3763100534      12.0000000000
118 1       6.8211296878      11.0000000000
119 1       7.1060230203      12.0000000000
120 1       7.1158341393      10.0000000000
121 1       6.7904296714       8.0000000000
122 1       7.1999425727      10.0000000000
123 1       7.4562777256      11.0000000000
124 1       7.2976517693       9.0000000000
125 1       7.1674343154      10.0000000000
126 1       7.6613844579      12.0000000000
127 1       7.4759888696       8.0000000000
128 1       7.0077372231      10.0000000000
129 1       7.2894060187       9.0000000000
130 1       7.2598730083       9.0000000000
131 1       7.4705373990      10.0000000000
132 1       7.6435095516      10.0000000000
133 1       7.4623408984       8.0000000000
134 1       7.5356257195       7.0000000000
135 1       7.2586412095      10.0000000000
136 1       7.0528575128       9.0000000000
137 1       7.3980341473      13.0000000000
138 1       7.0146753524      12.0000000000
139 1       7.3945803462       8.0000000000
140 1       6.6951032451       9.0000000000
141 1       7.2604079484      10.0000000000
142 1       6.8331336689      10.0000000000
143 1       7.7895578094       9.0000000000
144 1       7.3356392961      10.0000000000
145 1       6.9544477466       9.0000000000
146 1       6.8671846139      10.0000000000
147 1       7.9542079326      12.0000000000
148 1       7.4009011375       9.0000000000
149 1       7.1773753388      10.0000000000
150 1       7.0140823395       9.0000000000
151 1       8.4474889924       9.0000000000
152 1       6.6814006214       9.0000000000
153 1       7.2781370483      10.0000000000
154 1       7.5493522380       9.0000000000
155 1       7.3457155406       9.0000000000
156 1       7.9528685102      11.0000000000
157 1       7.0285364061       9.0000000000
158 1       7.1774112811       9.0000000000
159 1       6.7932012346      10.0000000000
160 1       6.7001298459      10.0000000000
161 1       6.7745665472       8.0000000000
162 1       7.2919234197      10.0000000000
163 1       7.5647240299      10.0000000000
164 1       7.4268693148       9.0000000000
165 1       6.9601388236      11.0000000000
166 1       7.2061408683       8.0000000000
167 1       7.0775400463       9.0000000000
168 1       6.8439310238       9.0000000000
169 1       6.3668928747       7.0000000000
170 1       7.5177378579      10.0000000000
171 1       7.1466405194      11.0000000000
172 1       7.6194528519       7.0000000000
173 1       7.0115716218       8.0000000000
174 1       7.8352543083       9.0000000000
175 1       7.3065274848       8.0000000000
176 1       7.2039867921      11.0000000000
177 1       7.4231037936      10.0000000000
178 1       6.8453051542      10.0000000000
179 1       7.5502702535      10.0000000000
180 1       7.3390950574      11.0000000000
181 1       6.9588778990      10.0000000000
182 1       7.3347559157       9.0000000000
183 1       6.9369862655      11.0000000000
184 1       7.0444004466      10.0000000000
185 1       7.2744801458       6.0000000000
186 1       7.1672665370       9.0000000000
187 1       6.8425076056       9.0000000000
188 1       7.4482727531      12.0000000000
189 1       7.0490078152      10.0000000000
190 1       6.5142365244       7.0000000000
191 1       7.4899022391      11.0000000000
192 1       7.2500099042       8.0000000000
193 1       7.0946910410      10.0000000000
194 1       7.5481322620       8.0000000000
195 1       7.3854817011      10.0000000000
196 1       7.4708901757       8.0000000000
197 1       7.2310963825       8.0000000000
198 1       7.1882995169       9.0000000000
199 1       7.2359072417       7.0000000000
200 1       7.0671737242       9.0000000000
201 1       7.3853309611      10.0000000000
202 1       7.2688882029      11.0000000000
203 1       6.6698739973       8.0000000000
204 1       7.7599546272      10.0000000000
205 1       7.7236703411      11.0000000000
206 1       7.3167669438       9.0000000000
207 1       7.1723727128       7.0000000000
208 1       6.3319796221       9.0000000000
209 1       7.4155826402       8.0000000000
210 1       7.7537762304      10.0000000000
211 1       7.2467924798       9.0000000000
212 1       7.5211332388      11.0000000000
213 1       6.9237742652       7.0000000000
214 1       7.1226509163      10.0000000000
215 1       7.0676376412      10.0000000000
216 1       7.4952379914      11.0000000000
217 1       7.1203092668       8.0000000000
218 1       7.2520918831       9.0000000000
219 1       7.2098277358      10.0000000000
220 1       8.0632866777      11.0000000000
221 1       7.4941173332      10.0000000000
222 1       7.2625432679       9.0000000000
223 1       6.6667822627       9.0000000000
224 1       7.0283354615       9.0000000000
225 1       6.9223038222      10.0000000000
226 1       7.1721995257       7.0000000000
227 1       7.3515965915       9.0000000000
228 1       7.4441046382       9.0000000000
229 1       7.5026135651       9.0000000000
230 1       7.4364520276      11.0000000000
231 1       7.0198605208      10.0000000000
232 1       7.5050748922      10.0000000000
233 1       7.1153316621       9.0000000000
234 1       7.1418726253       9.0000000000
235 1       6.7686031842       8.0000000000
236 1       7.8010218021       8.0000000000
237 1       7.3184042665       9.0000000000
238 1       7.7109142618       9.0000000000
239 1       7.0487670069       7.0000000000
240 1       6.9710212625       7.0000000000
241 1       7.5608369013       8.0000000000
242 1       7.7325228236       9.0000000000
243 1       7.2772732854      10.0000000000
244 1       7.1615264051      12.0000000000
245 1       7.2945401139       9.0000000000
246 1       7.3614137543      11.0000000000
247 1       7.6419238679      10.0000000000
248 1       7.5152354879       9.0000000000
249 1       6.9883716933       8.0000000000
250 1       6.9307253006      11.0000000000
251 1       7.2190574624       9.0000000000
252 1       7.3703253365      12.0000000000
253 1       6.4665752001       7.0000000000
254 1       6.6837299889      10.0000000000
255 1       7.0083773107       9.0000000000
256 1       7.4647201905      10.0000000000
257 1       7.2624760445      10.0000000000
258 1       7.0930145107      11.0000000000
259 1       7.3820315677       8.0000000000
260 1       7.3207619571       9.0000000000
261 1       7.2806211152      10.0000000000
262 1       7.2073426339       9.0000000000
263 1       7.3796408583       9.0000000000
264 1       7.5009872188       8.0000000000
265 1       7.1675787794       8.0000000000
266 1       6.9962697049      10.0000000000
267 1       7.0420263187       8.0000000000
268 1       7.3667373222      12.0000000000
269 1       7.6471611872      11.0000000000
270 1       7.5592291899       9.0000000000
271 1       7.5507997259       9.0000000000
272 1       8.0305103729       8.0000000000
273 1       6.9852130231       8.0000000000
274 1       7.4659248232       9.0000000000
275 1       7.3237018135       9.0000000000
276 1       7.1479397027      10.0000000000
277 1       7.8606749019      10.0000000000
278 1       6.8375264312       8.0000000000
279 1       7.3251520222       8.0000000000
280 1       7.4037903217       9.0000000000
281 1       7.6424114747       9.0000000000
282 1       7.1154280686       9.0000000000
283 1       7.3629605853       9.0000000000
284 1       7.2738696077       9.0000000000
285 1       7.3864950797       9.0000000000
286 1       7.1284644527       8.0000000000
287 1       7.0603037970       9.0000000000
288 1       7.3899781174      11.0000000000
289 1       7.1762514771      10.0000000000
290 1       7.1544930080       7.0000000000
291 1       7.1188569486       8.0000000000
292 1       7.2297283130      13.0000000000
293 1       7.5843697350      11.0000000000
294 1       7.4696229915      10.0000000000
295 1       6.9975282994       9.0000000000
296 1       6.8335749259      10.0000000000
297 1       7.3874643887      11.0000000000
298 1       7.0640948316       7.0000000000
299 1       7.2122043310      11.0000000000
300 1       7.7113566957      12.0000000000
301 1       6.9995999140      10.0000000000
302 1       6.9863883387       8.0000000000
303 1       6.9569611950      10.0000000000
304 1       7.5743205458      10.0000000000
305 1       7.3384356817      12.0000000000
306 1       7.3873783317      10.0000000000
307 1       7.2071116564       9.0000000000
308 1       8.4859964345      11.0000000000
309 1       7.2387091593       9.0000000000
310 1       7.5991251348       8.0000000000
311 1       7.5675924731      11.0000000000
312 1       7.5704759709      10.0000000000
313 1       7.6041495853       7.0000000000
314 1       7.3430748136       9.0000000000
315 1       7.5658914832       7.0000000000
316 1       7.2764117307      11.0000000000
317 1       6.9663878143      10.0000000000
318 1       7.8326065923       7.0000000000
319 1       7.3229406521      10.0000000000
320 1       6.8633143651       9.0000000000
321 1       7.4681745890      10.0000000000
322 1       7.5659917225       8.0000000000
323 1       7.4388359176      11.0000000000
324 1       7.5779101823      10.0000000000
325 1       7.1743173581       9.0000000000
326 1       7.6176287648      10.0000000000
327 1       7.4966634199      11.0000000000
328 1       7.0255974363      10.0000000000
329 1       6.8520338611       9.0000000000
330 1       7.2679897485      11.0000000000
331 1       7.1555844053       8.0000000000
332 1       7.6947308428      10.0000000000
333 1       7.3308253935      10.0000000000
334 1       7.4215939875      10.0000000000
335 1       7.2373738965       9.0000000000
336 1       6.8128152872       9.0000000000
337 1       7.4838995345      11.0000000000
338 1       7.0673828201       9.0000000000
339 1       7.5373433217       9.0000000000
340 1       7.6144740616       7.0000000000
341 1       7.6261416765       9.0000000000
342 1       7.6308604332      10.0000000000
343 1       7.2338749456      11.0000000000
344 1       7.7461605906       9.0000000000
345 1       7.3081598435      10.0000000000
346 1       7.0885723301       9.0000000000
347 1       7.6703837022      13.0000000000
348 1       7.6298080511      12.0000000000
349 1       6.7165388337      12.0000000000
350 1       7.0847869639       7.0000000000
351 1       7.7388873537      10.0000000000
352 1       7.3316586862      10.0000000000
353 1       6.7508735395       9.0000000000
354 1       6.8587217151       9.0000000000
355 1       7.4037785947       7.0000000000
356 1       6.9665452176       8.0000000000
357 1       7.6159896232      10.0000000000
358 1       7.4733441981      10.0000000000
359 1       7.6694323568       9.0000000000
360 1       7.2961991545      12.0000000000
361 1       7.2032094588       9.0000000000
362 1       7.3538356587      11.0000000000
363 1       6.6408320994       9.0000000000
364 1       6.9067247530       9.0000000000
365 1       7.0923681655       9.0000000000
366 1       6.7870617606       9.0000000000
367 1       6.9396110849       8.0000000000
368 1       7.8088577142      11.0000000000
369 1       7.4086305187      10.0000000000
370 1       7.1496157573       8.0000000000
371 1       7.6382325532      10.0000000000
372 1       7.7672913775       8.0000000000
373 1       7.2700652526       8.0000000000
374 1       7.5589592666       9.0000000000
375 1       7.3014542850       9.0000000000
376 1       7.1814093343      10.0000000000
377 1       6.7737804830       9.0000000000
378 1       7.7741541702      12.0000000000
379 1       7.4560061454      11.0000000000
380 1       7.4665211078      10.0000000000
381 1       7.6360671456      10.0000000000
382 1       7.2285024677      11.0000000000
383 1       6.9743245364       9.0000000000
384 1       7.1885870294       7.0000000000
385 1       7.2971084198      11.0000000000
386 1       7.4152798728      10.0000000000
387 1       7.0284868899       8.0000000000
388 1       6.5321601267       8.0000000000
389 1       7.0237404516       9.0000000000
390 1       7.7667959904       7.0000000000
391 1       7.2777057634       8.0000000000
392 1       7.4067223399       9.0000000000
393 1       7.3727775848      10.0000000000
394 1       7.7662672581      10.0000000000
395 1       6.8983244487       9.0000000000
396 1       7.1305353298       9.0000000000
397 1       7.4804380326      11.0000000000
398 1       7.1945290466      10.0000000000
399 1       7.6585233524       8.0000000000
400 1       7.1607250335      13.0000000000
401 1       7.2620863571       8.0000000000
402 1       7.6413426671      11.0000000000
403 1       7.1746959565      12.0000000000
404 1       7.1719463598      10.0000000000
405 1       7.7009546408      10.0000000000
406 1       7.5315152287      10.0000000000
407 1       7.4180123990      12.0000000000
408 1       6.9423032876      12.0000000000
409 1       7.5067850189      10.0000000000
410 1       7.3388158737       7.0000000000
411 1       7.7828945567       9.0000000000
412 1       7.3067293192      12.0000000000
413 1       7.3950317059      11.0000000000
414 1       6.6729165509       8.0000000000
415 1       7.3256287804       8.0000000000
416 1       7.1951942787       7.0000000000
417 1       7.0921656633      10.0000000000
418 1       7.1031572207       8.0000000000
419 1       7.3447151380       9.0000000000
420 1       7.4013909543      11.0000000000
421 1       7.0204384563      10.0000000000
422 1       6.8379966867      10.0000000000
423 1       7.0593916153      11.0000000000
424 1       7.1180599654      10.0000000000
425 1       7.0881837921      10.0000000000
426 1       7.2685180744       9.0000000000
427 1       7.6988784429       7.0000000000
428 1       7.0779603299       8.0000000000
429 1       6.7613560674       8.0000000000
430 1       7.2560646787       8.0000000000
431 1       7.6197663319       9.0000000000
432 1       7.4016837550      10.0000000000
433 1       6.9325269319       9.0000000000
434 1       7.1896430929       9.0000000000
435 1       7.5939887850      11.0000000000
436 1       7.2980986568       9.0000000000
437 1       7.3858083065      12.0000000000
438 1       6.9449431539       9.0000000000
439 1       7.3810277811      13.0000000000
440 1       7.5883558644       8.0000000000
441 1       7.5644955760      10.0000000000
442 1       7.3348471933      11.0000000000
443 1       7.1755766855       8.0000000000
444 1       7.6316248481       8.0000000000
445 1       7.8070516582       8.0000000000
446 1       7.0594572951      10.0000000000
447 1       7.4543972156       9.0000000000
448 1       6.5593884189      10.0000000000
449 1       7.3566654395      10.0000000000
450 1       7.2467657161      10.0000000000
451 1       7.4040216660       9.0000000000
452 1       7.7370921368       9.0000000000
453 1       7.0729241558      10.0000000000
454 1       7.5668082035      10.0000000000
455 1       7.4248682465       9.0000000000
456 1       7.4783331623      10.0000000000
457 1       7.2004689523       7.0000000000
458 1       6.5344783338      10.0000000000
459 1       6.5026393043       8.0000000000
460 1       7.1642860821      10.0000000000
461 1       7.2037038489      12.0000000000
462 1       7.1735855321       8.0000000000
463 1       7.1223788853      10.0000000000
464 1       6.9540629343       8.0000000000
465 1       7.1570771805      10.0000000000
466 1       7.3814575917      10.0000000000
467 1       7.4892892176      12.0000000000
468 1       7.2601919290       9.0000000000
469 1       6.5268065709      10.0000000000
470 1       7.5577537033       9.0000000000
471 1       7.5318546283      10.0000000000
472 1       7.1557150929       8.0000000000
473 1       6.8836211152       9.0000000000
474 1       7.1114880712       9.0000000000
475 1       7.1353005040      12.0000000000
476 1       7.4912817763       9.0000000000
477 1       6.7846382229      10.0000000000
478 1       7.2566920302       8.0000000000
479 1       7.3484587556      10.0000000000
480 1       6.8996577826       8.0000000000
481 1       7.8736146264       9.0000000000
482 1       7.3429388047      10.0000000000
483 1       6.8674732897       7.0000000000
484 1       7.2615795291      10.0000000000
485 1       7.5426411336       9.0000000000
486 1       7.1225980451       7.0000000000
487 1       7.5683201550       8.0000000000
488 1       6.6842648828      10.0000000000
489 1       7.8794434628       8.0000000000
490 1       8.3460392019      10.0000000000
491 1       6.6170166162      10.0000000000
492 1       7.3565113915       8.0000000000
493 1       7.1814328608      10.0000000000
494 1       7.0999623259       9.0000000000
495 1       6.9396080095      10.0000000000
496 1       7.3204267930       9.0000000000
497 1       7.3245523664      10.0000000000
498 1       7.1805077277      10.0000000000
499 1       7.7046719290      11.0000000000
500 1       7.4998645483       7.0000000000
501 1       7.1742916993       9.0000000000
502 1       7.8390832614       9.0000000000
503 1       7.3317426178       9.0000000000
504 1       6.6965710626       8.0000000000
505 1       7.3565410224      10.0000000000
506 1       7.4479952828      11.0000000000
507 1       7.1689165911       9.0000000000
508 1       7.4295857238      11.0000000000
509 1       6.9401777664       8.0000000000
510 1       7.1052523473       8.0000000000
511 1       7.0300864815      12.0000000000
512 1       6.5704598697       9.0000000000
513 1       7.2625846045      10.0000000000
514 1       7.2475521669      12.0000000000
515 1       6.9639281606      11.0000000000
516 1       7.1628512534      10.0000000000
517 1       6.8122356326       8.0000000000
518 1       7.6106655534      11.0000000000
519 1       8.2021810068       8.0000000000
520 1       7.2937474560       9.0000000000
521 1       7.6750719815      11.0000000000
522 1       7.5664822987       9.0000000000
523 1       6.7731642295       9.0000000000
524 1       7.0841960957      11.0000000000
525 1       7.1336121706       8.0000000000
526 1       7.3552176130      12.0000000000
527 1       7.2432351919       9.0000000000
528 1       7.2805016563      10.0000000000
529 1       7.3345794869       9.0000000000
530 1       7.0242406487       9.0000000000
531 1       7.1487045517      10.0000000000
532 1       7.2313999194       8.0000000000
533 1       8.0664433968      10.0000000000
534 1       7.1108884326      12.0000000000
535 1       7.7946472875       9.0000000000
536 1       6.7991635907      10.0000000000
537 1       7.6046292693       7.0000000000
538 1       7.3141436068       7.0000000000
539 1       7.4246262553      10.0000000000
540 1       6.5945050713       7.0000000000
541 1       7.6741910293       8.0000000000
542 1       7.6651815910       9.0000000000
543 1       7.1227478608      10.0000000000
544 1       7.0818303100       7.0000000000
545 1       7.2302255052       8.0000000000
546 1       7.3990140271       9.0000000000
547 1       8.0992146682       9.0000000000
548 1       7.2554460338       8.0000000000
549 1       6.8379459208       9.0000000000
550 1       7.2290164486       9.0000000000
551 1       7.4120402188       9.0000000000
552 1       6.8978682821      11.0000000000
553 1       7.2517048742      10.0000000000
554 1       7.3400104196      11.0000000000
555 1       7.0656429769       8.0000000000
556 1       7.1669448356       9.0000000000
557 1       6.9755244979       8.0000000000
558 1       7.3823280445       7.0000000000
559 1       7.3252145347       8.0000000000
560 1       7.0774539074       8.0000000000
561 1       7.7755364052       8.0000000000
562 1       7.0520836888       9.0000000000
563 1       7.2098893050       9.0000000000
564 1       7.6308240662      10.0000000000
565 1       7.0922549313      11.0000000000
566 1       6.7096243629       8.0000000000
567 1       7.0630365115       9.0000000000
568 1       7.4125203330      12.0000000000
569 1       6.7876130360       9.0000000000
570 1       7.3499091524      10.0000000000
571 1       7.3297975153       8.0000000000
572 1       7.6796726470      11.0000000000
573 1       7.6958243156      10.0000000000
574 1       7.1905274359       9.0000000000
575 1       7.6956625775      11.0000000000
576 1       7.6241250331       8.0000000000
577 1       6.8720089472       8.0000000000
578 1       7.1085192671       8.0000000000
579 1       7.5979262597      10.0000000000
580 1       6.4942161577       7.0000000000
581 1       7.2317142332      10.0000000000
582 1       7.3839409137      10.0000000000
583 1       7.3041452313       8.0000000000
584 1       7.2201814231      11.0000000000
585 1       7.3751699324      10.0000000000
586 1       6.5892639179       9.0000000000
587 1       7.0223285359       8.0000000000
588 1       7.1481384906       9.0000000000
589 1       7.5240188575       8.0000000000
590 1       7.4823248470      12.0000000000
591 1       7.0495163418       9.0000000000
592 1       7.5436951996       8.0000000000
593 1       7.3809729783       7.0000000000
594 1       7.4291286123       8.0000000000
595 1       6.9667793582      10.0000000000
596 1       7.4229359224       9.0000000000
597 1       6.8398226221       9.0000000000
598 1       6.8405932293       9.0000000000
599 1       7.0843508115      10.0000000000
600 1       7.3131187498      10.0000000000
601 1       7.7497253568      11.0000000000
602 1       7.3059737896       8.0000000000
603 1       7.3002315141       7.0000000000
604 1       7.1683063867       8.0000000000
605 1       7.7482840443      12.0000000000
606 1       7.3422832618      10.0000000000
607 1       6.8121153612       8.0000000000
608 1       6.6804729354       6.0000000000
609 1       6.9882809794       9.0000000000
610 1       7.7465200808       7.0000000000
611 1       7.6531237637      10.0000000000
612 1       7.1352245695       8.0000000000
613 1       7.5707119166      12.0000000000
614 1       7.1928028048      10.0000000000
615 1       7.3932333632       9.0000000000
616 1       7.3723071562      11.0000000000
617 1       7.1196135701      10.0000000000
618 1       7.7547813132      10.0000000000
619 1       6.5639267500       8.0000000000
620 1       7.3216280973      11.0000000000
621 1       7.5076824370       8.0000000000
622 1       7.8440988040      10.0000000000
623 1       7.9812450822       8.0000000000
624 1       7.1665711774       9.0000000000
625 1       7.5634878915       9.0000000000
626 1       7.0441791013      10.0000000000
627 1       7.3105539349       9.0000000000
628 1       7.7799442486       7.0000000000
629 1       7.5086115819      12.0000000000
630 1       7.1807711982      11.0000000000
631 1       6.6719727837       8.0000000000
632 1       7.3072950510       9.0000000000
633 1       7.0655338454       9.0000000000
634 1       7.3579495435      10.0000000000
635 1       7.1814334775       9.0000000000
636 1       7.1837721773      10.0000000000
637 1       7.2262967222       9.0000000000
638 1       7.7207647706      12.0000000000
639 1       7.1967980320       9.0000000000
640 1       7.0126084695      11.0000000000
641 1       7.1586560049       9.0000000000
642 1       7.8826016597       9.0000000000
643 1       7.3944890176       8.0000000000
644 1       7.1251463631       9.0000000000
645 1       6.9821854890       8.0000000000
646 1       7.3247344772       9.0000000000
647 1       7.3940986520       8.0000000000
648 1       6.9204260820      11.0000000000
649 1       7.7143410774      11.0000000000
650 1       7.2071100276      10.0000000000
651 1       7.0365489867       8.0000000000
652 1       7.7307354743       9.0000000000
653 1       7.2912077715       8.0000000000
654 1       7.6736743829      14.0000000000
655 1       7.5856034690      11.0000000000
656 1       6.8804657751      11.0000000000
657 1       7.2112643144       9.0000000000
658 1       7.5833762111       9.0000000000
659 1       6.9523952416       8.0000000000
660 1       7.2088997615      11.0000000000
661 1       7.7650580631       7.0000000000
662 1       7.1264234407       9.0000000000
663 1       6.9622570434       9.0000000000
664 1       7.0798067653       8.0000000000
665 1       7.3637799291      10.0000000000
666 1       7.4497436966       8.0000000000
667 1       7.3644640099       8.0000000000
668 1       7.5974556752      10.0000000000
669 1       7.2682563614      10.0000000000
670 1       7.0949697064       9.0000000000
671 1       7.2836497067      11.0000000000
672 1       7.5089301608       9.0000000000
673 1       7.5439773411       7.0000000000
674 1       7.1531416585       9.0000000000
675 1       7.1106306166      12.0000000000
676 1       6.9951990948       7.0000000000
677 1       7.1393164708      10.0000000000
678 1       6.8310771327      10.0000000000
679 1       7.0971538959       8.0000000000
680 1       7.1539419891       9.0000000000
681 1       6.7368666897      10.0000000000
682 1       6.8943065530       8.0000000000
683 1       7.4259051113       9.0000000000
684 1       7.1358313307       8.0000000000
685 1       7.1105422279       9.0000000000
686 1       8.2786828689      12.0000000000
687 1       7.6740888341      10.0000000000
688 1       6.9319105494       8.0000000000
689 1       7.6495221080      10.0000000000
690 1       7.5846329117      10.0000000000
691 1       7.1829785818       8.0000000000
692 1       7.3209373195      10.0000000000
693 1       7.5011237421      11.0000000000
694 1       7.0791502732       9.0000000000
695 1       7.2649622048       8.0000000000
696 1       6.7797206675      10.0000000000
697 1       7.3193444481      10.0000000000
698 1       7.2515223817       9.0000000000
699 1       6.9329743697       9.0000000000
700 1       7.2608711861       8.0000000000
701 1       7.4052213208      11.0000000000
702 1       7.8082710102      10.0000000000
703 1       7.6967659155       9.0000000000
704 1       6.7580086776       8.0000000000
705 1       7.2919238251      10.0000000000
706 1       7.8030708882      10.0000000000
707 1       7.7013819596      11.0000000000
708 1       7.3176315485       8.0000000000
709 1       7.3598202559       8.0000000000
710 1       7.4059923354      11.0000000000
711 1       7.3008746116       9.0000000000
712 1       7.0347347017       9.0000000000
713 1       7.4997459894       8.0000000000
714 1       7.6257296723      11.0000000000
715 1       6.9275616481       8.0000000000
716 1       7.0708324284      11.0000000000
717 1       7.4071078456      11.0000000000
718 1       7.2872083909       9.0000000000
719 1       7.1232762696      10.0000000000
720 1       7.3623350598       8.0000000000
721 1       7.9100638923      10.0000000000
722 1       6.9972170293       9.0000000000
723 1       7.4276890403      10.0000000000
724 1       7.4957120683       8.0000000000
725 1       7.5277823950       8.0000000000
726 1       7.0528363056      10.0000000000
727 1       7.2723016837       9.0000000000
728 1       7.3598933637      11.0000000000
729 1       7.2248457856      10.0000000000
730 1       7.3470681082      11.0000000000
731 1       8.1422218001      11.0000000000
732 1       7.5523037191      11.0000000000
733 1       7.3284342462      10.0000000000
734 1       7.8760667152       9.0000000000
735 1       7.4299967969      10.0000000000
736 1       7.2953390604       9.0000000000
737 1       7.4835279558       9.0000000000
738 1       7.1959039341       9.0000000000
739 1       7.3367739610       9.0000000000
740 1       7.3785784089      10.0000000000
741 1       7.0698448910       7.0000000000
742 1       6.9348727520       8.0000000000
743 1       7.2792158161       9.0000000000
744 1       7.4283299321      10.0000000000
745 1       7.8897357702       9.0000000000
746 1       8.0284547544      11.0000000000
747 1       7.7421859481      12.0000000000
748 1       7.0713667201       9.0000000000
749 1       7.6738464582      12.0000000000
750 1       7.5955697932      10.0000000000
751 1       6.8248358258       8.0000000000
752 1       7.4933126295      10.0000000000
753 1       7.3897119315       8.0000000000
754 1       6.8823544970      10.0000000000
755 1       7.4668422381       9.0000000000
756 1       7.2706446796      11.0000000000
757 1       7.1330009032       9.0000000000
758 1       7.0578225417      10.0000000000
759 1       7.2726744920       9.0000000000
760 1       7.2463462842      11.0000000000
761 1       6.5039626421       8.0000000000
762 1       7.2921115100       8.0000000000
763 1       7.0084144839      10.0000000000
764 1       7.3319849526       8.0000000000
765 1       7.1294429907       9.0000000000
766 1       7.6407493749       7.0000000000
767 1       7.5990134386      10.0000000000
768 1       7.7874373711      12.0000000000
769 1       7.2530590263       8.0000000000
770 1       7.0836104749       8.0000000000
771 1       7.1615349569      11.0000000000
772 1       7.4325800114       9.0000000000
773 1       7.6196542655       8.0000000000
774 1       7.5085505946       9.0000000000
775 1       6.7315388304       9.0000000000
776 1       7.5091024038      10.0000000000
777 1       7.2185491220       8.0000000000
778 1       7.8100636834       8.0000000000
779 1       7.1024485576       9.0000000000
780 1       7.0755780616       7.0000000000
781 1       7.4737564744      10.0000000000
782 1       6.6561153321      11.0000000000
783 1       8.4496493625      10.0000000000
784 1       6.7253340022      10.0000000000
785 1       7.3464601595       9.0000000000
786 1       7.0809675116       8.0000000000
787 1       7.3484096182       8.0000000000
788 1       6.8733744515      10.0000000000
789 1       6.8862210267       8.0000000000
790 1       7.8497767104       9.0000000000
791 1       6.9617225463       8.0000000000
792 1       6.8341957253       8.0000000000
793 1       6.7418682992       9.0000000000
794 1       7.4422966298       9.0000000000
795 1       7.1358393206       9.0000000000
796 1       7.4699588928       9.0000000000
797 1       7.6600073020      12.0000000000
798 1       7.3111756949       8.0000000000
799 1       7.3682566354      10.0000000000
800 1       7.3900933745       6.0000000000
801 1       7.3197722676       9.0000000000
802 1       7.5619827561       8.0000000000
803 1       7.3675640519       9.0000000000
804 1       7.7587755201       9.0000000000
805 1       7.4866800731       9.0000000000
806 1       7.6036072222      10.0000000000
807 1       7.4442682367       9.0000000000
808 1       8.3292771178      12.0000000000
809 1       7.2033142212      11.0000000000
810 1       7.2544455039      10.0000000000
811 1       7.1637481643       8.0000000000
812 1       7.0955045419       7.0000000000
813 1       7.1115515479       9.0000000000
814 1       6.8451237054       8.0000000000
815 1       7.3492873087       9.0000000000
816 1       6.8186117127      10.0000000000
817 1       7.5143054981       7.0000000000
818 1       6.9998776708       7.0000000000
819 1       6.8324717359       8.0000000000
820 1       6.8996056512      13.0000000000
821 1       6.8536943091       9.0000000000
822 1       7.0528123951       9.0000000000
823 1       7.1043973523      11.0000000000
824 1       7.1775667506       8.0000000000
825 1       6.8694076647      12.0000000000
826 1       7.1138657885       7.0000000000
827 1       7.6070835604       9.0000000000
828 1       7.2909882217       9.0000000000
829 1       7.4116636485      10.0000000000
830 1       7.0234700198      10.0000000000
831 1       7.0112893168      10.0000000000
832 1       7.2488477503       9.0000000000
833 1       7.1198129535       9.0000000000
834 1       7.5157947362      11.0000000000
835 1       7.0350607764      10.0000000000
836 1       7.1765609462      10.0000000000
837 1       7.6388390437      10.0000000000
838 1       7.4509396683       8.0000000000
839 1       7.1637878234       9.0000000000
840 1       7.4910868807      10.0000000000
841 1       7.0408755082       8.0000000000
842 1       7.7323142918       8.0000000000
843 1       7.3050216965      11.0000000000
844 1       7.7577909492       9.0000000000
845 1       7.2671989666      10.0000000000
846 1       7.3620810274      10.0000000000
847 1       7.4964035114       9.0000000000
848 1       7.2349964839      12.0000000000
849 1       6.9967856717      10.0000000000
850 1       7.3857933422       8.0000000000
851 1       7.2467511752       8.0000000000
852 1       7.3649421122      12.0000000000
853 1       7.1434325274      11.0000000000
854 1       7.2163591423      10.0000000000
855 1       7.5906547284       9.0000000000
856 1       7.0353821644       9.0000000000
857 1       7.3543999750      11.0000000000
858 1       7.1655728416       9.0000000000
859 1       7.7723107044      10.0000000000
860 1       7.1235608353      10.0000000000
861 1       6.7319410942       9.0000000000
862 1       6.7531210268      10.0000000000
863 1       7.4811291075      10.0000000000
864 1       7.0455041248       7.0000000000
865 1       6.8463048967       9.0000000000
866 1       6.9461539956       8.0000000000
867 1       7.7121342833      11.0000000000
868 1       7.3832329233      10.0000000000
869 1       7.1647706860       9.0000000000
870 1       7.8175609158      12.0000000000
871 1       7.0864497225      10.0000000000
872 1       7.0863810664      10.0000000000
873 1       7.0427572524       8.0000000000
874 1       7.0121108027       8.0000000000
875 1       6.8711109625      10.0000000000
876 1       7.8558153955       8.0000000000
877 1       6.9858963858      10.0000000000
878 1       7.1489739204       8.0000000000
879 1       6.7542213222      11.0000000000
880 1       7.9410909318      11.0000000000
881 1       7.0908022669       9.0000000000
882 1       7.4270596837      10.0000000000
883 1       7.3358413128       8.0000000000
884 1       7.6134976206      10.0000000000
885 1       7.2843252475       7.0000000000
886 1       7.4550994524       9.0000000000
887 1       7.4553629713       9.0000000000
888 1       7.1927882263      11.0000000000
889 1       7.1506305530       9.0000000000
890 1       7.0731079876      12.0000000000
891 1       7.4590616310       7.0000000000
892 1       7.4699543515      10.0000000000
893 1       7.7050642277       9.0000000000
894 1       6.8185825760       9.0000000000
895 1       7.6374957903       9.0000000000
896 1       8.1255776940      12.0000000000
897 1       6.8186290959      10.0000000000
898 1       7.3344060121       9.0000000000
899 1       7.0192663898       9.0000000000
900 1       7.4247610537      11.0000000000
901 1       7.6713806125       8.0000000000
902 1       7.7352593893       9.0000000000
903 1       7.5031003920      10.0000000000
904 1       6.9999087904       9.0000000000
905 1       7.6275700577      10.0000000000
906 1       7.9722241149       7.0000000000
907 1       6.5106356843       8.0000000000
908 1       6.7084582392       9.0000000000
909 1       7.5429254809      10.0000000000
910 1       7.5784803452      10.0000000000
911 1       7.3492888853      11.0000000000
912 1       7.0220433432       8.0000000000
913 1       7.5893132568       8.0000000000
914 1       6.9063366279      12.0000000000
915 1       7.3739643943      12.0000000000
916 1       7.2391168832      10.0000000000
917 1       6.6848294580      10.0000000000
918 1       7.2650168737       9.0000000000
919 1       7.8078795956       9.0000000000
920 1       7.0256321854       9.0000000000
921 1       7.2501102574       8.0000000000
922 1       6.6524974840       8.0000000000
923 1       7.1920840421       9.0000000000
924 1       7.7941629968      10.0000000000
925 1       6.9949999618       9.0000000000
926 1       6.8480114681       8.0000000000
927 1       6.5858545610      10.0000000000
928 1       7.4379261837       8.0000000000
929 1       7.1436656201       9.0000000000
930 1       7.5528218151      11.0000000000
931 1       7.3874868136       9.0000000000
932 1       7.1734279484       8.0000000000
933 1       7.9055683323       7.0000000000
934 1       7.1528644475       9.0000000000
935 1       7.1748631486       9.0000000000
936 1       7.3388145081      10.0000000000
937 1       7.3221628198       8.0000000000
938 1       7.3063505430      11.0000000000
939 1       6.7136692765       8.0000000000
940 1       6.7916560765       9.0000000000
941 1       7.0412204658       7.0000000000
942 1       7.4664260190       9.0000000000
943 1       7.0030724235      10.0000000000
944 1       7.3076172044      10.0000000000
945 1       7.3988908109       9.0000000000
946 1       7.2214187873       9.0000000000
947 1       7.7409780881       9.0000000000
948 1       7.3303351281       7.0000000000
949 1       7.4386461308       9.0000000000
950 1       7.3960684026      10.0000000000
951 1       7.1124611426      11.0000000000
952 1       7.2366759373      11.0000000000
953 1       7.3051098253      12.0000000000
954 1       7.4547595395      11.0000000000
955 1       7.4528342167      11.0000000000
956 1       7.4532239929      11.0000000000
957 1       7.1298605484      10.0000000000
958 1       7.0244524867       8.0000000000
959 1       7.1307031391       9.0000000000
960 1       7.3308683687       9.0000000000
961 1       7.6235871393       8.0000000000
962 1       7.6277196716      10.0000000000
963 1       7.2417509360       9.0000000000
964 1       7.3293064245       8.0000000000
965 1       7.6244081309      10.0000000000
966 1       7.2007232704      10.0000000000
967 1       6.5851129441       8.0000000000
968 1       7.0525995019      10.0000000000
969 1       7.6349346099      12.0000000000
970 1       7.2045923951       9.0000000000
971 1       6.9254418527       8.0000000000
972 1       7.0914062142      10.0000000000
973 1       7.5098124552       8.0000000000
974 1       6.8523061156       8.0000000000
975 1       7.1314492333      10.0000000000
976 1       7.0753247452       9.0000000000
977 1       7.8451530584       9.0000000000
978 1       6.7696263047       9.0000000000
979 1       6.9673537820       9.0000000000
980 1       7.2678966319       8.0000000000
981 1       7.2876793604      10.0000000000
982 1       7.5428017746       8.0000000000
983 1       8.0218956020      12.0000000000
984 1       7.2138058782      10.0000000000
985 1       7.3988799428      10.0000000000
986 1       7.7637420139      10.0000000000
987 1       6.9603148380       9.0000000000
988 1       7.7041682769      10.0000000000
989 1       7.6606115926      11.0000000000
990 1       7.3348443104       9.0000000000
991 1       7.6214510687      10.0000000000
992 1       6.9107743071       9.0000000000
993 1       7.2809970718       7.0000000000
994 1       7.2326016029       9.0000000000
995 1       7.0021396516      10.0000000000
996 1       7.8784278921       9.0000000000
997 1       7.6089343500       9.0000000000
998 1       7.6840391695      13.0000000000
999 1       7.1361353017       8.0000000000
1000 1       7.7857340234       9.0000000000
1001 1       7.5745525608      12.0000000000
1002 1       7.1737139091      11.0000000000
1003 1       7.0202389543       9.0000000000
1004 1       7.4792133179       8.0000000000
1005 1       7.5811064386       8.0000000000
1006 1       6.8232718592      10.0000000000
1007 1       6.9462288408      11.0000000000
1008 1       7.5070019855      12.0000000000
1009 1       7.1020331281       8.0000000000
1010 1       7.1169659448      12.0000000000
1011 1       7.3525939009      11.0000000000
1012 1       7.0865528723      10.0000000000
1013 1       7.3526865283       9.0000000000
1014 1       7.5470112272      13.0000000000
1015 1       7.4118801749       9.0000000000
1016 1       7.0194786518      10.0000000000
1017 1       7.2639077027       8.0000000000
1018 1       7.4411234258       9.0000000000
1019 1       6.9923548573       9.0000000000
1020 1       7.5395868740      11.0000000000
1021 1       6.8994704886       7.0000000000
1022 1       7.2349659680       9.0000000000
1023 1       7.3059340723       9.0000000000
1024 1       6.9999288972      10.0000000000
1025 1       6.8426045722      10.0000000000
1026 1       7.6361766569       8.0000000000
1027 1       7.1191491282       8.0000000000
1028 1       7.2394290966      10.0000000000
1029 1       7.2604941065       9.0000000000
1030 1       6.9540295125       8.0000000000
1031 1       6.9654127770       8.0000000000
1032 1       7.0035974145       8.0000000000
1033 1       7.2095962843       9.0000000000
1034 1       7.3122791076       9.0000000000
1035 1       7.4537945833      10.0000000000
1036 1       7.4662301551       8.0000000000
1037 1       7.6553642372       8.0000000000
1038 1       8.1989139969      10.0000000000
1039 1       7.1603351655       9.0000000000
1040 1       6.8931393577      10.0000000000
1041 1       7.2341600373      10.0000000000
1042 1       7.2298263776       8.0000000000
1043 1       7.5396572582       8.0000000000
1044 1       7.5661021022       9.0000000000
1045 1       7.4477811289      10.0000000000
1046 1       7.0525440925      10.0000000000
1047 1       7.2701595679      10.0000000000
1048 1       6.9033689475       9.0000000000
1049 1       7.2843067725       9.0000000000
1050 1       7.5606255129      11.0000000000
1051 1       7.3721291472       9.0000000000
1052 1       7.3875058404      10.0000000000
1053 1       6.7752023356       8.0000000000
1054 1       7.3655078183       9.0000000000
1055 1       7.2418173763       7.0000000000
1056 1       7.3040973048       8.0000000000
1057 1       7.3396308222       9.0000000000
1058 1       7.5462174596       9.0000000000
1059 1       6.8895386061       7.0000000000
1060 1       7.0083201523       8.0000000000
1061 1       7.0715630782      12.0000000000
1062 1       6.9991206298       8.0000000000
1063 1       6.9404385362       9.0000000000
1064 1       7.2369016358       8.0000000000
1065 1       7.4637763259       6.0000000000
1066 1       6.9031831065      10.0000000000
1067 1       7.0583486899      10.0000000000
1068 1       7.4913628620      11.0000000000
1069 1       6.7902053493      10.0000000000
1070 1       7.3606486123       9.0000000000
1071 1       6.8615753299      11.0000000000
1072 1       7.8482555677       8.0000000000
1073 1       7.4668618899      11.0000000000
1074 1       6.9014452114       9.0000000000
1075 1       7.7274948247      10.0000000000
1076 1       7.1511422634       9.0000000000
1077 1       7.3888166466       8.0000000000
1078 1       7.2751858789       8.0000000000
1079 1       6.7607819699       9.0000000000
1080 1       7.0998436190       9.0000000000
1081 1       7.0526589921      11.0000000000
1082 1       7.1522393989      10.0000000000
1083 1       7.3117607828      11.0000000000
1084 1       7.0514691580       7.0000000000
1085 1       7.9311057952       9.0000000000
1086 1       7.5350885254       8.0000000000
1087 1       7.2304543315       9.0000000000
1088 1       6.6647298131       8.0000000000
1089 1       7.6007006612      11.0000000000
1090 1       7.1571573150      10.0000000000
1091 1       6.8906883813       8.0000000000
1092 1       6.9410065256      10.0000000000
1093 1       7.3347619336       8.0000000000
1094 1       7.8020762261       8.0000000000
1095 1       7.2158980713      10.0000000000
1096 1       7.5940690933       7.0000000000
1097 1       7.2730434068       9.0000000000
1098 1       7.1476387609       9.0000000000
1099 1       7.3105404037       9.0000000000
1100 1       6.8949480081       9.0000000000
1101 1       6.9364423407       8.0000000000
1102 1       6.8443794126       9.0000000000
1103 1       6.9642547319      10.0000000000
1104 1       6.8655231805       6.0000000000
1105 1       6.9051254111       7.0000000000
1106 1       6.9638360400       7.0000000000
1107 1       6.7947144396       9.0000000000
1108 1       7.6621418498      12.0000000000
1109 1       8.0696959272       9.0000000000
1110 1       6.9014887932       6.0000000000
1111 1       7.1884200129       9.0000000000
1112 1       7.4854663831       9.0000000000
1113 1       6.8690294122       9.0000000000
1114 1       6.8743147388       9.0000000000
1115 1       7.0150671083       8.0000000000
1116 1       7.1761122066      10.0000000000
1117 1       6.9490376545       8.0000000000
1118 1       7.3748032298      11.0000000000
1119 1       6.9031567436       9.0000000000
1120 1       7.2281762925       7.0000000000
1121 1       7.2301634962      10.0000000000
1122 1       6.6452617552      11.0000000000
1123 1       7.8710663954      10.0000000000
1124 1       7.8623943346      10.0000000000
1125 1       7.6208154557       9.0000000000
1126 1       7.3964801927       9.0000000000
1127 1       6.8754260286      10.0000000000
1128 1       7.4502296416       8.0000000000
1129 1       7.8486260593       9.0000000000
1130 1       7.3016022730       8.0000000000
1131 1       7.4813123900       9.0000000000
1132 1       7.4160105225       9.0000000000
1133 1       7.3033301429       9.0000000000
1134 1       7.0716007819       8.0000000000
1135 1       7.5146145335      10.0000000000
1136 1       6.9900724123      10.0000000000
1137 1       7.1531372933      12.0000000000
1138 1       7.5700478467       7.0000000000
1139 1       7.2982561879       9.0000000000
1140 1       6.9439220975       9.0000000000
1141 1       7.1346959185      10.0000000000
1142 1       6.5956071856      10.0000000000
1143 1       7.5880465384      11.0000000000
1144 1       7.2656118540       8.0000000000
1145 1       7.3279938290       8.0000000000
1146 1       7.2498062878       9.0000000000
1147 1       6.9750429475       9.0000000000
1148 1       7.4665926217       9.0000000000
1149 1       7.5510246081      11.0000000000
1150 1       7.3496981221       8.0000000000
1151 1       6.8916069691       9.0000000000
1152 1       7.4680265154      10.0000000000
1153 1       7.1957513309       8.0000000000
1154 1       7.0894260035       8.0000000000
1155 1       7.2729366894       9.0000000000
1156 1       7.6978424723      11.0000000000
1157 1       7.6034318489       9.0000000000
1158 1       7.2408698203       8.0000000000
1159 1       6.8397757487      10.0000000000
1160 1       7.5310350303       8.0000000000
1161 1       7.1160673088      10.0000000000
1162 1       7.6606149228      10.0000000000
1163 1       7.5560066598       9.0000000000
1164 1       6.7501077088       8.0000000000
1165 1       7.1890959553       9.0000000000
1166 1       6.7163814202       8.0000000000
1167 1       6.5918752419       8.0000000000
1168 1       7.6173664717       9.0000000000
1169 1       7.6765105196       9.0000000000
1170 1       6.8364706770       8.0000000000
1171 1       7.1685488943      10.0000000000
1172 1       7.5288239448      10.0000000000
1173 1       7.0590591719       8.0000000000
1174 1       7.0862510851      10.0000000000
1175 1       7.3544788105       8.0000000000
1176 1       6.7358820807       8.0000000000
1177 1       6.7636751206       9.0000000000
1178 1       7.0434309467      10.0000000000
1179 1       7.5976745631      10.0000000000
1180 1       7.0503720284      11.0000000000
1181 1       7.3916682669       8.0000000000
1182 1       7.2994545176       9.0000000000
1183 1       7.1649695901       8.0000000000
1184 1       7.2719815444      11.0000000000
1185 1       7.0632246864       9.0000000000
1186 1       7.1676720066      12.0000000000
1187 1       6.9547301140       9.0000000000
1188 1       7.0383066394       7.0000000000
1189 1       7.3002987393       9.0000000000
1190 1       7.1356633416      10.0000000000
1191 1       7.5804171099       9.0000000000
1192 1       7.3755586240      11.0000000000
1193 1       6.9575169537       8.0000000000
1194 1       7.4417499828       9.0000000000
1195 1       7.4603151114       8.0000000000
1196 1       6.6313984121       9.0000000000
1197 1       7.7376865858      15.0000000000
1198 1       7.5656434120       8.0000000000
1199 1       7.6661389078       9.0000000000
1200 1       7.3024303166      10.0000000000
1201 1       7.2790773856       7.0000000000
1202 1       7.2219544974       9.0000000000
1203 1       7.2696136232       9.0000000000
1204 1       7.4205809469       9.0000000000
1205 1       6.7733871784       8.0000000000
1206 1       7.3455459191       9.0000000000
1207 1       7.0239073984       8.0000000000
1208 1       7.5110426931      10.0000000000
1209 1       7.1742473496       9.0000000000
1210 1       7.6748068556      10.0000000000
1211 1       7.7522681534      11.0000000000
1212 1       7.6156561343       7.0000000000
1213 1       7.4620350479       9.0000000000
1214 1       7.1182138309       7.0000000000
1215 1       7.0296283770      11.0000000000
1216 1       7.7377506909       9.0000000000
1217 1       7.2466120908      10.0000000000
1218 1       7.4122360795      11.0000000000
1219 1       6.9835082259       9.0000000000
1220 1       6.8277842500       9.0000000000
1221 1       7.3415544411       9.0000000000
1222 1       7.5917702507       9.0000000000
1223 1       7.0500879060       9.0000000000
1224 1       7.0216654902      10.0000000000
1225 1       7.5444861283      10.0000000000
1226 1       6.7671811637      10.0000000000
1227 1       7.0036920821      10.0000000000
1228 1       7.2555019067      10.0000000000
1229 1       7.1295996697       9.0000000000
1230 1       7.1697547914       9.0000000000
1231 1       7.6311798205      11.0000000000
1232 1       7.6086472188       9.0000000000
1233 1       7.1813641315      10.0000000000
1234 1       7.1341631881       9.0000000000
1235 1       6.9688493258       9.0000000000
1236 1       7.2425913030       8.0000000000
1237 1       7.6364284063       9.0000000000
1238 1       7.4478557560       8.0000000000
1239 1       6.6123010897       8.0000000000
1240 1       7.2977499701      13.0000000000
1241 1       7.6361721649       9.0000000000
1242 1       7.1147027164       6.0000000000
1243 1       7.3211320788       9.0000000000
1244 1       7.5439675322       8.0000000000
1245 1       7.1912322981      10.0000000000
1246 1       7.3297671956      11.0000000000
1247 1       7.5805475039       9.0000000000
1248 1       7.0405189886       9.0000000000
1249 1       6.9257575768       9.0000000000
1250 1       7.2398169728       8.0000000000
1251 1       6.9237517976      10.0000000000
1252 1       7.2151206274      10.0000000000
1253 1       6.7825427559      11.0000000000
1254 1       7.4191845854      10.0000000000
1255 1       7.3380589496       8.0000000000
1256 1       7.2259982260       9.0000000000
1257 1       7.0194513102      11.0000000000
1258 1       7.2700287131      11.0000000000
1259 1       7.1839560035       9.0000000000
1260 1       6.9017495019      10.0000000000
1261 1       6.9149916023       9.0000000000
1262 1       7.7072243230       9.0000000000
1263 1       7.2168129084       8.0000000000
1264 1       7.2642971978      10.0000000000
1265 1       7.5395658694      11.0000000000
1266 1       7.9589383960      11.0000000000
1267 1       7.3934953007      10.0000000000
1268 1       7.0964365363       9.0000000000
1269 1       7.9847902226       8.0000000000
1270 1       7.0830442926       9.0000000000
1271 1       7.7327795441      12.0000000000
1272 1       8.2839147070      11.0000000000
1273 1       6.6994841630      11.0000000000
1274 1       7.0105166773      10.0000000000
1275 1       7.2039849705       8.0000000000
1276 1       7.1614812679       9.0000000000
1277 1       8.2283893986       9.0000000000
1278 1       7.3127701932       9.0000000000
1279 1       7.3969878295      11.0000000000
1280 1       7.3259124683       9.0000000000
1281 1       7.3323574678       9.0000000000
1282 1       7.0851090007       8.0000000000
1283 1       6.9414423756       9.0000000000
1284 1       6.6975298359       8.0000000000
1285 1       6.9238002728       9.0000000000
1286 1       7.1834387537      11.0000000000
1287 1       7.0347619409      11.0000000000
1288 1       8.1065265499      10.0000000000
1289 1       6.9773501736      10.0000000000
1290 1       7.0114105829      11.0000000000
1291 1       7.6185118202      10.0000000000
1292 1       7.0237611429       8.0000000000
1293 1       7.1116812550       9.0000000000
1294 1       7.2958765842      11.0000000000
1295 1       7.3723330682       9.0000000000
1296 1       7.2482666858       9.0000000000
1297 1       7.6922613085      10.0000000000
1298 1       7.5231729686      11.0000000000
1299 1       7.0768515558       8.0000000000
1300 1       7.2634204022       9.0000000000
1301 1       6.9394250818       9.0000000000
1302 1       6.6635024579       8.0000000000
1303 1       6.7395604366       7.0000000000
1304 1       7.3141205049       9.0000000000
1305 1       7.3768007078      10.0000000000
1306 1       7.3378959374      10.0000000000
1307 1       7.5383195291       9.0000000000
1308 1       7.7284910143       9.0000000000
1309 1       6.8282172880       9.0000000000
1310 1       7.3787116189       9.0000000000
1311 1       6.7956095027      10.0000000000
1312 1       7.4848155769       9.0000000000
1313 1       7.0855440397       9.0000000000
1314 1       7.7840320044      10.0000000000
1315 1       7.4640379788      10.0000000000
1316 1       7.8585048671       6.0000000000
1317 1       7.3594690464       9.0000000000
1318 1       7.0724187426       9.0000000000
1319 1       7.7188562792      11.0000000000
1320 1       6.7928540257      11.0000000000
1321 1       7.3235404379      12.0000000000
1322 1       7.0938790431       8.0000000000
1323 1       7.1573336438       8.0000000000
1324 1       7.1970317580       8.0000000000
1325 1       7.3685064965       8.0000000000
1326 1       6.8290875289      10.0000000000
1327 1       7.4177606873      12.0000000000
1328 1       7.2223260343       9.0000000000
1329 1       7.0041814374      12.0000000000
1330 1       7.2864025993      10.0000000000
1331 1       7.0909567384       8.0000000000
1332 1       7.1380755132       9.0000000000
1333 1       7.3552293194      10.0000000000
1334 1       6.9876209022       9.0000000000
1335 1       6.9020108721       8.0000000000
1336 1       7.9564441566      11.0000000000
1337 1       7.3024172898       8.0000000000
1338 1       7.3492182275       9.0000000000
1339 1       7.3051941851      13.0000000000
1340 1       7.1352448160      10.0000000000
1341 1       7.6125137844       9.0000000000
1342 1       7.7147512518       9.0000000000
1343 1       7.3739370980       8.0000000000
1344 1       7.1584267048      11.0000000000
1345 1       7.1991604496      10.0000000000
1346 1       7.4003891491      14.0000000000
1347 1       7.1317324143       8.0000000000
1348 1       7.0768204668      10.0000000000
1349 1       7.4710490076      10.0000000000
1350 1       7.0159119671       6.0000000000
1351 1       7.3412680758       9.0000000000
1352 1       6.6132440010       9.0000000000
1353 1       7.4411014343       9.0000000000
1354 1       7.3918230118       9.0000000000
1355 1       7.5173173693       9.0000000000
1356 1       7.2243947241      10.0000000000
1357 1       7.0021347299       8.0000000000
1358 1       6.8388040648      12.0000000000
1359 1       7.0263664055       9.0000000000
1360 1       7.3198512808      10.0000000000
1361 1       7.3179595748       9.0000000000
1362 1       7.4008909787       8.0000000000
1363 1       7.1167692249       8.0000000000
1364 1       6.7135162671       9.0000000000
1365 1       6.7269949811       9.0000000000
1366 1       7.1670785793       9.0000000000
1367 1       7.1935389252      11.0000000000
1368 1       7.2890014937       9.0000000000
1369 1       6.6465739158       9.0000000000
1370 1       7.4813856347      11.0000000000
1371 1       7.3842413006       8.0000000000
1372 1       7.5036017152       8.0000000000
1373 1       7.1903805672       8.0000000000
1374 1       7.2236063189       9.0000000000
1375 1       7.2661810101      11.0000000000
1376 1       7.4076363633      12.0000000000
1377 1       6.7170752678       7.0000000000
1378 1       7.0599045505       7.0000000000
1379 1       7.4095190225       9.0000000000
1380 1       7.8480765201       9.0000000000
1381 1       7.6593053086       9.0000000000
1382 1       7.1826750778       9.0000000000
1383 1       7.9192953420       8.0000000000
1384 1       6.8490063790       8.0000000000
1385 1       7.1236754068       9.0000000000
1386 1       7.8920423194      10.0000000000
1387 1       7.4361475731       8.0000000000
1388 1       7.2594304879       8.0000000000
1389 1       7.3210566867       7.0000000000
1390 1       7.0314879445       9.0000000000
1391 1       7.9914712260      10.0000000000
1392 1       7.2816824577      11.0000000000
1393 1       7.2579242661       9.0000000000
1394 1       7.8281691644      12.0000000000
1395 1       6.9514421995      10.0000000000
1396 1       6.6013127857       8.0000000000
1397 1       7.0876275587       9.0000000000
1398 1       7.1196430289      11.0000000000
1399 1       7.7438977354       8.0000000000
1400 1       7.4464959225       9.0000000000
1401 1       7.0565367231      11.0000000000
1402 1       7.4277417635      10.0000000000
1403 1       7.1197892233       9.0000000000
1404 1       7.5395700211       9.0000000000
1405 1       7.2835610648       9.0000000000
1406 1       7.7693618679      10.0000000000
1407 1       7.1666237781      12.0000000000
1408 1       7.1477593859       7.0000000000
1409 1       7.0072544880       9.0000000000
1410 1       7.1969635282       7.0000000000
1411 1       7.5792796843      10.0000000000
1412 1       6.9269337715      10.0000000000
1413 1       6.6338918558       9.0000000000
1414 1       7.0907917511       9.0000000000
1415 1       7.0034704447      10.0000000000
1416 1       6.9665742987       9.0000000000
1417 1       7.4319771964       9.0000000000
1418 1       7.2476458988      11.0000000000
1419 1       7.1328184484      11.0000000000
1420 1       7.2072243125       8.0000000000
1421 1       7.1994382049       9.0000000000
1422 1       7.8218272943      11.0000000000
1423 1       7.6422973064       8.0000000000
1424 1       7.2052226556       9.0000000000
1425 1       6.8417902680       9.0000000000
1426 1       7.3940120742      10.0000000000
1427 1       7.1937951951       8.0000000000
1428 1       7.5406756328      10.0000000000
1429 1       7.1175016821       9.0000000000
1430 1       7.3275842757      10.0000000000
1431 1       7.5031516469      10.0000000000
1432 1       6.9438596966       8.0000000000
1433 1       7.0970210165      10.0000000000
1434 1       7.1092972966       9.0000000000
1435 1       7.0849108785      10.0000000000
1436 1       7.6815160361      10.0000000000
1437 1       7.0897732538       8.0000000000
1438 1       6.6091758543       9.0000000000
1439 1       7.1991612328       8.0000000000
1440 1       6.6367884780       9.0000000000
1441 1       7.4033134667       7.0000000000
1442 1       7.2740830509      11.0000000000
1443 1       7.2540702179      10.0000000000
1444 1       7.2320722374      10.0000000000
1445 1       7.5076309519      12.0000000000
1446 1       7.2019248455       8.0000000000
1447 1       7.6732106511      11.0000000000
1448 1       7.5272647853      11.0000000000
1449 1       7.7960221918      10.0000000000
1450 1       7.2902103078      11.0000000000
1451 1       7.2880525217       8.0000000000
1452 1       7.9186607850      11.0000000000
1453 1       7.0381417242       9.0000000000
1454 1       7.0953616014      10.0000000000
1455 1       7.2015223830      10.0000000000
1456 1       7.3027205503      10.0000000000
1457 1       7.2629328076       9.0000000000
1458 1       7.1077401189      10.0000000000
1459 1       7.3365589605      10.0000000000
1460 1       6.9701493439       8.0000000000
1461 1       7.4415654902       9.0000000000
1462 1       7.7359358329       9.0000000000
1463 1       6.7613157503       9.0000000000
1464 1       6.7144784749      10.0000000000
1465 1       7.0437624391       9.0000000000
1466 1       7.5575410414      12.0000000000
1467 1       7.1128263875       9.0000000000
1468 1       6.6108438046       8.0000000000
1469 1       7.5872890171      10.0000000000
1470 1       7.0389111806      11.0000000000
1471 1       6.9223796564       7.0000000000
1472 1       6.9903217900      10.0000000000
1473 1       7.5057276158       9.0000000000
1474 1       7.3570817226      10.0000000000
1475 1       7.7844522262       9.0000000000
1476 1       7.5167188445       9.0000000000
1477 1       6.9487962455       8.0000000000
1478 1       6.9055532261       9.0000000000
1479 1       7.3254604169       7.0000000000
1480 1       7.2884294591       9.0000000000
1481 1       7.0688019065      10.0000000000
1482 1       7.6294588106       8.0000000000
1483 1       7.5564111904      10.0000000000
1484 1       7.3336725396      10.0000000000
1485 1       7.3792932030      12.0000000000
1486 1       7.5531900036       9.0000000000
1487 1       7.4504677211       9.0000000000
1488 1       7.6612944556      13.0000000000
1489 1       7.6000354746      10.0000000000
1490 1       7.0918095531       8.0000000000
1491 1       7.4547280950      12.0000000000
1492 1       6.9026369779       8.0000000000
1493 1       7.0098349482       8.0000000000
1494 1       7.8552029545       9.0000000000
1495 1       7.1687909423       9.0000000000
1496 1       7.5293131625       9.0000000000
1497 1       7.7393790387       8.0000000000
1498 1       7.3039663715      11.0000000000
1499 1       7.4860591003       8.0000000000
1500 1       7.3471733015       9.0000000000
1501 1       7.1959954460       9.0000000000
1502 1       7.0971378581       9.0000000000
1503 1       7.1026564607      11.0000000000
1504 1       7.4533048239      11.0000000000
1505 1       7.4291706209      10.0000000000
1506 1       7.7119541682       9.0000000000
1507 1       6.8834009319       7.0000000000
1508 1       7.1124042202       8.0000000000
1509 1       7.1568485322      10.0000000000
1510 1       7.7582359686      11.0000000000
1511 1       7.7417996112      11.0000000000
1512 1       7.5122686380      10.0000000000
1513 1       7.1423548782       9.0000000000
1514 1       7.2285253735       9.0000000000
1515 1       7.7996306301       9.0000000000
1516 1       6.6457682365      10.0000000000
1517 1       6.9918200205       8.0000000000
1518 1       6.7292419337       7.0000000000
1519 1       7.8054465911      10.0000000000
1520 1       7.1560498025      11.0000000000
1521 1       7.5349044593      10.0000000000
1522 1       7.8066001882      12.0000000000
1523 1       7.4653712084       8.0000000000
1524 1       7.3855301709       9.0000000000
1525 1       7.2295414451       8.0000000000
1526 1       7.2619114045       9.0000000000
1527 1       7.3125441111       9.0000000000
1528 1       6.7725439269       9.0000000000
1529 1       6.8820021952      10.0000000000
1530 1       7.5339889291      12.0000000000
1531 1       7.0576163543      10.0000000000
1532 1       7.5653451252      11.0000000000
1533 1       6.9613538548       9.0000000000
1534 1       6.8048178782       8.0000000000
1535 1       6.7532943429       8.0000000000
1536 1       7.4149002998       8.0000000000
1537 1       6.7768837345       9.0000000000
1538 1       7.3716057350       8.0000000000
1539 1       7.1671623559      10.0000000000
1540 1       7.3876427615      10.0000000000
1541 1       7.0790857023       9.0000000000
1542 1       7.0918489069      10.0000000000
1543 1       6.8042099570       9.0000000000
1544 1       7.5678310881      10.0000000000
1545 1       6.9681019446       9.0000000000
1546 1       7.1145513694       9.0000000000
1547 1       7.1453720385       8.0000000000
1548 1       7.3916269734      11.0000000000
1549 1       6.7142933451       9.0000000000
1550 1       8.0625880798      11.0000000000
1551 1       7.3728595128       7.0000000000
1552 1       7.0704791193      10.0000000000
1553 1       7.2255481766      11.0000000000
1554 1       7.3339347107      11.0000000000
1555 1       7.2413684378       9.0000000000
1556 1       6.5298842234      10.0000000000
1557 1       7.7710547224      10.0000000000
1558 1       7.1826590580       9.0000000000
1559 1       7.0578586153       9.0000000000
1560 1       7.1255077566      11.0000000000
1561 1       7.1791960165       8.0000000000
1562 1       7.0054039133       9.0000000000
1563 1       7.2748715065      10.0000000000
1564 1       7.2692078027      10.0000000000
1565 1       7.6276078046      11.0000000000
1566 1       7.2397345473      10.0000000000
1567 1       7.2399063261       9.0000000000
1568 1       6.9505382957       9.0000000000
1569 1       7.1742117695      10.0000000000
1570 1       6.6830756183      11.0000000000
1571 1       7.3455005261       8.0000000000
1572 1       7.2122274842       9.0000000000
1573 1       6.8742977892       8.0000000000
1574 1       7.3340498979       9.0000000000
1575 1       8.0611068989       8.0000000000
1576 1       7.0379265020       9.0000000000
1577 1       7.3369990765       9.0000000000
1578 1       7.2856739769      10.0000000000
1579 1       7.7601780297       9.0000000000
1580 1       7.0533838627       8.0000000000
1581 1       7.5026267286      10.0000000000
1582 1       7.1236931395       7.0000000000
1583 1       6.6421101464      11.0000000000
1584 1       7.0061056348       9.0000000000
1585 1       6.7441389439       8.0000000000
1586 1       6.9629483588      10.0000000000
1587 1       7.0298035904       9.0000000000
1588 1       7.3349973762      10.0000000000
1589 1       7.8517276824      10.0000000000
1590 1       7.4906328208       9.0000000000
1591 1       7.6341099001      11.0000000000
1592 1       6.9267149377       9.0000000000
1593 1       7.3038817647       9.0000000000
1594 1       6.9697562807       8.0000000000
1595 1       7.1269779375       9.0000000000
1596 1       6.8610806883       7.0000000000
1597 1       7.6016381996      11.0000000000
1598 1       7.2726730951      10.0000000000
1599 1       7.3308979603      10.0000000000
1600 1       6.7286392739       8.0000000000
1601 1       7.1181669025       9.0000000000
1602 1       7.0182168139       8.0000000000
1603 1       7.4960828598      10.0000000000
1604 1       6.9094817042       9.0000000000
1605 1       7.8073066266      11.0000000000
1606 1       7.1969154830       9.0000000000
1607 1       7.6689146809      10.0000000000
1608 1       7.6748534272      12.0000000000
1609 1       7.3251416464       8.0000000000
1610 1       7.5783066401      11.0000000000
1611 1       7.5192520390       8.0000000000
1612 1       7.2058426057       8.0000000000
1613 1       6.7651113958       7.0000000000
1614 1       7.1880921925       8.0000000000
1615 1       7.1035364063       9.0000000000
1616 1       7.3553979818       8.0000000000
1617 1       7.1172817781      10.0000000000
1618 1       7.7912234530      10.0000000000
1619 1       7.4785626883       8.0000000000
1620 1       6.8355407743       8.0000000000
1621 1       6.8113278947       9.0000000000
1622 1       6.9619145393      10.0000000000
1623 1       7.2445613463      10.0000000000
1624 1       7.4605013905      10.0000000000
1625 1       6.7902090322      12.0000000000
1626 1       7.2812988923      10.0000000000
1627 1       7.0242123077      11.0000000000
1628 1       7.4280060092      10.0000000000
1629 1       6.9155934080      12.0000000000
1630 1       7.0888915951       9.0000000000
1631 1       7.5626141463       9.0000000000
1632 1       7.1958549692       9.0000000000
1633 1       7.4600375626       9.0000000000
1634 1       7.8644476800       9.0000000000
1635 1       7.2374245632       8.0000000000
1636 1       7.7342576271       9.0000000000
1637 1       7.3415257702       8.0000000000
1638 1       7.5352891223      10.0000000000
1639 1       7.2899870611       7.0000000000
1640 1       7.7582688468      10.0000000000
1641 1       7.3001531477      11.0000000000
1642 1       7.7144344933      10.0000000000
1643 1       6.6994840865       9.0000000000
1644 1       6.8667169094       9.0000000000
1645 1       7.2798639462       8.0000000000
1646 1       7.0600586112       7.0000000000
1647 1       7.0369568263       9.0000000000
1648 1       6.9169865484       9.0000000000
1649 1       7.2648978659       9.0000000000
1650 1       6.9854531489       8.0000000000
1651 1       7.4427927210       8.0000000000
1652 1       7.4209784358      10.0000000000
1653 1       6.8476620687      10.0000000000
1654 1       7.3498903644       8.0000000000
1655 1       7.0430078563       8.0000000000
1656 1       6.9803047294      11.0000000000
1657 1       7.5978001976       9.0000000000
1658 1       8.1423088899       9.0000000000
1659 1       7.5585400870       9.0000000000
1660 1       8.0052712331      13.0000000000
1661 1       7.1323275668       8.0000000000
1662 1       7.0265855191       8.0000000000
1663 1       7.1680229135      10.0000000000
1664 1       6.9720599016      10.0000000000
1665 1       7.3496721211       7.0000000000
1666 1       7.0863294703      10.0000000000
1667 1       7.1602747652      10.0000000000
1668 1       6.7829973485      10.0000000000
1669 1       7.4189470367       9.0000000000
1670 1       7.0276141175       8.0000000000
1671 1       7.6849277801      11.0000000000
1672 1       7.0693463742      10.0000000000
1673 1       7.3902031213       9.0000000000
1674 1       7.3413561887      10.0000000000
1675 1       7.1351733326       9.0000000000
1676 1       6.8990919527       9.0000000000
1677 1       7.5217795271      10.0000000000
1678 1       7.0365218221       9.0000000000
1679 1       8.0315624047      11.0000000000
1680 1       7.1734608695       9.0000000000
1681 1       7.8646171821      10.0000000000
1682 1       6.8863635269       9.0000000000
1683 1       7.3716034900      10.0000000000
1684 1       7.2180654919       9.0000000000
1685 1       7.5193755615       8.0000000000
1686 1       7.3971027250      11.0000000000
1687 1       7.2365706430       8.0000000000
1688 1       7.2127681782       9.0000000000
1689 1       7.0990296166       8.0000000000
1690 1       7.1150489592      12.0000000000
1691 1       7.4801565333      12.0000000000
1692 1       6.9052526848       8.0000000000
1693 1       7.3474691770      11.0000000000
1694 1       6.8547603308       7.0000000000
1695 1       7.1461368149      10.0000000000
1696 1       6.8275960571       9.0000000000
1697 1       7.2268878760       9.0000000000
1698 1       7.8163613120       9.0000000000
1699 1       7.2100727564       9.0000000000
1700 1       7.5353105968      11.0000000000
1701 1       7.3285711040       9.0000000000
1702 1       7.4411150573      10.0000000000
1703 1       7.0767057394      10.0000000000
1704 1       7.1295360323       8.0000000000
1705 1       7.3795873218       8.0000000000
1706 1       7.8065876006      11.0000000000
1707 1       7.2491451643      10.0000000000
1708 1       7.0752014690       8.0000000000
1709 1       6.9210761789       7.0000000000
1710 1       7.3160373063       9.0000000000
1711 1       7.0297612501       7.0000000000
1712 1       6.8797586829      11.0000000000
1713 1       7.3202932581      10.0000000000
1714 1       7.3076145561      11.0000000000
1715 1       7.3849512431       9.0000000000
1716 1       6.9914655580       9.0000000000
1717 1       7.1701847478       9.0000000000
1718 1       7.2833389036       8.0000000000
1719 1       7.7709386610      10.0000000000
1720 1       7.1275234752      11.0000000000
1721 1       7.9815961981      11.0000000000
1722 1       7.7005024833      11.0000000000
1723 1       7.1468166750       8.0000000000
1724 1       7.9270354118      10.0000000000
1725 1       7.0313343382      11.0000000000
1726 1       7.7022461438      12.0000000000
1727 1       7.6275746032      11.0000000000
1728 1       7.4932271281       9.0000000000
1729 1       7.5802589664      11.0000000000
1730 1       6.9701968106      10.0000000000
1731 1       6.7758504884      10.0000000000
1732 1       6.8806521951       9.0000000000
1733 1       7.1320238468      11.0000000000
1734 1       7.2933120273      12.0000000000
1735 1       7.5453335471      11.0000000000
1736 1       7.1574471108       9.0000000000
1737 1       7.7105602531      11.0000000000
1738 1       7.5662763887       9.0000000000
1739 1       6.7039891798      12.0000000000
1740 1       6.9010472965       6.0000000000
1741 1       7.1925738344      12.0000000000
1742 1       7.7313321124      10.0000000000
1743 1       7.2213589199      11.0000000000
1744 1       7.8232215279       9.0000000000
1745 1       8.0682128158       9.0000000000
1746 1       6.6628026618       9.0000000000
1747 1       7.2980408213      10.0000000000
1748 1       6.6999394640       9.0000000000
1749 1       7.4852531054       8.0000000000
1750 1       7.8541106497      12.0000000000
1751 1       7.0768255333       9.0000000000
1752 1       6.9906710462       7.0000000000
1753 1       7.0331417284       8.0000000000
1754 1       7.1852734090      11.0000000000
1755 1       7.0784794294      10.0000000000
1756 1       7.0688514231       8.0000000000
1757 1       7.2377000498      11.0000000000
1758 1       7.4242128258       9.0000000000
1759 1       7.1979910654       7.0000000000
1760 1       7.0490932439      10.0000000000
1761 1       6.8661415701       8.0000000000
1762 1       7.5132548924       9.0000000000
1763 1       7.3795073436       8.0000000000
1764 1       6.7205022229       8.0000000000
1765 1       7.5684423001       8.0000000000
1766 1       7.4119701542       9.0000000000
1767 1       7.0368650845      10.0000000000
1768 1       7.6021766281       9.0000000000
1769 1       7.4448077201       8.0000000000
1770 1       6.8272186429       9.0000000000
1771 1       7.3430105654       9.0000000000
1772 1       8.2579757464      12.0000000000
1773 1       7.1846114376       9.0000000000
1774 1       7.3511720894       9.0000000000
1775 1       7.6107970554      10.0000000000
1776 1       7.4118434287       9.0000000000
1777 1       7.0355413180       9.0000000000
1778 1       7.1023837063       8.0000000000
1779 1       7.4940064788       7.0000000000
1780 1       7.2327610416       8.0000000000
1781 1       7.5027242226      11.0000000000
1782 1       7.7389481927      10.0000000000
1783 1       8.0408127748       9.0000000000
1784 1       7.2324659233       9.0000000000
1785 1       7.5085819007       9.0000000000
1786 1       7.3671471722       8.0000000000
1787 1       7.4270142071       9.0000000000
1788 1       7.3260115141      13.0000000000
1789 1       7.1690935534       9.0000000000
1790 1       6.7092709284      11.0000000000
1791 1       7.5947212897      10.0000000000
1792 1       7.1631578601      10.0000000000
1793 1       7.2454447819       9.0000000000
1794 1       7.1795822223       9.0000000000
1795 1       6.9532735449       9.0000000000
1796 1       7.4880481414       9.0000000000
1797 1       7.2847716239      12.0000000000
1798 1       7.3862912031      12.0000000000
1799 1       7.0366718876       9.0000000000
1800 1       6.6460213745       8.0000000000
1801 1       7.8832547759      12.0000000000
1802 1       8.0551408387       7.0000000000
1803 1       7.0089617887       8.0000000000
1804 1       6.8084129428       9.0000000000
1805 1       7.4751530561      11.0000000000
1806 1       7.6949321683      11.0000000000
1807 1       7.5195686873      11.0000000000
1808 1       6.8676345186       9.0000000000
1809 1       7.2663951838      11.0000000000
1810 1       6.9151502687       9.0000000000
1811 1       7.5899721411       9.0000000000
1812 1       7.2945108779       9.0000000000
1813 1       7.8062343395      11.0000000000
1814 1       7.4414421935       8.0000000000
1815 1       6.7576076223       9.0000000000
1816 1       7.8478937662      11.0000000000
1817 1       7.8299115013       7.0000000000
1818 1       7.2483332348       8.0000000000
1819 1       6.9123598446       9.0000000000
1820 1       7.5125928644       9.0000000000
1821 1       7.5409594624      11.0000000000
1822 1       7.0526981578      11.0000000000
1823 1       7.0244422219       9.0000000000
1824 1       7.5664245768       8.0000000000
1825 1       6.8647085062       9.0000000000
1826 1       7.4329528697       9.0000000000
1827 1       7.0031687096       8.0000000000
1828 1       7.1677372028       9.0000000000
1829 1       7.7280267957       9.0000000000
1830 1       7.4816085825      11.0000000000
1831 1       7.1814595165      10.0000000000
1832 1       6.6593968401       7.0000000000
1833 1       7.6747294660       7.0000000000
1834 1       7.4558578286      11.0000000000
1835 1       8.4409342956       9.0000000000
1836 1       7.4502186335       9.0000000000
1837 1       7.1700273423      11.0000000000
1838 1       6.6033755805      10.0000000000
1839 1       6.7701104666      10.0000000000
1840 1       7.0475533776       9.0000000000
1841 1       7.5521363663       7.0000000000
1842 1       6.8799972530      11.0000000000
1843 1       7.6737878155      10.0000000000
1844 1       7.8804439373       8.0000000000
1845 1       7.1584311034      10.0000000000
1846 1       7.2382907987       9.0000000000
1847 1       7.3582228795       9.0000000000
1848 1       7.1672033546      10.0000000000
1849 1       8.4115415647       9.0000000000
1850 1       7.0464080662       8.0000000000
1851 1       7.3641111912      11.0000000000
1852 1       8.1059438910       9.0000000000
1853 1       7.0749051993      11.0000000000
1854 1       7.2352197175       9.0000000000
1855 1       7.5416210692       9.0000000000
1856 1       7.9788013973      12.0000000000
1857 1       7.3153161526      10.0000000000
1858 1       7.0200537593       9.0000000000
1859 1       7.1301673065      10.0000000000
1860 1       7.2309662792      10.0000000000
1861 1       7.2781141389       9.0000000000
1862 1       7.2431433553      10.0000000000
1863 1       7.5108545652       9.0000000000
1864 1       7.0724199886       9.0000000000
1865 1       7.0925817364       8.0000000000
1866 1       7.3458781615       8.0000000000
1867 1       7.9968577770       8.0000000000
1868 1       7.6495868908      10.0000000000
1869 1       7.0655569236       9.0000000000
1870 1       7.2840971202      11.0000000000
1871 1       7.3880079318       9.0000000000
1872 1       7.9268674523       8.0000000000
1873 1       7.1089874869       8.0000000000
1874 1       7.0583908132       9.0000000000
1875 1       7.3633347345      10.0000000000
1876 1       7.1701180635      10.0000000000
1877 1       7.4257102898      11.0000000000
1878 1       7.5253274719      12.0000000000
1879 1       7.7389020698       8.0000000000
1880 1       7.0711394135       9.0000000000
1881 1       7.2281304304      12.0000000000
1882 1       7.4186484212       8.0000000000
1883 1       7.1641891697       9.0000000000
1884 1       7.1309573784      10.0000000000
1885 1       7.1536705513       8.0000000000
1886 1       6.6533660612       9.0000000000
1887 1       6.7936438213       9.0000000000
1888 1       7.5315605428       9.0000000000
1889 1       7.0999435857      10.0000000000
1890 1       7.4204593986      11.0000000000
1891 1       7.7504257257       9.0000000000
1892 1       7.2186418018      11.0000000000
1893 1       6.8773762142       9.0000000000
1894 1       6.9672111204       9.0000000000
1895 1       7.1307242733       8.0000000000
1896 1       7.0305020081       8.0000000000
1897 1       6.9832041527       8.0000000000
1898 1       7.8533401184       9.0000000000
1899 1       7.1612057704       9.0000000000
1900 1       7.1100443009       8.0000000000
1901 1       7.4997729446       9.0000000000
1902 1       7.4136691802      10.0000000000
1903 1       7.3341827345      13.0000000000
1904 1       7.3249593470      10.0000000000
1905 1       7.7030153161      11.0000000000
1906 1       7.1176574481       7.0000000000
1907 1       7.4007260522       7.0000000000
1908 1       7.9382028352      11.0000000000
1909 1       7.5851196989       9.0000000000
1910 1       7.3267373755       9.0000000000
1911 1       7.4625736559      10.0000000000
1912 1       7.3544990085       9.0000000000
1913 1       7.3114597454      10.0000000000
1914 1       6.8449151301      10.0000000000
1915 1       7.1160896768      10.0000000000
1916 1       7.6226754573      11.0000000000
1917 1       7.4954524611      10.0000000000
1918 1       7.5582724056      11.0000000000
1919 1       7.3357741638      12.0000000000
1920 1       7.0440974108       7.0000000000
1921 1       6.7644581269      10.0000000000
1922 1       7.2674752018       8.0000000000
1923 1       7.4625548420       8.0000000000
1924 1       7.5369291471       7.0000000000
1925 1       7.2873061031      10.0000000000
1926 1       7.1252360705       6.0000000000
1927 1       6.8021980351       8.0000000000
1928 1       6.8058531851       9.0000000000
1929 1       7.3153768780      11.0000000000
1930 1       7.7101875545      11.0000000000
1931 1       6.8702781982      10.0000000000
1932 1       7.1325989325      11.0000000000
1933 1       7.4254118229       8.0000000000
1934 1       7.5569504498      10.0000000000
1935 1       7.9725282953       8.0000000000
1936 1       7.5962784821      10.0000000000
1937 1       7.4423038984      10.0000000000
1938 1       7.2143304235      10.0000000000
1939 1       7.0773473512      10.0000000000
1940 1       6.9074985581       8.0000000000
1941 1       6.9450906820       8.0000000000
1942 1       7.9065699747       9.0000000000
1943 1       7.0344101726      11.0000000000
1944 1       7.1067614057       7.0000000000
1945 1       7.5562111623      11.0000000000
1946 1       7.4442266608      10.0000000000
1947 1       7.0056970444       9.0000000000
1948 1       7.4013849302       9.0000000000
1949 1       7.7549562658       9.0000000000
1950 1       6.8537129351       9.0000000000
1951 1       7.3677073210       7.0000000000
1952 1       7.9558035436      10.0000000000
1953 1       7.1965676110       8.0000000000
1954 1       6.9656600860      10.0000000000
1955 1       7.3288603960      10.0000000000
1956 1       6.7237395006      10.0000000000
1957 1       7.4321186060      11.0000000000
1958 1       6.9510141183       8.0000000000
1959 1       7.4048595894       9.0000000000
1960 1       6.9256244702       9.0000000000
1961 1       7.1410855982       7.0000000000
1962 1       6.9863669123       8.0000000000
1963 1       7.3603998596      10.0000000000
1964 1       7.2701075910       9.0000000000
1965 1       7.1954897079       7.0000000000
1966 1       7.5190661761      13.0000000000
1967 1       6.9885224423       8.0000000000
1968 1       8.1913192193      11.0000000000
1969 1       7.0991983015      10.0000000000
1970 1       7.6746628481      10.0000000000
1971 1       7.5045840244       7.0000000000
1972 1       6.7562211650       9.0000000000
1973 1       7.7115902310       9.0000000000
1974 1       7.7661641593       9.0000000000
1975 1       7.2146394545      11.0000000000
1976 1       8.3035793241       8.0000000000
1977 1       7.0364780221       9.0000000000
1978 1       7.0994359835      11.0000000000
1979 1       7.7494390753      11.0000000000
1980 1       6.7009305116       7.0000000000
1981 1       7.2079580376       8.0000000000
1982 1       7.7467001819      10.0000000000
1983 1       7.4314417897      11.0000000000
1984 1       6.8441863760       9.0000000000
1985 1       7.0734088368       9.0000000000
1986 1       6.9800387791       7.0000000000
1987 1       7.2754693378      10.0000000000
1988 1       8.0227413672      10.0000000000
1989 1       7.5521295848      10.0000000000
1990 1       7.1119214853       8.0000000000
1991 1       7.1080826014       8.0000000000
1992 1       7.8349600904      10.0000000000
1993 1       6.9951176274       6.0000000000
1994 1       7.0886642192      11.0000000000
1995 1       7.0452612319       7.0000000000
1996 1       7.5069130661      12.0000000000
1997 1       6.7081810193       9.0000000000
1998 1       7.6131804709       9.0000000000
1999 1       6.9834096373       7.0000000000
2000 1       7.2607848359       9.0000000000
2001 1       7.1988474007       9.0000000000
2002 1       7.5527960130      13.0000000000
2003 1       7.0953164776      10.0000000000
2004 1       7.1877782046      11.0000000000
2005 1       7.1270619744       7.0000000000
2006 1       7.3693074717      10.0000000000
2007 1       7.6084385936      11.0000000000
2008 1       7.1661362178       8.0000000000
2009 1       6.7195586458      10.0000000000
2010 1       7.3283030685       9.0000000000
2011 1       7.1440925945      10.0000000000
2012 1       7.0574719235       9.0000000000
2013 1       7.2519166269      10.0000000000
2014 1       7.2909067190       9.0000000000
2015 1       6.6402636833       9.0000000000
2016 1       7.4295523705       8.0000000000
2017 1       7.2675910329       9.0000000000
2018 1       7.6680107865       8.0000000000
2019 1       7.4228478695      12.0000000000
2020 1       7.0849744519       9.0000000000
2021 1       7.6788266909      12.0000000000
2022 1       7.0332217941       8.0000000000
2023 1       6.8815565632      11.0000000000
2024 1       7.3957261569       9.0000000000
2025 1       7.5482320644       8.0000000000
2026 1       6.9832583370       7.0000000000
2027 1       6.9613986229       6.0000000000
2028 1       7.4130416170      11.0000000000
2029 1       6.9636987083       8.0000000000
2030 1       7.1074807777      10.0000000000
2031 1       7.2212843083      11.0000000000
2032 1       7.6909350291      12.0000000000
2033 1       7.0640222615      10.0000000000
2034 1       6.8396759298       9.0000000000
2035 1       7.3858462646       9.0000000000
2036 1       6.8354651117       8.0000000000
2037 1       7.1077307433       8.0000000000
2038 1       7.4050879482       9.0000000000
2039 1       7.0158211021      10.0000000000
2040 1       6.3579693430       9.0000000000
2041 1       7.2291247196       7.0000000000
2042 1       7.4258714946       7.0000000000
2043 1       7.0289802384       6.0000000000
2044 1       6.8784494602      10.0000000000
2045 1       7.5328205770       9.0000000000
2046 1       7.2477966344      10.0000000000
2047 1       7.5435205518      10.0000000000
2048 1       7.4161738456      12.0000000000
2049 1       7.0265228209       8.0000000000
2050 1       7.1444252067      10.0000000000
2051 1       6.9010862414       8.0000000000
2052 1       7.3524599003       9.0000000000
2053 1       7.8153346657      13.0000000000
2054 1       6.8596801483       7.0000000000
2055 1       6.5622953618       8.0000000000
2056 1       7.1690371339       7.0000000000
2057 1       7.3180220609      10.0000000000
2058 1       6.6948581875       8.0000000000
2059 1       7.1249757380       9.0000000000
2060 1       7.1520830570       9.0000000000
2061 1       7.2103039875       9.0000000000
2062 1       6.9888095743       9.0000000000
2063 1       6.9499323116       7.0000000000
2064 1       6.9671532195       9.0000000000
2065 1       6.8477495929       8.0000000000
2066 1       7.1928583364       8.0000000000
2067 1       7.4031715762       8.0000000000
2068 1       6.9833865320      10.0000000000
2069 1       7.2064761319      10.0000000000
2070 1       7.3667965285      10.0000000000
2071 1       7.3669590167       9.0000000000
2072 1       7.3915135136      11.0000000000
2073 1       7.1119740861       8.0000000000
2074 1       7.7703343324       9.0000000000
2075 1       7.3341799473      10.0000000000
2076 1       7.5633725055      10.0000000000
2077 1       7.2885450853       9.0000000000
2078 1       7.3302117773      10.0000000000
2079 1       7.3977835667      11.0000000000
2080 1       7.2073139484      10.0000000000
2081 1       7.1539001693       8.0000000000
2082 1       7.3098332587       7.0000000000
2083 1       7.2454938841      11.0000000000
2084 1       7.2185591221      10.0000000000
2085 1       6.9598425757       9.0000000000
2086 1       7.5855227134      10.0000000000
2087 1       7.0003021931       9.0000000000
2088 1       7.1279079002      11.0000000000
2089 1       6.9969955033       9.0000000000
2090 1       6.7450615230      10.0000000000
2091 1       7.2376671756      11.0000000000
2092 1       7.2367606920       8.0000000000
2093 1       7.0504087659       9.0000000000
2094 1       7.6464739554       8.0000000000
2095 1       7.2063178174       9.0000000000
2096 1       7.1833564827       8.0000000000
2097 1       6.8197661581      11.0000000000
2098 1       7.6973910359       9.0000000000
2099 1       6.7092331291       9.0000000000
2100 1       6.7549200657      10.0000000000
2101 1       7.2509165637       7.0000000000
2102 1       7.0640415438       9.0000000000
2103 1       6.9833090317      10.0000000000
2104 1       6.8283507781      10.0000000000
2105 1       7.3983172443       9.0000000000
2106 1       7.1591161545      10.0000000000
2107 1       7.0776763428       8.0000000000
2108 1       7.4859736690      10.0000000000
2109 1       7.0892571845      10.0000000000
2110 1       6.7991739400       9.0000000000
2111 1       7.5899946177      10.0000000000
2112 1       7.2207540959       9.0000000000
2113 1       7.3188018256      11.0000000000
2114 1       7.2296791478      11.0000000000
2115 1       8.0812625557      15.0000000000
2116 1       7.0334549370       8.0000000000
2117 1       7.3626572232      10.0000000000
2118 1       7.7891884501      12.0000000000
2119 1       7.5386721352       9.0000000000
2120 1       7.5830415856      10.0000000000
2121 1       7.4017327727       7.0000000000
2122 1       6.9755109388       7.0000000000
2123 1       7.3882458856       8.0000000000
2124 1       7.5935710203       8.0000000000
2125 1       7.5535376351      10.0000000000
2126 1       7.1827454383       9.0000000000
2127 1       6.9098440928       8.0000000000
2128 1       6.9758514178       9.0000000000
2129 1       7.3177089195       8.0000000000
2130 1       7.4039710926       7.0000000000
2131 1       7.3235044038       9.0000000000
2132 1       7.4560487243      10.0000000000
2133 1       7.4562046993      10.0000000000
2134 1       7.1191937682       9.0000000000
2135 1       6.9303486237      10.0000000000
2136 1       7.1006717764       9.0000000000
2137 1       7.3403710200       9.0000000000
2138 1       7.4324627012      10.0000000000
2139 1       7.4416397492      10.0000000000
2140 1       7.6988129754       9.0000000000
2141 1       7.9713619576      10.0000000000
2142 1       7.4292271480      10.0000000000
2143 1       6.9356888314       9.0000000000
2144 1       7.7444178731      10.0000000000
2145 1       7.1884106014       8.0000000000
2146 1       7.3862977366      11.0000000000
2147 1       7.6707088192       8.0000000000
2148 1       7.2061319079      11.0000000000
2149 1       6.8336451953       9.0000000000
2150 1       6.7878569747      10.0000000000
2151 1       6.9613371939       9.0000000000
2152 1       6.9962206145       8.0000000000
2153 1       6.9363676765      10.0000000000
2154 1       7.8612697432       8.0000000000
2155 1       7.7500798717      10.0000000000
2156 1       7.2490122891      11.0000000000
2157 1       7.3685533520      10.0000000000
2158 1       7.3876857051       8.0000000000
2159 1       7.0444194494       8.0000000000
2160 1       8.2142990879       9.0000000000
2161 1       7.6003965328       9.0000000000
2162 1       7.2578834582       9.0000000000
2163 1       7.3753765282      10.0000000000
2164 1       6.6151657188       9.0000000000
2165 1       7.2874258395      10.0000000000
2166 1       7.5103165251      10.0000000000
2167 1       7.5531623334       9.0000000000
2168 1       7.3107132433       9.0000000000
2169 1       7.6408406008      11.0000000000
2170 1       7.6092282969       9.0000000000
2171 1       7.6657587173      12.0000000000
2172 1       7.6560741260      10.0000000000
2173 1       7.3038935993       8.0000000000
2174 1       6.8284953570      10.0000000000
2175 1       6.9829693571      10.0000000000
2176 1       7.2276524315       7.0000000000
2177 1       7.2162719792      10.0000000000
2178 1       6.7286303096      10.0000000000
2179 1       7.0646852180      10.0000000000
2180 1       7.7035602858      10.0000000000
2181 1       7.5190715867       9.0000000000
2182 1       6.7906312792       9.0000000000
2183 1       7.6089622969      12.0000000000
2184 1       6.9070425458       8.0000000000
2185 1       6.8060102502       8.0000000000
2186 1       7.6530054888       9.0000000000
2187 1       7.4778291379       9.0000000000
2188 1       7.4534371414       8.0000000000
2189 1       7.1101178990       9.0000000000
2190 1       7.5095741196       8.0000000000
2191 1       7.2967241874       9.0000000000
2192 1       7.0089268409       8.0000000000
2193 1       7.6531123047       9.0000000000
2194 1       6.8733053728       9.0000000000
2195 1       6.7257922099       9.0000000000
2196 1       7.3621429060       9.0000000000
2197 1       7.7099286489       9.0000000000
2198 1       7.2292099488      10.0000000000
2199 1       7.4431488387       8.0000000000
2200 1       7.6762972109       8.0000000000
2201 1       6.9126978363       8.0000000000
2202 1       7.1303620205       9.0000000000
2203 1       7.1624634696       9.0000000000
2204 1       6.9626361407       8.0000000000
2205 1       7.3901401126      10.0000000000
2206 1       7.1497994015       9.0000000000
2207 1       7.2674188646       9.0000000000
2208 1       7.3482875705      10.0000000000
2209 1       7.3555820684       7.0000000000
2210 1       7.7036445208       8.0000000000
2211 1       7.9090700862       8.0000000000
2212 1       7.1193872880       9.0000000000
2213 1       7.0714100403       7.0000000000
2214 1       7.3218158554      11.0000000000
2215 1       7.2109082545      10.0000000000
2216 1       7.5014768363      10.0000000000
2217 1       6.7116435228      11.0000000000
2218 1       7.0490572549       8.0000000000
2219 1       6.9698088957      10.0000000000
2220 1       6.8319366656      10.0000000000
2221 1       6.6727674645       8.0000000000
2222 1       7.6506475200       7.0000000000
2223 1       7.3739022992      10.0000000000
2224 1       7.1314742095       9.0000000000
2225 1       7.4648111127       9.0000000000
2226 1       7.1110614864       8.0000000000
2227 1       7.3483128212      10.0000000000
2228 1       7.2852198317      10.0000000000
2229 1       6.8756740646      11.0000000000
2230 1       7.3422098799       8.0000000000
2231 1       7.5043760033       9.0000000000
2232 1       7.4667710639       9.0000000000
2233 1       7.2610109649       9.0000000000
2234 1       7.1750596228      10.0000000000
2235 1       7.2080762044      10.0000000000
2236 1       7.2964269191       8.0000000000
2237 1       7.6303608463       9.0000000000
2238 1       7.2061374885       8.0000000000
2239 1       7.3794953994       9.0000000000
2240 1       7.3038260096      12.0000000000
2241 1       7.3019106376      11.0000000000
2242 1       7.0610940469       8.0000000000
2243 1       7.4031005866      10.0000000000
2244 1       7.2417705278       9.0000000000
2245 1       7.4380292968       8.0000000000
2246 1       7.0581803841       8.0000000000
2247 1       8.1308652208      11.0000000000
2248 1       6.8029439087       9.0000000000
2249 1       7.1401147569       8.0000000000
2250 1       7.3165242243       9.0000000000
2251 1       7.7767806344       7.0000000000
2252 1       7.8589233097      10.0000000000
2253 1       7.6666249491       8.0000000000
2254 1       7.0285347942       7.0000000000
2255 1       7.7206595041      11.0000000000
2256 1       7.8223402890      13.0000000000
2257 1       7.5873059310       8.0000000000
2258 1       7.5323469092      10.0000000000
2259 1       7.4493970037      10.0000000000
2260 1       6.7046217368      10.0000000000
2261 1       6.9695774549      10.0000000000
2262 1       7.5348220915       9.0000000000
2263 1       7.1207483103       9.0000000000
2264 1       7.3853102581      11.0000000000
2265 1       6.8046643680       8.0000000000
2266 1       7.1412713756       8.0000000000
2267 1       8.1390434110      12.0000000000
2268 1       7.2524986997      10.0000000000
2269 1       7.3971276903      13.0000000000
2270 1       7.8125094627       8.0000000000
2271 1       7.7579597108      10.0000000000
2272 1       7.2241097550       8.0000000000
2273 1       7.2359516667      10.0000000000
2274 1       6.7869984960       7.0000000000
2275 1       7.6807855096      10.0000000000
2276 1       7.0526205074       8.0000000000
2277 1       7.2913720048       9.0000000000
2278 1       6.6479994550       9.0000000000
2279 1       7.4819458425      11.0000000000
2280 1       7.3896840501       7.0000000000
2281 1       8.4322034148      12.0000000000
2282 1       7.2406781914      10.0000000000
2283 1       7.1479075061       9.0000000000
2284 1       7.5722652006       9.0000000000
2285 1       7.5122826839      12.0000000000
2286 1       7.3302407180       9.0000000000
2287 1       8.3759831328      10.0000000000
2288 1       7.1808769569       8.0000000000
2289 1       7.8629138557      11.0000000000
2290 1       7.7749619567      12.0000000000
2291 1       7.2693703612       7.0000000000
2292 1       7.4604874557       8.0000000000
2293 1       7.2804803856      10.0000000000
2294 1       7.2577348771      11.0000000000
2295 1       6.9723118163       8.0000000000
2296 1       7.4846853275      12.0000000000
2297 1       6.7968968093       8.0000000000
2298 1       7.4858515550      10.0000000000
2299 1       7.2829562056       8.0000000000
2300 1       7.2221598139      10.0000000000
2301 1       7.3376851272       9.0000000000
2302 1       7.8734244658      10.0000000000
2303 1       6.7035408243       8.0000000000
2304 1       7.5088494161       8.0000000000
2305 1       7.0841122737      10.0000000000
2306 1       6.7498876080       9.0000000000
2307 1       7.1418120947      11.0000000000
2308 1       7.2004567663       9.0000000000
2309 1       7.0578812850       9.0000000000
2310 1       7.3038484948      11.0000000000
2311 1       7.0047821253       8.0000000000
2312 1       7.2626207033       9.0000000000
2313 1       7.4645699696       8.0000000000
2314 1       6.9859651797      10.0000000000
2315 1       7.3643701714      12.0000000000
2316 1       7.2149203151      12.0000000000
2317 1       7.1285195906       8.0000000000
2318 1       7.1254895083      10.0000000000
2319 1       7.9702104255      10.0000000000
2320 1       6.8607692674      10.0000000000
2321 1       6.9693439591      10.0000000000
2322 1       7.3566886852       8.0000000000
2323 1       7.1783177529       8.0000000000
2324 1       7.5475772120      11.0000000000
2325 1       7.1390575635       9.0000000000
2326 1       6.9313547457       9.0000000000
2327 1       6.9202228298      10.0000000000
2328 1       7.0897422644       9.0000000000
2329 1       7.2846960608       9.0000000000
2330 1       7.4868047912       8.0000000000
2331 1       7.0023358316       8.0000000000
2332 1       7.4550877425       9.0000000000
2333 1       7.3363516786       9.0000000000
2334 1       6.7959856395       9.0000000000
2335 1       6.5874548179       8.0000000000
2336 1       7.3081768956      10.0000000000
2337 1       7.2052727568      13.0000000000
2338 1       6.7114573325       9.0000000000
2339 1       7.1156367245       8.0000000000
2340 1       6.7866722177       9.0000000000
2341 1       7.2171074688       9.0000000000
2342 1       7.7781336216       9.0000000000
2343 1       7.0178366394       9.0000000000
2344 1       6.6333755690       7.0000000000
2345 1       7.3465309532      10.0000000000
2346 1       6.8912000478      10.0000000000
2347 1       6.7613665347       9.0000000000
2348 1       7.6931101527       7.0000000000
2349 1       6.8799127472       9.0000000000
2350 1       6.9203238402       9.0000000000
2351 1       7.5931712483      11.0000000000
2352 1       7.2270115975      10.0000000000
2353 1       6.8256874488       8.0000000000
2354 1       7.0767062875       7.0000000000
2355 1       6.5439035291      10.0000000000
2356 1       6.9901395537       9.0000000000
2357 1       7.4866303547       9.0000000000
2358 1       8.0356149828      10.0000000000
2359 1       7.2933849192      10.0000000000
2360 1       7.5567404395      11.0000000000
2361 1       7.4790555092      11.0000000000
2362 1       7.3853160716      10.0000000000
2363 1       7.2363914420       8.0000000000
2364 1       7.0623768128       9.0000000000
2365 1       7.0478528013       8.0000000000
2366 1       6.9696952354      10.0000000000
2367 1       7.0920572190      11.0000000000
2368 1       7.1877640564       9.0000000000
2369 1       8.1337043158       9.0000000000
2370 1       7.6444162176      11.0000000000
2371 1       7.4611120832      11.0000000000
2372 1       7.0844963620       9.0000000000
2373 1       7.3578730903      11.0000000000
2374 1       7.5118355659       9.0000000000
2375 1       7.5979250835       9.0000000000
2376 1       7.5628898686      10.0000000000
2377 1       7.3552616401      11.0000000000
2378 1       7.4602159109      10.0000000000
2379 1       7.4491630726       9.0000000000
2380 1       7.2213571838       9.0000000000
2381 1       7.9347051526       9.0000000000
2382 1       7.3512093375       7.0000000000
2383 1       7.1155034045       9.0000000000
2384 1       7.6854475006       9.0000000000
2385 1       7.7131988076       9.0000000000
2386 1       7.2089272602      10.0000000000
2387 1       7.0324479102       8.0000000000
2388 1       7.1448541550      10.0000000000
2389 1       6.9743467850       9.0000000000
2390 1       7.4832402227       8.0000000000
2391 1       7.0755953663      10.0000000000
2392 1       6.9555393887       8.0000000000
2393 1       7.2866750900       9.0000000000
2394 1       7.9908453008       9.0000000000
2395 1       7.6699238774      10.0000000000
2396 1       7.5602929110      10.0000000000
2397 1       7.2008674150       7.0000000000
2398 1       7.2078278077      11.0000000000
2399 1       7.4004181079       8.0000000000
2400 1       7.3080929651      10.0000000000
2401 1       7.5714538825       9.0000000000
2402 1       6.7264770853      10.0000000000
2403 1       7.0638910000      10.0000000000
2404 1       7.7875200399      11.0000000000
2405 1       6.8190315617       8.0000000000
2406 1       7.9051567445      12.0000000000
2407 1       6.8895509282       8.0000000000
2408 1       7.4440980840       9.0000000000
2409 1       6.8605464836       9.0000000000
2410 1       7.4162260196       9.0000000000
2411 1       6.9204072613       8.0000000000
2412 1       8.0047072102      12.0000000000
2413 1       7.2079734495      11.0000000000
2414 1       7.2129520755       9.0000000000
2415 1       7.4874605543      10.0000000000
2416 1       7.4891039005       8.0000000000
2417 1       7.4744713265       8.0000000000
2418 1       6.8336395635       9.0000000000
2419 1       7.0190029086       8.0000000000
2420 1       7.0839285945       8.0000000000
2421 1       7.2785905082       8.0000000000
2422 1       7.4234242772       9.0000000000
2423 1       6.9655063828      10.0000000000
2424 1       7.1955098004      10.0000000000
2425 1       7.1955816019       8.0000000000
2426 1       7.2064762004      11.0000000000
2427 1       7.6595854824      10.0000000000
2428 1       7.6384361621      11.0000000000
2429 1       7.4385370606      10.0000000000
2430 1       6.8807495852      10.0000000000
2431 1       6.9622476889       9.0000000000
2432 1       6.5482140360       9.0000000000
2433 1       7.4567690245      10.0000000000
2434 1       7.3276830885       8.0000000000
2435 1       7.3049157316       8.0000000000
2436 1       7.2382629137       8.0000000000
2437 1       6.9746257256       9.0000000000
2438 1       6.8958095070       9.0000000000
2439 1       7.2703139161       7.0000000000
2440 1       6.8728664604      10.0000000000
2441 1       6.8473062150       9.0000000000
2442 1       7.6841521349       9.0000000000
2443 1       7.8124694670      11.0000000000
2444 1       7.4400745512      10.0000000000
2445 1       7.3126855698       8.0000000000
2446 1       6.6715742875       7.0000000000
2447 1       6.9085927130      10.0000000000
2448 1       7.0631527969       9.0000000000
2449 1       7.7509431870       8.0000000000
2450 1       7.3736742785       9.0000000000
2451 1       7.1254720765      12.0000000000
2452 1       7.4969025601      10.0000000000
2453 1       7.3091784612       9.0000000000
2454 1       6.9597694727      10.0000000000
2455 1       7.7736546138      10.0000000000
2456 1       7.1383972820       9.0000000000
2457 1       6.6987150771       9.0000000000
2458 1       7.8645718070      10.0000000000
2459 1       7.1634253279       8.0000000000
2460 1       6.6989110274      10.0000000000
2461 1       7.3623073402      10.0000000000
2462 1       7.3667119207       9.0000000000
2463 1       7.2256149207       8.0000000000
2464 1       7.4120061058       9.0000000000
2465 1       7.6611891396      10.0000000000
2466 1       7.3724212631      11.0000000000
2467 1       7.5674601214       7.0000000000
2468 1       6.9320300100      10.0000000000
2469 1       6.9780910044       9.0000000000
2470 1       6.7923063920       9.0000000000
2471 1       6.9161594968       9.0000000000
2472 1       7.5260067468       8.0000000000
2473 1       7.4356886788       9.0000000000
2474 1       7.1520291394       7.0000000000
2475 1       7.2422494046       8.0000000000
2476 1       7.5314806685       9.0000000000
2477 1       6.6692538445       9.0000000000
2478 1       7.6969990847      10.0000000000
2479 1       7.4509307807      11.0000000000
2480 1       7.1534822746       9.0000000000
2481 1       7.5049622903       9.0000000000
2482 1       7.4072173355      12.0000000000
2483 1       6.9271119259       7.0000000000
2484 1       7.2842706449       9.0000000000
2485 1       6.2878984018       9.0000000000
2486 1       7.6414036061      10.0000000000
2487 1       7.7394696880       9.0000000000
2488 1       7.3232756123       8.0000000000
2489 1       7.1567714565       9.0000000000
2490 1       7.5126193324      10.0000000000
2491 1       7.0403287579      10.0000000000
2492 1       7.0208261112      10.0000000000
2493 1       7.0712097803       7.0000000000
2494 1       6.8829440342       8.0000000000
2495 1       7.0035044018       9.0000000000
2496 1       6.8491445231       7.0000000000
2497 1       7.5774695806       9.0000000000
2498 1       7.5785632636      11.0000000000
2499 1       7.2004817024       7.0000000000
2500 1       7.9139181574      10.0000000000
2501 1       7.4559860738      10.0000000000
2502 1       7.3928067224      12.0000000000
2503 1       8.3924991946      12.0000000000
2504 1       7.4772190647       9.0000000000
2505 1       7.2599742462      11.0000000000
2506 1       7.2472457526      10.0000000000
2507 1       7.1672498316      11.0000000000
2508 1       7.1203713721       8.0000000000
2509 1       8.1591293253      11.0000000000
2510 1       7.4183267902      10.0000000000
2511 1       6.7484050823      11.0000000000
2512 1       7.6707640229      10.0000000000
2513 1       7.4255525398       9.0000000000
2514 1       7.4343444512      10.0000000000
2515 1       6.6075127551      11.0000000000
2516 1       7.4827860981      10.0000000000
2517 1       7.0321219019       9.0000000000
2518 1       7.9109209375       9.0000000000
2519 1       7.2787103105       8.0000000000
2520 1       7.0165707492       8.0000000000
2521 1       7.6624340581      12.0000000000
2522 1       7.4800489590       9.0000000000
2523 1       7.3385176483      10.0000000000
2524 1       8.7358451055       9.0000000000
2525 1       7.3984250340       8.0000000000
2526 1       7.3576161691       9.0000000000
2527 1       7.6211318396      11.0000000000
2528 1       6.8213139932       9.0000000000
2529 1       7.0056324953      11.0000000000
2530 1       7.8142737968       9.0000000000
2531 1       8.5343646142      10.0000000000
2532 1       7.6081686287      10.0000000000
2533 1       6.9990837744       8.0000000000
2534 1       7.1115335501       7.0000000000
2535 1       7.3677517811      11.0000000000
2536 1       7.5325817467      10.0000000000
2537 1       7.7835204115       8.0000000000
2538 1       7.3059260088      10.0000000000
2539 1       7.7411827995      10.0000000000
2540 1       7.2159479036      11.0000000000
2541 1       6.8060940933      10.0000000000
2542 1       6.7506833358       9.0000000000
2543 1       7.3454206010       9.0000000000
2544 1       6.7865078489       8.0000000000
2545 1       7.0513061178       9.0000000000
2546 1       7.5126415348      11.0000000000
2547 1       7.5160926170       9.0000000000
2548 1       6.4611006238       9.0000000000
2549 1       7.3631856988       8.0000000000
2550 1       7.3627918147      11.0000000000
2551 1       7.6757567105      10.0000000000
2552 1       7.2985611580      10.0000000000
2553 1       7.4701057649       8.0000000000
2554 1       7.1606223582       9.0000000000
2555 1       7.0269409454       7.0000000000
2556 1       7.2478212816       8.0000000000
2557 1       7.2358455932      10.0000000000
2558 1       7.1543060419      10.0000000000
2559 1       7.6493110206       9.0000000000
2560 1       7.3094737768       8.0000000000
2561 1       7.6541320811       8.0000000000
2562 1       7.1358836198      11.0000000000
2563 1       7.2531859345      11.0000000000
2564 1       7.1384051212      12.0000000000
2565 1       7.4530964603      10.0000000000
2566 1       6.9444225453       8.0000000000
2567 1       7.5437340887       9.0000000000
2568 1       7.1126639485      10.0000000000
2569 1       8.0277697125       8.0000000000
2570 1       7.4075836183       9.0000000000
2571 1       7.3346417644      11.0000000000
2572 1       7.3611721787      10.0000000000
2573 1       6.9100499123       8.0000000000
2574 1       6.8209243265       8.0000000000
2575 1       6.7105257351       8.0000000000
2576 1       7.5821297688       8.0000000000
2577 1       7.1557256797      12.0000000000
2578 1       7.5737762805       8.0000000000
2579 1       7.2517507666       8.0000000000
2580 1       7.5511269498       8.0000000000
2581 1       6.9306721130       8.0000000000
2582 1       6.9282366959       9.0000000000
2583 1       7.2767499712       8.0000000000
2584 1       7.5055695317       9.0000000000
2585 1       7.1530452095       8.0000000000
2586 1       6.8479344008       9.0000000000
2587 1       7.6803146205       9.0000000000
2588 1       7.5505375053       8.0000000000
2589 1       7.5007378794       8.0000000000
2590 1       7.4673178808       9.0000000000
2591 1       7.7233328184       8.0000000000
2592 1       7.8213218397       7.0000000000
2593 1       7.9944405962      14.0000000000
2594 1       7.8646940613      10.0000000000
2595 1       6.8934847484       9.0000000000
2596 1       7.7193750548       9.0000000000
2597 1       6.9809655361       8.0000000000
2598 1       6.6366970469       9.0000000000
2599 1       7.0613549830       9.0000000000
2600 1       6.9243683303       8.0000000000
2601 1       7.5594902478      10.0000000000
2602 1       8.5054662315      10.0000000000
2603 1       7.5439668562      13.0000000000
2604 1       7.4700908452      10.0000000000
2605 1       7.6014705667      10.0000000000
2606 1       6.7833094436       9.0000000000
2607 1       7.3350390096       8.0000000000
2608 1       7.3689684387       9.0000000000
2609 1       7.1730843806       9.0000000000
2610 1       6.9804652286      10.0000000000
2611 1       7.0441964801      10.0000000000
2612 1       7.4885625224       9.0000000000
2613 1       7.3451237181       7.0000000000
2614 1       7.2365034514       8.0000000000
2615 1       6.5462285041       8.0000000000
2616 1       8.4882285687      10.0000000000
2617 1       7.5592554205       9.0000000000
2618 1       7.1279108954       9.0000000000
2619 1       6.9061818025       9.0000000000
2620 1       7.3422480165      11.0000000000
2621 1       7.1643050790       9.0000000000
2622 1       6.8529134356      11.0000000000
2623 1       7.0387118771       9.0000000000
2624 1       7.5183535549      10.0000000000
2625 1       6.9129505369       8.0000000000
2626 1       7.4494165240       9.0000000000
2627 1       7.0414424791      11.0000000000
2628 1       7.0927364151       8.0000000000
2629 1       8.0078331274      14.0000000000
2630 1       7.2442165030      10.0000000000
2631 1       6.9344158893       8.0000000000
2632 1       6.9843551442       9.0000000000
2633 1       7.7739136391      11.0000000000
2634 1       7.2504764223       7.0000000000
2635 1       7.7554435931      10.0000000000
2636 1       7.6449926763       8.0000000000
2637 1       7.3357829809       9.0000000000
2638 1       7.6502694740       8.0000000000
2639 1       7.7815260096       7.0000000000
2640 1       7.2961247649       9.0000000000
2641 1       7.9348742201      11.0000000000
2642 1       7.2586738590       9.0000000000
2643 1       7.3260860531       8.0000000000
2644 1       7.0982873246      10.0000000000
2645 1       6.8851510348      10.0000000000
2646 1       7.5158731189       9.0000000000
2647 1       6.7630594032       9.0000000000
2648 1       7.3555682095      10.0000000000
2649 1       7.2934319798       9.0000000000
2650 1       6.7977943507      10.0000000000
2651 1       7.1931822986       9.0000000000
2652 1       7.6685609457      12.0000000000
2653 1       7.8074394235      10.0000000000
2654 1       7.4711549721       9.0000000000
2655 1       7.4200007440       9.0000000000
2656 1       6.6832618419      10.0000000000
2657 1       7.6373328980       9.0000000000
2658 1       7.5523433797      10.0000000000
2659 1       7.2715494622      11.0000000000
2660 1       7.4496723678      10.0000000000
2661 1       7.1620418626       9.0000000000
2662 1       7.6450043892      10.0000000000
2663 1       7.0914208069      12.0000000000
2664 1       7.0616109251       8.0000000000
2665 1       8.1506966503      10.0000000000
2666 1       6.7377747806       7.0000000000
2667 1       7.6941788095      10.0000000000
2668 1       7.5666083440      10.0000000000
2669 1       7.2423312768       8.0000000000
2670 1       7.7120801431      10.0000000000
2671 1       7.1368891545       9.0000000000
2672 1       6.7044394847      11.0000000000
2673 1       7.2908921669       8.0000000000
2674 1       7.5035804382       9.0000000000
2675 1       7.5363330398       9.0000000000
2676 1       6.7276733152      10.0000000000
2677 1       7.3993670175       8.0000000000
2678 1       7.0397364115       7.0000000000
2679 1       7.0591424671       9.0000000000
2680 1       6.4972552403      10.0000000000
2681 1       7.2682626178      13.0000000000
2682 1       6.8654959176       9.0000000000
2683 1       6.9963269373      11.0000000000
2684 1       7.2851357572       9.0000000000
2685 1       7.0962151084      10.0000000000
2686 1       7.1027783694       9.0000000000
2687 1       6.6415191067       8.0000000000
2688 1       8.1698348311       6.0000000000
2689 1       7.6108126725       9.0000000000
2690 1       7.2451535325      11.0000000000
2691 1       7.4204562069      10.0000000000
2692 1       7.1102750276       9.0000000000
2693 1       7.4708015039       9.0000000000
2694 1       7.3618237263       9.0000000000
2695 1       7.1839405568      10.0000000000
2696 1       6.9086240801       9.0000000000
2697 1       7.2595860892       8.0000000000
2698 1       7.5985589797      11.0000000000
2699 1       7.5414453796       9.0000000000
2700 1       7.1171785065      11.0000000000
2701 1       7.4692696661       9.0000000000
2702 1       7.6243183974      10.0000000000
2703 1       7.4799508094      13.0000000000
2704 1       7.6463162479      11.0000000000
2705 1       7.9189184293      11.0000000000
2706 1       7.0122104749      10.0000000000
2707 1       7.3609405555      10.0000000000
2708 1       6.7593326290       6.0000000000
2709 1       7.0467598998      10.0000000000
2710 1       6.8856693140       8.0000000000
2711 1       7.0136118179       8.0000000000
2712 1       7.3240917991      10.0000000000
2713 1       7.4789677117      12.0000000000
2714 1       7.3993893853       9.0000000000
2715 1       7.0850667692       9.0000000000
2716 1       7.3244479408       9.0000000000
2717 1       6.7703492471       9.0000000000
2718 1       7.2877251142       7.0000000000
2719 1       7.8117618541       9.0000000000
2720 1       7.1039327037       9.0000000000
2721 1       7.1036276928      10.0000000000
2722 1       7.5836339803       9.0000000000
2723 1       8.0718939139       8.0000000000
2724 1       6.8723626678      11.0000000000
2725 1       6.9549574042       9.0000000000
2726 1       7.0597811113      10.0000000000
2727 1       7.4585863021       8.0000000000
2728 1       6.8831020411      10.0000000000
2729 1       7.0930530503      10.0000000000
2730 1       7.4632491760      11.0000000000
2731 1       7.0449897561       7.0000000000
2732 1       7.3753635275       9.0000000000
2733 1       8.0485794903      10.0000000000
2734 1       6.9396008790       9.0000000000
2735 1       8.1599975718      10.0000000000
2736 1       7.5963022786       7.0000000000
2737 1       7.7092189582      10.0000000000
2738 1       7.2494093184       9.0000000000
2739 1       7.4931974230       9.0000000000
2740 1       7.4945589803      11.0000000000
2741 1       7.4162580541       7.0000000000
2742 1       7.3066780144       8.0000000000
2743 1       7.4012004134       8.0000000000
2744 1       7.5297023486       8.0000000000
2745 1       7.1639660627       9.0000000000
2746 1       7.1271842044       8.0000000000
2747 1       7.1255188355       8.0000000000
2748 1       7.3657068044      11.0000000000
2749 1       7.2638341546       8.0000000000
2750 1       7.3288011809      10.0000000000
2751 1       6.8539099733       8.0000000000
2752 1       7.0107136737       9.0000000000
2753 1       7.7373760951      11.0000000000
2754 1       7.1248948210      10.0000000000
2755 1       7.0602340009      11.0000000000
2756 1       6.8783040946       9.0000000000
2757 1       6.6711697394       9.0000000000
2758 1       7.1560775293      10.0000000000
2759 1       7.4382521774       9.0000000000
2760 1       7.4723808185      10.0000000000
2761 1       7.0740516483       9.0000000000
2762 1       7.3640768512       9.0000000000
2763 1       7.0788569243      10.0000000000
2764 1       7.3487933643      10.0000000000
2765 1       8.2011285466      11.0000000000
2766 1       7.7180872574      12.0000000000
2767 1       7.0409956545      10.0000000000
2768 1       6.9011657870      10.0000000000
2769 1       7.7011669544      12.0000000000
2770 1       7.0333336719       8.0000000000
2771 1       6.9171087910       8.0000000000
2772 1       7.4272696625       9.0000000000
2773 1       7.0191974238      10.0000000000
2774 1       7.6014362276      10.0000000000
2775 1       7.2072916325       7.0000000000
2776 1       7.3526007255      14.0000000000
2777 1       7.2164948027       9.0000000000
2778 1       7.4268701428      10.0000000000
2779 1       7.3449157720       8.0000000000
2780 1       7.2522165765       8.0000000000
2781 1       7.1459075118       8.0000000000
2782 1       7.5239891036      11.0000000000
2783 1       6.8659575709       9.0000000000
2784 1       7.6618167098      10.0000000000
2785 1       6.8833412037       7.0000000000
2786 1       7.2979414891      12.0000000000
2787 1       6.7860536800      10.0000000000
2788 1       7.3773373973       9.0000000000
2789 1       7.0688127611       8.0000000000
2790 1       6.8775092126       8.0000000000
2791 1       6.5737081010      13.0000000000
2792 1       7.4847924355       9.0000000000
2793 1       7.0819396362       8.0000000000
2794 1       7.2161452690      13.0000000000
2795 1       7.3207742296       9.0000000000
2796 1       7.3197909198       8.0000000000
2797 1       7.1489116645       9.0000000000
2798 1       7.5387268890       7.0000000000
2799 1       7.4506101038      12.0000000000
2800 1       7.2836824419       9.0000000000
2801 1       7.5214099755      10.0000000000
2802 1       7.3410483306       9.0000000000
2803 1       7.0863828417      10.0000000000
2804 1       7.3306909399      10.0000000000
2805 1       7.1501673555      10.0000000000
2806 1       7.1005365411      10.0000000000
2807 1       7.4957248311      13.0000000000
2808 1       7.1781649637       8.0000000000
2809 1       7.3961629303      10.0000000000
2810 1       7.2421642025       8.0000000000
2811 1       6.9442064468       9.0000000000
2812 1       6.7053248328       9.0000000000
2813 1       7.2179244363      10.0000000000
2814 1       7.4809865522       9.0000000000
2815 1       7.5032849632       8.0000000000
2816 1       7.1380640910      13.0000000000
2817 1       7.9141546993      10.0000000000
2818 1       6.8169699331       9.0000000000
2819 1       7.5246218794      11.0000000000
2820 1       7.2464142011      10.0000000000
2821 1       7.4507591804       9.0000000000
2822 1       7.2779168420       9.0000000000
2823 1       7.0794326119       9.0000000000
2824 1       6.8654081898      10.0000000000
2825 1       6.6678627847       9.0000000000
2826 1       6.8210516263       7.0000000000
2827 1       7.0052510023       8.0000000000
2828 1       7.3181021686      10.0000000000
2829 1       7.2308462602      10.0000000000
2830 1       7.2367453809       9.0000000000
2831 1       6.7310823342       8.0000000000
2832 1       6.8673666404      11.0000000000
2833 1       7.3737052454       6.0000000000
2834 1       7.1427025278       8.0000000000
2835 1       6.9027048643      10.0000000000
2836 1       6.7141698384       6.0000000000
2837 1       7.6408313338      10.0000000000
2838 1       7.4384552765      11.0000000000
2839 1       7.4727079429      14.0000000000
2840 1       7.1197060105       8.0000000000
2841 1       7.5349414990       7.0000000000
2842 1       7.1616311826       9.0000000000
2843 1       7.2682336730       9.0000000000
2844 1       7.6936136235      11.0000000000
2845 1       7.0411432864       7.0000000000
2846 1       6.9156981402       8.0000000000
2847 1       7.3563155900      11.0000000000
2848 1       6.8829298346       7.0000000000
2849 1       7.7710357538      11.0000000000
2850 1       6.8744180085       9.0000000000
2851 1       7.6002259060      11.0000000000
2852 1       7.0671758988      10.0000000000
2853 1       6.7815744638       9.0000000000
2854 1       8.0805746520      10.0000000000
2855 1       7.1628637766      10.0000000000
2856 1       7.4736790790       8.0000000000
2857 1       7.9307180305       9.0000000000
2858 1       7.2350416104       9.0000000000
2859 1       7.3037899977      10.0000000000
2860 1       6.7055951990       9.0000000000
2861 1       7.2779700890      11.0000000000
2862 1       7.4049993303       9.0000000000
2863 1       7.5744844216       8.0000000000
2864 1       7.0626711513       7.0000000000
2865 1       7.2131542313      10.0000000000
2866 1       7.4493357439       9.0000000000
2867 1       6.9933627087       8.0000000000
2868 1       7.3975406103       9.0000000000
2869 1       6.7159669733       9.0000000000
2870 1       6.8869310412       8.0000000000
2871 1       7.6498840078      11.0000000000
2872 1       7.8125838463      11.0000000000
2873 1       6.9399385246      10.0000000000
2874 1       7.9128542577      11.0000000000
2875 1       7.3097580152      10.0000000000
2876 1       6.6091936795       6.0000000000
2877 1       7.3256694544      10.0000000000
2878 1       7.0700741870       9.0000000000
2879 1       7.6824696910       9.0000000000
2880 1       7.2463183566      12.0000000000
2881 1       7.0312082360       8.0000000000
2882 1       6.7927797264       9.0000000000
2883 1       6.8666139325      10.0000000000
2884 1       7.0419346546      10.0000000000
2885 1       7.5366830125       8.0000000000
2886 1       7.2709187854       8.0000000000
2887 1       7.3826784306      10.0000000000
2888 1       7.3198761859      10.0000000000
2889 1       7.2423718437       9.0000000000
2890 1       6.6399278596      11.0000000000
2891 1       7.3106479830       7.0000000000
2892 1       7.1155951174      10.0000000000
2893 1       7.2958433245      13.0000000000
2894 1       6.9769797255       9.0000000000
2895 1       7.2851380320      12.0000000000
2896 1       6.9237526079      11.0000000000
2897 1       7.6738365252      11.0000000000
2898 1       7.6318369387      10.0000000000
2899 1       7.1065402264      10.0000000000
2900 1       7.3865980519      11.0000000000
2901 1       6.9916384867       8.0000000000
2902 1       7.5662455048      13.0000000000
2903 1       6.8242912187       8.0000000000
2904 1       7.2321703449      10.0000000000
2905 1       7.0668769409       9.0000000000
2906 1       7.4138534032       8.0000000000
2907 1       7.2462429048       8.0000000000
2908 1       7.2142327948      11.0000000000
2909 1       7.0320981529       8.0000000000
2910 1       7.2228668633      10.0000000000
2911 1       6.8941269983       9.0000000000
2912 1       7.0399598903       9.0000000000
2913 1       7.2808931147      10.0000000000
2914 1       7.3400342030      10.0000000000
2915 1       7.1860778912       9.0000000000
2916 1       7.2082171246       9.0000000000
2917 1       7.5517782343      14.0000000000
2918 1       7.5733972414       8.0000000000
2919 1       6.7089062621      11.0000000000
2920 1       7.2791732183       7.0000000000
2921 1       7.6389931661       9.0000000000
2922 1       7.5643809221       7.0000000000
2923 1       7.1148788270       9.0000000000
2924 1       7.3166352130      11.0000000000
2925 1       7.5818709813       9.0000000000
2926 1       7.3206847358       8.0000000000
2927 1       6.9473325815       8.0000000000
2928 1       7.1083981575       8.0000000000
2929 1       7.3958424508       9.0000000000
2930 1       7.6184704324       8.0000000000
2931 1       7.4652984614       9.0000000000
2932 1       7.3813069028       9.0000000000
2933 1       7.3451226980      10.0000000000
2934 1       7.0963318854      10.0000000000
2935 1       6.9077263802       6.0000000000
2936 1       7.6062093114      10.0000000000
2937 1       6.7176715470       8.0000000000
2938 1       7.1791990273       8.0000000000
2939 1       7.8811461439       7.0000000000
2940 1       7.5786543616       8.0000000000
2941 1       7.2469304096      10.0000000000
2942 1       7.5881915113      12.0000000000
2943 1       6.9267213006       7.0000000000
2944 1       7.8334840709      10.0000000000
2945 1       7.0559118691       8.0000000000
2946 1       7.4288009439      11.0000000000
2947 1       7.5919905985       9.0000000000
2948 1       7.1476245579      10.0000000000
2949 1       6.8581676008       8.0000000000
2950 1       7.5396480905      10.0000000000
2951 1       7.2679310706       8.0000000000
2952 1       6.9617514680       9.0000000000
2953 1       7.3300370539      11.0000000000
2954 1       7.4992666786       8.0000000000
2955 1       7.3078356314       8.0000000000
2956 1       7.2842806426      10.0000000000
2957 1       6.7985114877      12.0000000000
2958 1       6.7891314385       8.0000000000
2959 1       8.0154507067       8.0000000000
2960 1       7.5119950305       9.0000000000
2961 1       6.9755493110       9.0000000000
2962 1       7.0083321891       9.0000000000
2963 1       7.2071138960      11.0000000000
2964 1       6.8513033983       9.0000000000
2965 1       7.0828057617       9.0000000000
2966 1       8.0365280819       8.0000000000
2967 1       7.3022818153      10.0000000000
2968 1       6.9352862939       8.0000000000
2969 1       7.2008756460       9.0000000000
2970 1       7.8976058488       8.0000000000
2971 1       7.7179706576      13.0000000000
2972 1       6.9036799643      10.0000000000
2973 1       7.5776987724       8.0000000000
2974 1       7.3333784688      10.0000000000
2975 1       7.3206139814      11.0000000000
2976 1       7.5034097096      10.0000000000
2977 1       7.0145832746       9.0000000000
2978 1       7.5897478286      11.0000000000
2979 1       6.9922790930       6.0000000000
2980 1       7.5234710378       8.0000000000
2981 1       7.1962120237       9.0000000000
2982 1       6.9572233041      10.0000000000
2983 1       7.8658668230       9.0000000000
2984 1       7.4191068379      11.0000000000
2985 1       7.9047832427       9.0000000000
2986 1       7.2109758315       7.0000000000
2987 1       7.3033456423      10.0000000000
2988 1       7.2067117996      10.0000000000
2989 1       7.3540378730      10.0000000000
2990 1       7.5223821329       9.0000000000
2991 1       7.4681954697      13.0000000000
2992 1       7.4964605548       8.0000000000
2993 1       7.3617659963       9.0000000000
2994 1       7.2226037454      10.0000000000
2995 1       7.4406741416      11.0000000000
2996 1       7.6028418097       8.0000000000
2997 1       7.1021632901       8.0000000000
2998 1       7.0274932387      11.0000000000
2999 1       6.9745195251      11.0000000000
3000 1       6.9219015456       9.0000000000
3001 1       7.4820049552       8.0000000000
3002 1       7.3634997802       8.0000000000
3003 1       7.4236029818       7.0000000000
3004 1       7.0470779241       9.0000000000
3005 1       7.0660358743       8.0000000000
3006 1       7.2920707210      11.0000000000
3007 1       7.1615443390      10.0000000000
3008 1       6.5719826027      10.0000000000
3009 1       7.3830293094      10.0000000000
3010 1       7.2802275225      10.0000000000
3011 1       7.2206829371       8.0000000000
3012 1       6.7213922100      10.0000000000
3013 1       7.5426770221      10.0000000000
3014 1       7.0129440393       9.0000000000
3015 1       6.9498998568       9.0000000000
3016 1       6.9646141382      10.0000000000
3017 1       7.4997779340      10.0000000000
3018 1       7.2072341187       7.0000000000
3019 1       7.7839204395      10.0000000000
3020 1       7.3794948820       9.0000000000
3021 1       6.9395285213       9.0000000000
3022 1       7.7347830136       7.0000000000
3023 1       7.0100374858      10.0000000000
3024 1       7.2525832602      10.0000000000
3025 1       7.6102204620       9.0000000000
3026 1       7.1111470381       8.0000000000
3027 1       6.9273748642       8.0000000000
3028 1       7.1868147157      10.0000000000
3029 1       7.4270660099       9.0000000000
3030 1       6.9692688681      10.0000000000
3031 1       6.9509357022       9.0000000000
3032 1       6.8752683426      11.0000000000
3033 1       7.2078551378      11.0000000000
3034 1       7.6060818214      10.0000000000
3035 1       6.8248985845       9.0000000000
3036 1       7.7580676071       8.0000000000
3037 1       7.4690546022      10.0000000000
3038 1       7.4273295483      10.0000000000
3039 1       6.8734283019       8.0000000000
3040 1       7.2424222258       9.0000000000
3041 1       7.2627784830       8.0000000000
3042 1       7.7537130802      10.0000000000
3043 1       7.3644364975      10.0000000000
3044 1       7.0860474665       9.0000000000
3045 1       6.9890462552       8.0000000000
3046 1       7.3562729076       8.0000000000
3047 1       6.7493855177       9.0000000000
3048 1       7.1042371043      10.0000000000
3049 1       6.8420978129       7.0000000000
3050 1       7.3052116782       8.0000000000
3051 1       7.2530526095      10.0000000000
3052 1       7.0140902907      10.0000000000
3053 1       7.1396530102      12.0000000000
3054 1       8.2239769953       9.0000000000
3055 1       7.5072722375      10.0000000000
3056 1       6.9196596511      10.0000000000
3057 1       7.0988694337       8.0000000000
3058 1       7.2352931228       9.0000000000
3059 1       7.2281720126       7.0000000000
3060 1       7.0214673997      10.0000000000
3061 1       7.0180559811       9.0000000000
3062 1       7.2542827393       8.0000000000
3063 1       7.0661486706       8.0000000000
3064 1       6.8612592347      10.0000000000
3065 1       7.3941631337      12.0000000000
3066 1       7.0485476392       8.0000000000
3067 1       7.3935648501       8.0000000000
3068 1       7.0980283117       9.0000000000
3069 1       6.8894595568       8.0000000000
3070 1       6.6448453148       8.0000000000
3071 1       7.2406592947       9.0000000000
3072 1       7.2555595475       9.0000000000
3073 1       6.9110442913       8.0000000000
3074 1       7.2617612812       8.0000000000
3075 1       6.9222060198       8.0000000000
3076 1       6.8650755597       8.0000000000
3077 1       7.3127742817      10.0000000000
3078 1       7.2016230308       9.0000000000
3079 1       7.0802891124       8.0000000000
3080 1       7.4520047368      10.0000000000
3081 1       7.1268018580       8.0000000000
3082 1       6.8647219494      10.0000000000
3083 1       7.0187796700       6.0000000000
3084 1       7.2747084703       9.0000000000
3085 1       7.2681994145      12.0000000000
3086 1       7.1175911026       9.0000000000
3087 1       6.7068839908       8.0000000000
3088 1       7.2527598209       9.0000000000
3089 1       7.9743964037       8.0000000000
3090 1       7.6089238008       9.0000000000
3091 1       7.7466537669       9.0000000000
3092 1       7.4252043372       7.0000000000
3093 1       6.6653662033       9.0000000000
3094 1       7.6725244905       8.0000000000
3095 1       7.0245431783       9.0000000000
3096 1       7.3768824249       9.0000000000
3097 1       7.9383835433      11.0000000000
3098 1       7.5474396312       7.0000000000
3099 1       7.2134677803       9.0000000000
3100 1       7.3752177428      10.0000000000
3101 1       7.3304776466      10.0000000000
3102 1       7.0172698206       8.0000000000
3103 1       7.0197708169       8.0000000000
3104 1       7.2373212270      11.0000000000
3105 1       7.6178360697       8.0000000000
3106 1       7.4896582259      10.0000000000
3107 1       7.1013974043      12.0000000000
3108 1       7.0943188520       9.0000000000
3109 1       7.3754931600      12.0000000000
3110 1       7.1790074580      10.0000000000
3111 1       6.9313228249      10.0000000000
3112 1       7.1679944611      11.0000000000
3113 1       7.0194863560      11.0000000000
3114 1       7.8138255486      10.0000000000
3115 1       7.3410409652       9.0000000000
3116 1       7.1600400056       8.0000000000
3117 1       6.9500362229       9.0000000000
3118 1       6.9907574225       8.0000000000
3119 1       7.1619650750       9.0000000000
3120 1       7.0552087746      11.0000000000
3121 1       6.9373383653      10.0000000000
3122 1       7.1926462532       8.0000000000
3123 1       6.6215163060       9.0000000000
3124 1       7.5454613725       9.0000000000
3125 1       7.1133109094       9.0000000000
3126 1       7.4930932802      10.0000000000
3127 1       7.5735143656       8.0000000000
3128 1       7.0486198186       8.0000000000
3129 1       7.2938890376       9.0000000000
3130 1       7.7253251584      14.0000000000
3131 1       6.9651308782      10.0000000000
3132 1       7.4401902411      10.0000000000
3133 1       7.5003878424       9.0000000000
3134 1       6.9300001988       9.0000000000
3135 1       7.0991933458       9.0000000000
3136 1       7.2889062655      10.0000000000
3137 1       7.6117454437       8.0000000000
3138 1       7.2696358788       7.0000000000
3139 1       7.2040599654      12.0000000000
3140 1       6.8293530525       9.0000000000
3141 1       7.0812350786       9.0000000000
3142 1       7.1637146743       8.0000000000
3143 1       6.9981155983       9.0000000000
3144 1       6.7945159993      10.0000000000
3145 1       7.0161244928       8.0000000000
3146 1       7.0681294057       8.0000000000
3147 1       7.5934335196      12.0000000000
3148 1       7.5819631735      11.0000000000
3149 1       6.8253052515      10.0000000000
3150 1       6.9318106116       9.0000000000
3151 1       6.7841304510       8.0000000000
3152 1       7.2483121079       9.0000000000
3153 1       6.8312429157       6.0000000000
3154 1       7.5720515202      13.0000000000
3155 1       7.3535866811       8.0000000000
3156 1       7.2890663838       8.0000000000
3157 1       7.2767246511      12.0000000000
3158 1       6.8705121518      11.0000000000
3159 1       7.9380769024      10.0000000000
3160 1       7.7673809740       9.0000000000
3161 1       7.5561745701      11.0000000000
3162 1       7.8728782503      10.0000000000
3163 1       7.7459976327       9.0000000000
3164 1       6.8104923888      10.0000000000
3165 1       7.2136211001      10.0000000000
3166 1       7.7329821339      10.0000000000
3167 1       6.9278805378       9.0000000000
3168 1       7.0076192058       8.0000000000
3169 1       7.6209102574      11.0000000000
3170 1       7.3769147910      10.0000000000
3171 1       7.2522809951       8.0000000000
3172 1       7.3540891907      12.0000000000
3173 1       7.4374500747       9.0000000000
3174 1       7.0323904526       9.0000000000
3175 1       7.3530016298      12.0000000000
3176 1       7.6345018746       7.0000000000
3177 1       6.9105034242      10.0000000000
3178 1       7.3549752896       8.0000000000
3179 1       7.2921857991      10.0000000000
3180 1       6.9945428373       7.0000000000
3181 1       7.4128998644      11.0000000000
3182 1       7.2481311940       7.0000000000
3183 1       7.1744099948       8.0000000000
3184 1       7.5133797159      11.0000000000
3185 1       7.5573084163       7.0000000000
3186 1       7.0366770257       7.0000000000
3187 1       7.7208810717      11.0000000000
3188 1       6.9399442856      10.0000000000
3189 1       6.9399476773       8.0000000000
3190 1       7.0719822804       8.0000000000
3191 1       7.7488591175       9.0000000000
3192 1       7.4885694122       9.0000000000
3193 1       7.5483668705       8.0000000000
3194 1       7.0414534048       7.0000000000
3195 1       7.1141393456      10.0000000000
3196 1       6.9690548586      14.0000000000
3197 1       7.0478111336       9.0000000000
3198 1       8.1333577339      11.0000000000
3199 1       7.1983198755      11.0000000000
3200 1       7.3222264107      12.0000000000
3201 1       7.1483231279       9.0000000000
3202 1       6.6033755481      10.0000000000
3203 1       7.3945470113       9.0000000000
3204 1       7.5872044291       9.0000000000
3205 1       7.1893381472       8.0000000000
3206 1       7.7421596404       9.0000000000
3207 1       7.1332846892       7.0000000000
3208 1       7.2862162711       8.0000000000
3209 1       7.5141695591      12.0000000000
3210 1       6.9572189306       8.0000000000
3211 1       7.5006414736       9.0000000000
3212 1       6.9802825116      10.0000000000
3213 1       6.9724936246       9.0000000000
3214 1       7.0249438264       9.0000000000
3215 1       7.0107475529       9.0000000000
3216 1       6.9636617120      10.0000000000
3217 1       7.1140942633       9.0000000000
3218 1       7.6290283236       8.0000000000
3219 1       7.0386169841       8.0000000000
3220 1       6.8908844896       9.0000000000
3221 1       7.1337088957       9.0000000000
3222 1       7.6007315128      11.0000000000
3223 1       6.9694960389      10.0000000000
3224 1       7.4123459601       9.0000000000
3225 1       7.9387939232      11.0000000000
3226 1       7.7948051410       9.0000000000
3227 1       6.7394116018       8.0000000000
3228 1       7.3091747979      11.0000000000
3229 1       7.3275762567      11.0000000000
3230 1       7.1713766522      10.0000000000
3231 1       7.6519111017       9.0000000000
3232 1       7.2687135879       9.0000000000
3233 1       7.4856262606       8.0000000000
3234 1       7.7247731679      11.0000000000
3235 1       6.7520568127       9.0000000000
3236 1       6.9238169563       9.0000000000
3237 1       7.3388864476       9.0000000000
3238 1       7.6473699275       9.0000000000
3239 1       7.3799413423       9.0000000000
3240 1       7.3370136000       7.0000000000
3241 1       6.8823334065      10.0000000000
3242 1       6.9331204426      11.0000000000
3243 1       7.4086097913      10.0000000000
3244 1       6.9122758246      10.0000000000
3245 1       7.0858831714      10.0000000000
3246 1       7.0843971649       9.0000000000
3247 1       7.5135394142       8.0000000000
3248 1       7.6197064708      12.0000000000
3249 1       7.6438869708       8.0000000000
3250 1       7.4616001894       7.0000000000
3251 1       7.4949644360      10.0000000000
3252 1       6.8235209819       7.0000000000
3253 1       7.2125298225      12.0000000000
3254 1       6.8644423990       8.0000000000
3255 1       7.0343601090       9.0000000000
3256 1       7.5808773968       9.0000000000
3257 1       7.1007009849       9.0000000000
3258 1       6.9104144344       8.0000000000
3259 1       7.1002513136       8.0000000000
3260 1       7.1659522516      11.0000000000
3261 1       7.2395591885       9.0000000000
3262 1       7.0707735304      13.0000000000
3263 1       7.6805274517      10.0000000000
3264 1       7.1989493408      10.0000000000
3265 1       7.8763063995      11.0000000000
3266 1       6.9269968420       9.0000000000
3267 1       6.9407213817       9.0000000000
3268 1       6.8538274558       6.0000000000
3269 1       7.3943126962      10.0000000000
3270 1       7.4438371354       9.0000000000
3271 1       6.7104038711       8.0000000000
3272 1       7.8812358470       9.0000000000
3273 1       7.0735407018      10.0000000000
3274 1       7.2684925594      10.0000000000
3275 1       6.6124415117       9.0000000000
3276 1       7.1391829028      10.0000000000
3277 1       6.8967453607      10.0000000000
3278 1       7.1486157109       9.0000000000
3279 1       6.8068171685       8.0000000000
3280 1       7.3971746534       7.0000000000
3281 1       6.8884975446       9.0000000000
3282 1       7.1026587506       8.0000000000
3283 1       7.6403196355       9.0000000000
3284 1       7.3430301672      10.0000000000
3285 1       7.7471134704      11.0000000000
3286 1       7.7095329764      11.0000000000
3287 1       6.9428079136       8.0000000000
3288 1       8.0330082267      11.0000000000
3289 1       7.5151091764       7.0000000000
3290 1       7.3016697643       9.0000000000
3291 1       7.3327612445      10.0000000000
3292 1       7.3034412078       9.0000000000
3293 1       7.0716711979      10.0000000000
3294 1       7.3100542055       7.0000000000
3295 1       7.1754731602       7.0000000000
3296 1       6.9982597852       8.0000000000
3297 1       6.5160633776      10.0000000000
3298 1       7.5134596645      10.0000000000
3299 1       7.8475806877       8.0000000000
3300 1       7.4157916539      10.0000000000
3301 1       7.7326742985       9.0000000000
3302 1       7.0579518565       9.0000000000
3303 1       7.0338482242      10.0000000000
3304 1       7.8460614237      12.0000000000
3305 1       6.8947733479      10.0000000000
3306 1       7.4241487051      12.0000000000
3307 1       6.8871923408       8.0000000000
3308 1       7.1484818637      10.0000000000
3309 1       7.2369334364      11.0000000000
3310 1       7.4550183893       8.0000000000
3311 1       7.5185092565      10.0000000000
3312 1       7.0621531360       8.0000000000
3313 1       7.2396371573      13.0000000000
3314 1       7.2489636823      13.0000000000
3315 1       7.2127674585       8.0000000000
3316 1       7.3798265300      10.0000000000
3317 1       7.3581733476       8.0000000000
3318 1       7.3433042312       9.0000000000
3319 1       7.3602693151      10.0000000000
3320 1       6.4988899050       9.0000000000
3321 1       7.1965531888      10.0000000000
3322 1       6.8363397143      10.0000000000
3323 1       7.2340559789      10.0000000000
3324 1       7.5513422498       9.0000000000
3325 1       7.5636359195      10.0000000000
3326 1       7.3000881086      10.0000000000
3327 1       7.4450154311      11.0000000000
3328 1       7.3940898541       8.0000000000
3329 1       7.5397403388       9.0000000000
3330 1       7.2119416059       9.0000000000
3331 1       7.5417656989      11.0000000000
3332 1       7.5369583188      11.0000000000
3333 1       7.6724838023       9.0000000000
3334 1       7.0515001022      10.0000000000
3335 1       7.5369564989       9.0000000000
3336 1       7.8776580157      10.0000000000
3337 1       7.0550115726      11.0000000000
3338 1       7.4844448327       9.0000000000
3339 1       7.9006281845       9.0000000000
3340 1       7.6977953103       9.0000000000
3341 1       7.4970925087       8.0000000000
3342 1       7.1012897108       9.0000000000
3343 1       7.3268550339      10.0000000000
3344 1       6.9562318148       8.0000000000
3345 1       6.7869984831       7.0000000000
3346 1       7.6703248165       9.0000000000
3347 1       7.2655278220       8.0000000000
3348 1       7.3765655631       9.0000000000
3349 1       6.7866252235       9.0000000000
3350 1       6.8243119387       8.0000000000
3351 1       7.3869682353      10.0000000000
3352 1       7.2986197029      10.0000000000
3353 1       7.5032961825      11.0000000000
3354 1       6.9481702136       9.0000000000
3355 1       7.4219722527       9.0000000000
3356 1       7.0023521689       7.0000000000
3357 1       7.4700182166      13.0000000000
3358 1       7.0537011573       7.0000000000
3359 1       7.2253929354      11.0000000000
3360 1       7.5522700955       8.0000000000
3361 1       7.0938330023      10.0000000000
3362 1       7.4407838193       9.0000000000
3363 1       7.8339033738      10.0000000000
3364 1       6.9096131432      11.0000000000
3365 1       7.4132264973      10.0000000000
3366 1       6.8374244013       8.0000000000
3367 1       7.5484401289       8.0000000000
3368 1       7.7072074240      10.0000000000
3369 1       6.7421479667       8.0000000000
3370 1       7.1758318181       9.0000000000
3371 1       7.1090872904      11.0000000000
3372 1       6.6560314413       9.0000000000
3373 1       7.4089831739       9.0000000000
3374 1       7.3071463228      10.0000000000
3375 1       7.1962467377      14.0000000000
3376 1       7.2456162816      10.0000000000
3377 1       7.6544664640       8.0000000000
3378 1       7.1134959846       9.0000000000
3379 1       7.7498848333      11.0000000000
3380 1       7.0854409028      10.0000000000
3381 1       7.5932211470      11.0000000000
3382 1       7.5772090618      10.0000000000
3383 1       6.8670339450      10.0000000000
3384 1       7.1489852554      10.0000000000
3385 1       7.5720807372       8.0000000000
3386 1       7.2490836399       8.0000000000
3387 1       7.0767405276       8.0000000000
3388 1       6.8278719169      11.0000000000
3389 1       7.4606104191      11.0000000000
3390 1       7.0088612466       9.0000000000
3391 1       7.2688600871       7.0000000000
3392 1       7.2939238531       7.0000000000
3393 1       6.9729787558       9.0000000000
3394 1       7.3621304976      11.0000000000
3395 1       6.9610863051      10.0000000000
3396 1       7.2582823941      11.0000000000
3397 1       7.3729887659       9.0000000000
3398 1       7.5898264741      11.0000000000
3399 1       7.1783142223       8.0000000000
3400 1       7.3571959487      10.0000000000
3401 1       7.6884884588      11.0000000000
3402 1       7.1530701278      10.0000000000
3403 1       6.6765694968      10.0000000000
3404 1       7.6182729968      10.0000000000
3405 1       7.3802646465       8.0000000000
3406 1       7.3115671144      10.0000000000
3407 1       6.8106785085       9.0000000000
3408 1       7.5054520924      10.0000000000
3409 1       7.9727689077      10.0000000000
3410 1       7.7027625405      11.0000000000
3411 1       7.0441840191       9.0000000000
3412 1       7.1098106592       9.0000000000
3413 1       6.9706878472      10.0000000000
3414 1       7.4499790916       7.0000000000
3415 1       7.3158250436      10.0000000000
3416 1       7.4153423683       8.0000000000
3417 1       7.3945668169      10.0000000000
3418 1       6.9789463490       9.0000000000
3419 1       7.4667822730      11.0000000000
3420 1       8.2073783688      10.0000000000
3421 1       7.8494831143       9.0000000000
3422 1       7.2603680790       9.0000000000
3423 1       7.4388472494      10.0000000000
3424 1       6.6926890272      10.0000000000
3425 1       7.2417828674      10.0000000000
3426 1       7.5389101841       8.0000000000
3427 1       7.0658236868       9.0000000000
3428 1       7.7235035198      10.0000000000
3429 1       6.7485013640       9.0000000000
3430 1       6.9261456048       7.0000000000
3431 1       7.2698401745       9.0000000000
3432 1       7.1230196150       7.0000000000
3433 1       7.4202410339      10.0000000000
3434 1       7.3163173901      10.0000000000
3435 1       7.2007367267      10.0000000000
3436 1       6.9778653635       8.0000000000
3437 1       6.9686881371      10.0000000000
3438 1       7.9293213401      10.0000000000
3439 1       7.8092667419      10.0000000000
3440 1       7.0486660520      10.0000000000
3441 1       6.5843714265       8.0000000000
3442 1       7.1987610506       8.0000000000
3443 1       7.5373902354      11.0000000000
3444 1       7.6284292599       9.0000000000
3445 1       6.5351270291       9.0000000000
3446 1       7.4566335475      10.0000000000
3447 1       7.0195772323       8.0000000000
3448 1       7.1459251032       8.0000000000
3449 1       7.0874715585       9.0000000000
3450 1       7.4381134625      11.0000000000
3451 1       7.2973738595      10.0000000000
3452 1       7.1980233360       9.0000000000
3453 1       7.4285841356      11.0000000000
3454 1       7.3749363520      10.0000000000
3455 1       7.1538324777       8.0000000000
3456 1       8.0421596586      10.0000000000
3457 1       7.3775455692       9.0000000000
3458 1       6.9923270991       8.0000000000
3459 1       6.8399997374       8.0000000000
3460 1       7.1744362710      10.0000000000
3461 1       7.6399546453      11.0000000000
3462 1       8.2140659461       9.0000000000
3463 1       6.7676104033       8.0000000000
3464 1       7.3333970903      10.0000000000
3465 1       7.4666138219       8.0000000000
3466 1       7.5300333842       7.0000000000
3467 1       7.5161753739       9.0000000000
3468 1       7.3401990103      13.0000000000
3469 1       7.6710280476      10.0000000000
3470 1       7.1483487834      11.0000000000
3471 1       7.2936718578       9.0000000000
3472 1       7.2114408669      10.0000000000
3473 1       6.9419796828      10.0000000000
3474 1       7.6251168316       9.0000000000
3475 1       6.8132812380      11.0000000000
3476 1       7.4362839095       8.0000000000
3477 1       7.3649869934       9.0000000000
3478 1       6.7044912821       6.0000000000
3479 1       6.8362848291      11.0000000000
3480 1       7.1455253006       8.0000000000
3481 1       7.2722647766      10.0000000000
3482 1       6.5473124271       8.0000000000
3483 1       7.1379696082       8.0000000000
3484 1       7.7732223818       8.0000000000
3485 1       7.4670628944      10.0000000000
3486 1       7.8842975087      11.0000000000
3487 1       6.8355943257       6.0000000000
3488 1       7.3399165916      10.0000000000
3489 1       7.1615951383       9.0000000000
3490 1       7.7303990309       9.0000000000
3491 1       7.3439932500      10.0000000000
3492 1       7.5265221819      10.0000000000
3493 1       7.5519156907       9.0000000000
3494 1       6.9721137696      10.0000000000
3495 1       7.3111446287       9.0000000000
3496 1       7.2566773672       9.0000000000
3497 1       7.5629069604      11.0000000000
3498 1       7.1859303099      12.0000000000
3499 1       6.6788815756       9.0000000000
3500 1       6.8723629635       6.0000000000
3501 1       7.0253495872      11.0000000000
3502 1       7.0966525619       8.0000000000
3503 1       7.4533499964      10.0000000000
3504 1       7.6908442573      10.0000000000
3505 1       7.9176383787       9.0000000000
3506 1       7.1295097550      10.0000000000
3507 1       7.3790531592      11.0000000000
3508 1       7.6019926160      10.0000000000
3509 1       6.3790914286       8.0000000000
3510 1       7.5061563398       9.0000000000
3511 1       7.2035436231      10.0000000000
3512 1       7.0684193995       9.0000000000
3513 1       7.5459701673       8.0000000000
3514 1       7.1787779901       8.0000000000
3515 1       6.7855017139       9.0000000000
3516 1       7.4202056214      10.0000000000
3517 1       7.2589410212       9.0000000000
3518 1       7.3371713368       9.0000000000
3519 1       7.3916000321       8.0000000000
3520 1       7.1748615415       8.0000000000
3521 1       7.6583185875      10.0000000000
3522 1       7.2756906563      10.0000000000
3523 1       7.4622001554       9.0000000000
3524 1       6.4032736363       9.0000000000
3525 1       7.4907464733       8.0000000000
3526 1       7.2573625846       8.0000000000
3527 1       7.2391883598      10.0000000000
3528 1       7.3448534582      10.0000000000
3529 1       6.9423496139       9.0000000000
3530 1       6.9508189574       8.0000000000
3531 1       7.2748192325      11.0000000000
3532 1       7.5699920178      11.0000000000
3533 1       7.4113916665       8.0000000000
3534 1       8.0611401736      11.0000000000
3535 1       7.2250514956       7.0000000000
3536 1       7.3398573325       8.0000000000
3537 1       6.7001809371       7.0000000000
3538 1       7.2858234851       7.0000000000
3539 1       7.3253003853       9.0000000000
3540 1       7.2554849642      11.0000000000
3541 1       7.3848442104       9.0000000000
3542 1       7.5445404256      10.0000000000
3543 1       7.5907526411       9.0000000000
3544 1       6.9397913722       9.0000000000
3545 1       7.6827462318       9.0000000000
3546 1       7.2900020583       7.0000000000
3547 1       6.9786342323       8.0000000000
3548 1       7.0673953526       9.0000000000
3549 1       6.9816640653      10.0000000000
3550 1       7.0770709214      10.0000000000
3551 1       7.4985150468      10.0000000000
3552 1       6.7157466886      10.0000000000
3553 1       7.1123593731       9.0000000000
3554 1       7.5174389485       9.0000000000
3555 1       7.0066685188       9.0000000000
3556 1       7.2967410330       8.0000000000
3557 1       7.6239489379       9.0000000000
3558 1       7.0154901348       9.0000000000
3559 1       7.1134913147       9.0000000000
3560 1       7.4111697704      10.0000000000
3561 1       7.3822792295      10.0000000000
3562 1       6.8712478700       8.0000000000
3563 1       7.0043671920       8.0000000000
3564 1       7.4819074874      10.0000000000
3565 1       7.2403029555      10.0000000000
3566 1       6.9134174729       7.0000000000
3567 1       7.6553067745       7.0000000000
3568 1       7.2197775927       8.0000000000
3569 1       7.5800092926       9.0000000000
3570 1       7.2822346394      10.0000000000
3571 1       7.5124444349      10.0000000000
3572 1       7.4463088008       9.0000000000
3573 1       6.7874862279       9.0000000000
3574 1       7.6954265024      10.0000000000
3575 1       7.0996035776       8.0000000000
3576 1       7.1259820209       7.0000000000
3577 1       7.6592453825      10.0000000000
3578 1       7.0974986031       9.0000000000
3579 1       6.8349496013       7.0000000000
3580 1       7.4293673199       9.0000000000
3581 1       6.9214354272      10.0000000000
3582 1       7.1366774344       9.0000000000
3583 1       7.3175545526      10.0000000000
3584 1       7.1439436772      10.0000000000
3585 1       6.8721552734       8.0000000000
3586 1       7.2945998548      10.0000000000
3587 1       7.0174408651      11.0000000000
3588 1       7.5834247736       9.0000000000
3589 1       7.2965472217      11.0000000000
3590 1       7.1975495496       8.0000000000
3591 1       7.3796183916       9.0000000000
3592 1       7.8282800411      10.0000000000
3593 1       7.3703264084       9.0000000000
3594 1       7.0899071646      11.0000000000
3595 1       7.0649729707       7.0000000000
3596 1       7.0716148099       9.0000000000
3597 1       6.9309137560      10.0000000000
3598 1       7.5138391655      10.0000000000
3599 1       7.4903643176      10.0000000000
3600 1       7.5081575526      11.0000000000
3601 1       8.0964010492       8.0000000000
3602 1       7.8360217247      10.0000000000
3603 1       7.5176186711       9.0000000000
3604 1       6.8101169805       9.0000000000
3605 1       6.8821379112      10.0000000000
3606 1       7.9324851361      10.0000000000
3607 1       7.8758718688      11.0000000000
3608 1       7.5108014665      11.0000000000
3609 1       7.0875736058       8.0000000000
3610 1       6.7755831480       8.0000000000
3611 1       7.7482571578      13.0000000000
3612 1       7.7171805080      11.0000000000
3613 1       7.0769674132       8.0000000000
3614 1       7.3504046812       9.0000000000
3615 1       7.7596171613       8.0000000000
3616 1       8.1136181386      12.0000000000
3617 1       6.7274799454       8.0000000000
3618 1       7.3783356621      11.0000000000
3619 1       7.2720230086      12.0000000000
3620 1       7.1248278320       9.0000000000
3621 1       6.9559031485      10.0000000000
3622 1       7.2591496789      11.0000000000
3623 1       6.7670874238       7.0000000000
3624 1       8.4236901847      11.0000000000
3625 1       7.2719919487       9.0000000000
3626 1       7.7597951077       8.0000000000
3627 1       7.1121038931      11.0000000000
3628 1       7.0051456940      10.0000000000
3629 1       7.7730706912      10.0000000000
3630 1       7.4027410983      10.0000000000
3631 1       7.3704419198       8.0000000000
3632 1       7.1695247556      10.0000000000
3633 1       7.3587838759      11.0000000000
3634 1       7.1254609419      10.0000000000
3635 1       6.9641060283      10.0000000000
3636 1       7.1443114340       9.0000000000
3637 1       6.9829696111       7.0000000000
3638 1       7.4397935240       8.0000000000
3639 1       7.3199058612       9.0000000000
3640 1       7.0038858323      10.0000000000
3641 1       7.3431581752       8.0000000000
3642 1       7.5881830057       9.0000000000
3643 1       6.9397550705       9.0000000000
3644 1       6.9291028341       8.0000000000
3645 1       7.4204777869       9.0000000000
3646 1       7.3748869320      12.0000000000
3647 1       7.0968117956      10.0000000000
3648 1       6.9271005088       8.0000000000
3649 1       7.7509822078      10.0000000000
3650 1       7.3896647997      10.0000000000
3651 1       7.5404069691      10.0000000000
3652 1       7.0573256981       8.0000000000
3653 1       6.9623866456       9.0000000000
3654 1       6.9167783878       9.0000000000
3655 1       6.8399654510       9.0000000000
3656 1       7.0426333243       9.0000000000
3657 1       7.4136729640      11.0000000000
3658 1       7.0508882221       9.0000000000
3659 1       7.3400615751       8.0000000000
3660 1       7.5124984017      10.0000000000
3661 1       6.8326967089       9.0000000000
3662 1       7.4005958461      10.0000000000
3663 1       7.6466468479      10.0000000000
3664 1       7.1289627223       9.0000000000
3665 1       7.3328486577       9.0000000000
3666 1       7.6826632047       8.0000000000
3667 1       7.3864166621       9.0000000000
3668 1       6.9334647627       8.0000000000
3669 1       7.0335685812      11.0000000000
3670 1       7.1652203538      10.0000000000
3671 1       7.0838476418       9.0000000000
3672 1       7.0834033522      10.0000000000
3673 1       7.2847171403       9.0000000000
3674 1       7.4602181092      10.0000000000
3675 1       7.1441448990      11.0000000000
3676 1       7.2200604138       9.0000000000
3677 1       7.0459015734       9.0000000000
3678 1       7.1335195187       9.0000000000
3679 1       7.8502790269       9.0000000000
3680 1       7.1763199022       7.0000000000
3681 1       7.1849760425      11.0000000000
3682 1       7.0002699381       7.0000000000
3683 1       7.2933558811       9.0000000000
3684 1       7.2476179405       7.0000000000
3685 1       7.8638729747       9.0000000000
3686 1       7.0190510933       7.0000000000
3687 1       6.9042881632       9.0000000000
3688 1       7.5900962820       8.0000000000
3689 1       7.2105409732       8.0000000000
3690 1       7.0614247666      10.0000000000
3691 1       7.1307731099       8.0000000000
3692 1       8.0011381809      13.0000000000
3693 1       7.3230296260      12.0000000000
3694 1       7.7000107800       9.0000000000
3695 1       7.5923540484       9.0000000000
3696 1       7.2587698553      10.0000000000
3697 1       7.7912541468       8.0000000000
3698 1       6.9437041977       8.0000000000
3699 1       7.1422978367      10.0000000000
3700 1       6.9282441206      10.0000000000
3701 1       7.4282233362       7.0000000000
3702 1       6.6767734824       8.0000000000
3703 1       7.4125674241       9.0000000000
3704 1       7.0792540551       8.0000000000
3705 1       6.7773156229      10.0000000000
3706 1       7.7820215747       8.0000000000
3707 1       7.6201207046      10.0000000000
3708 1       7.0779735128       9.0000000000
3709 1       7.2713693944       9.0000000000
3710 1       7.3966996029      10.0000000000
3711 1       7.1070249220       7.0000000000
3712 1       7.7336118887      13.0000000000
3713 1       7.1535252235       8.0000000000
3714 1       7.1546865122       9.0000000000
3715 1       7.2922489302       9.0000000000
3716 1       7.4167818284       7.0000000000
3717 1       7.1076521226       8.0000000000
3718 1       7.1548088739      11.0000000000
3719 1       7.3156332576       9.0000000000
3720 1       7.3872279967      12.0000000000
3721 1       6.8162842386      10.0000000000
3722 1       7.6877273611       8.0000000000
3723 1       7.4389829720       8.0000000000
3724 1       7.2115540236      12.0000000000
3725 1       7.1716167665       9.0000000000
3726 1       6.8949842365       9.0000000000
3727 1       7.0037200759      10.0000000000
3728 1       7.1632511625      10.0000000000
3729 1       7.3673719997       8.0000000000
3730 1       6.6863668101       8.0000000000
3731 1       7.7394696080       9.0000000000
3732 1       7.2172952643       9.0000000000
3733 1       6.8077617259       7.0000000000
3734 1       7.0042335035       9.0000000000
3735 1       7.3696348151       9.0000000000
3736 1       7.5888343706      10.0000000000
3737 1       6.8919744422      10.0000000000
3738 1       7.1988946884      10.0000000000
3739 1       7.6484162460      11.0000000000
3740 1       7.0343076169      11.0000000000
3741 1       7.2450402978      11.0000000000
3742 1       7.8293394170      10.0000000000
3743 1       6.6296003038       8.0000000000
3744 1       7.3389766344      10.0000000000
3745 1       6.8247751400       9.0000000000
3746 1       6.9016798490      10.0000000000
3747 1       7.2672955992      10.0000000000
3748 1       7.0980802506       8.0000000000
3749 1       6.6583498391       7.0000000000
3750 1       7.4940819101       8.0000000000
3751 2      16.8605022273      21.0000000000
3752 2      15.5875045499      20.0000000000
3753 2      14.5582983209      19.0000000000
3754 2      13.4054310685      18.0000000000
3755 2      16.6585840633      17.0000000000
3756 2      14.4219548865      19.0000000000
3757 2      16.0435017380      18.0000000000
3758 2      20.2925657364      21.0000000000
3759 2      12.5290081054      16.0000000000
3760 2      15.5452520338      18.0000000000
3761 2      15.5411541139      17.0000000000
3762 2      16.7076815155      19.0000000000
3763 2      14.4212798366      21.0000000000
3764 2      14.2218828664      17.0000000000
3765 2      17.6723020772      20.0000000000
3766 2      14.1379906675      16.0000000000
3767 2      14.9424173815      17.0000000000
3768 2      14.4235798686      15.0000000000
3769 2      11.7107324719      14.0000000000
3770 2      13.0728666188      16.0000000000
3771 2      14.0094772035      20.0000000000
3772 2      13.2939706912      15.0000000000
3773 2      15.6877417116      17.0000000000
3774 2      14.8811115554      17.0000000000
3775 2      18.0105147069      22.0000000000
3776 2      14.6317264350      17.0000000000
3777 2      11.9695881519      14.0000000000
3778 2      13.2189139805      19.0000000000
3779 2      13.9506127509      16.0000000000
3780 2      14.0404268546      17.0000000000
3781 2      12.9004603380      18.0000000000
3782 2      14.0408930763      17.0000000000
3783 2      14.4823399560      20.0000000000
3784 2      13.6813328991      18.0000000000
3785 2      14.3775365384      17.0000000000
3786 2      15.5997551187      20.0000000000
3787 2      14.9514236015      19.0000000000
3788 2      14.0703184729      17.0000000000
3789 2      12.2153526420      16.0000000000
3790 2      14.0698467083      17.0000000000
3791 2      13.3722389716      20.0000000000
3792 2      15.0902496212      17.0000000000
3793 2      16.2115128993      18.0000000000
3794 2      17.0850692507      19.0000000000
3795 2      14.5027858482      22.0000000000
3796 2      15.2993061345      21.0000000000
3797 2      15.3170642198      18.0000000000
3798 2      12.6480826521      15.0000000000
3799 2      12.7303664331      15.0000000000
3800 2      12.7773473664      14.0000000000
3801 2      19.2616085194      18.0000000000
3802 2      14.1331837115      17.0000000000
3803 2      13.3806441465      17.0000000000
3804 2      14.6316029562      15.0000000000
3805 2      15.6737352673      17.0000000000
3806 2      14.8900647819      14.0000000000
3807 2      14.0746545666      17.0000000000
3808 2      14.5117651673      15.0000000000
3809 2      15.0241114590      17.0000000000
3810 2      14.6387443474      19.0000000000
3811 2      16.5016829654      22.0000000000
3812 2      15.2047617614      18.0000000000
3813 2      12.2972386490      17.0000000000
3814 2      13.3770663576      15.0000000000
3815 2      16.1441874230      19.0000000000
3816 2      14.4440109320      15.0000000000
3817 2      13.2602898148      18.0000000000
3818 2      15.6497761583      20.0000000000
3819 2      14.7785217161      19.0000000000
3820 2      17.3003927546      19.0000000000
3821 2      15.0102211490      18.0000000000
3822 2      16.4493447505      20.0000000000
3823 2      16.5656211091      21.0000000000
3824 2      14.7455899476      19.0000000000
3825 2      14.5081565652      20.0000000000
3826 2      16.0328673027      17.0000000000
3827 2      15.5265689812      18.0000000000
3828 2      13.2848785718      16.0000000000
3829 2      13.3965258878      16.0000000000
3830 2      15.2682475657      20.0000000000
3831 2      13.6097004859      18.0000000000
3832 2      12.4746121678      17.0000000000
3833 2      14.1508162693      17.0000000000
3834 2      14.4211859698      18.0000000000
3835 2      15.3544625209      19.0000000000
3836 2      13.7916843085      19.0000000000
3837 2      17.4050631600      20.0000000000
3838 2      15.8707961350      20.0000000000
3839 2      13.9126100838      17.0000000000
3840 2      13.2486146468      15.0000000000
3841 2      17.7304965550      20.0000000000
3842 2      17.3788103572      21.0000000000
3843 2      17.7955481065      20.0000000000
3844 2      15.1003849639      18.0000000000
3845 2      14.5167214816      16.0000000000
3846 2      15.0330921601      20.0000000000
3847 2      13.4385144463      16.0000000000
3848 2      14.0659622640      18.0000000000
3849 2      14.1038215447      19.0000000000
3850 2      13.0561907082      16.0000000000
3851 2      14.1281356976      16.0000000000
3852 2      10.7573680959      17.0000000000
3853 2      12.3403831750      16.0000000000
3854 2      17.0929755289      18.0000000000
3855 2      15.0635090298      19.0000000000
3856 2      13.9422527795      17.0000000000
3857 2      13.3461298461      19.0000000000
3858 2      15.3580457858      18.0000000000
3859 2      13.6046329907      14.0000000000
3860 2      15.0774152303      17.0000000000
3861 2      16.2929826484      19.0000000000
3862 2      16.9765008179      23.0000000000
3863 2      16.2918703323      19.0000000000
3864 2      12.3113070764      16.0000000000
3865 2      14.9071224753      16.0000000000
3866 2      12.9151466599      15.0000000000
3867 2      14.2326391252      22.0000000000
3868 2      16.9432951637      20.0000000000
3869 2      12.0649392233      13.0000000000
3870 2      17.4905771457      21.0000000000
3871 2      13.2663489313      17.0000000000
3872 2      13.9692555535      19.0000000000
3873 2      14.4410657553      13.0000000000
3874 2      15.1680702679      18.0000000000
3875 2      16.5805312322      20.0000000000
3876 2      15.0517479438      18.0000000000
3877 2      12.6422027399      15.0000000000
3878 2      13.7640269920      17.0000000000
3879 2      11.6155033377      15.0000000000
3880 2      12.8447139340      14.0000000000
3881 2      13.7078483544      20.0000000000
3882 2      15.9418363400      19.0000000000
3883 2      13.2201697371      19.0000000000
3884 2      15.2087058800      18.0000000000
3885 2      11.9020966085      17.0000000000
3886 2      15.7927527373      19.0000000000
3887 2      15.1978714836      20.0000000000
3888 2      15.9581469621      18.0000000000
3889 2      15.0098177068      15.0000000000
3890 2      17.6106127493      21.0000000000
3891 2      13.6075175624      19.0000000000
3892 2      13.9243195972      14.0000000000
3893 2      14.5511861601      17.0000000000
3894 2      18.8953393665      22.0000000000
3895 2      13.6994337268      18.0000000000
3896 2      12.5948061564      15.0000000000
3897 2      17.1341274534      19.0000000000
3898 2      13.6555547789      20.0000000000
3899 2      15.9484139479      20.0000000000
3900 2      13.1469963131      17.0000000000
3901 2      13.3893557496      18.0000000000
3902 2      17.3018033237      15.0000000000
3903 2      15.0630079959      16.0000000000
3904 2      14.3191663600      16.0000000000
3905 2      12.0154007573      16.0000000000
3906 2      15.2675085517      14.0000000000
3907 2      15.4914826753      23.0000000000
3908 2      14.3365532758      22.0000000000
3909 2      15.0061301571      20.0000000000
3910 2      15.7518911069      19.0000000000
3911 2      14.3590130821      18.0000000000
3912 2      15.6592101359      19.0000000000
3913 2      13.6753366236      14.0000000000
3914 2      13.6048376125      17.0000000000
3915 2      13.9285086372      19.0000000000
3916 2      17.2463091996      20.0000000000
3917 2      14.7234202296      17.0000000000
3918 2      16.2558179441      19.0000000000
3919 2      12.2867874454      17.0000000000
3920 2      13.7166955159      16.0000000000
3921 2      13.2363792999      14.0000000000
3922 2      13.2746748445      16.0000000000
3923 2      15.5144970471      19.0000000000
3924 2      13.4735261595      15.0000000000
3925 2      13.4466251026      20.0000000000
3926 2      14.2913465154      17.0000000000
3927 2      15.3614374235      17.0000000000
3928 2      15.0905091389      17.0000000000
3929 2      14.4513751736      18.0000000000
3930 2      14.4210862784      18.0000000000
3931 2      17.2396528209      16.0000000000
3932 2      14.7521746815      15.0000000000
3933 2      13.5333594289      16.0000000000
3934 2      13.9536887711      19.0000000000
3935 2      14.1706146029      16.0000000000
3936 2      14.1441398268      20.0000000000
3937 2      16.8667451008      24.0000000000
3938 2      17.2883104915      20.0000000000
3939 2      19.0434543524      20.0000000000
3940 2      15.9748536819      19.0000000000
3941 2      16.0783040381      22.0000000000
3942 2      14.9847234919      20.0000000000
3943 2      14.9173568576      18.0000000000
3944 2      14.9542905790      16.0000000000
3945 2      15.6108087808      20.0000000000
3946 2      16.9485951603      17.0000000000
3947 2      13.6570928502      15.0000000000
3948 2      14.4906760372      14.0000000000
3949 2      16.3546545044      17.0000000000
3950 2      14.5281447954      14.0000000000
3951 2      15.9743143561      21.0000000000
3952 2      17.2008547485      21.0000000000
3953 2      14.8953676988      21.0000000000
3954 2      15.6578236607      14.0000000000
3955 2      13.6091806406      17.0000000000
3956 2      14.1642021644      19.0000000000
3957 2      15.9548908585      16.0000000000
3958 2      13.0384941027      14.0000000000
3959 2      15.5636224732      16.0000000000
3960 2      14.4192223446      17.0000000000
3961 2      16.2952553405      18.0000000000
3962 2      14.7818431560      21.0000000000
3963 2      14.3912587497      20.0000000000
3964 2      13.9161704898      16.0000000000
3965 2      16.4413004992      22.0000000000
3966 2      17.2531464990      21.0000000000
3967 2      14.1919665742      16.0000000000
3968 2      13.8719560708      19.0000000000
3969 2      16.5355629777      20.0000000000
3970 2      16.7775393364      22.0000000000
3971 2      16.3782021499      22.0000000000
3972 2      13.6145735382      15.0000000000
3973 2      12.9994961042      18.0000000000
3974 2      12.8684701950      14.0000000000
3975 2      14.9900244045      19.0000000000
3976 2      15.2552316668      18.0000000000
3977 2      15.3542270084      19.0000000000
3978 2      13.5831777148      16.0000000000
3979 2      16.2416122762      19.0000000000
3980 2      13.5373627920      15.0000000000
3981 2      11.8527538077      15.0000000000
3982 2      15.6914869405      19.0000000000
3983 2      15.5061697071      19.0000000000
3984 2      13.4195570639      14.0000000000
3985 2      14.0674536769      17.0000000000
3986 2      14.5255635912      17.0000000000
3987 2      13.0133401025      15.0000000000
3988 2      16.5220557217      15.0000000000
3989 2      16.4705509383      19.0000000000
3990 2      13.4095675711      13.0000000000
3991 2      12.5156617400      15.0000000000
3992 2      15.8584270883      18.0000000000
3993 2      14.3732850964      17.0000000000
3994 2      15.2011778023      19.0000000000
3995 2      16.0404037595      19.0000000000
3996 2      15.5411539391      15.0000000000
3997 2      11.4447416553      14.0000000000
3998 2      13.8274637529      21.0000000000
3999 2      13.4221485809      13.0000000000
4000 2      15.4323550419      16.0000000000
4001 2      14.7355631029      19.0000000000
4002 2      14.5344646921      18.0000000000
4003 2      15.5872368041      15.0000000000
4004 2      14.2219529692      18.0000000000
4005 2      13.2195436902      16.0000000000
4006 2      18.1429054901      20.0000000000
4007 2      17.8480023910      20.0000000000
4008 2      14.4619277900      16.0000000000
4009 2      13.0750300782      19.0000000000
4010 2      15.2536946892      22.0000000000
4011 2      15.3260970309      16.0000000000
4012 2      12.3422120537      16.0000000000
4013 2      12.9478418970      15.0000000000
4014 2      12.3457744068      15.0000000000
4015 2      13.1582371493      17.0000000000
4016 2      15.4040157407      18.0000000000
4017 2      15.0657659730      17.0000000000
4018 2      11.1055461201      16.0000000000
4019 2      14.9506524620      19.0000000000
4020 2      15.2031687646      18.0000000000
4021 2      15.7923249388      20.0000000000
4022 2      13.6170349463      16.0000000000
4023 2      11.1682319107      14.0000000000
4024 2      16.4198346020      17.0000000000
4025 2      12.9986965643      13.0000000000
4026 2      12.8537773617      18.0000000000
4027 2      16.0295693122      19.0000000000
4028 2      15.8384754475      21.0000000000
4029 2      12.8049274835      17.0000000000
4030 2      12.8908778385      15.0000000000
4031 2      14.2564352883      16.0000000000
4032 2      12.8130296461      18.0000000000
4033 2      14.1142097211      17.0000000000
4034 2      14.3769095416      23.0000000000
4035 2      16.7398665004      23.0000000000
4036 2      12.6764842534      12.0000000000
4037 2      15.9776606047      20.0000000000
4038 2      17.1993438450      23.0000000000
4039 2      15.2678639564      19.0000000000
4040 2      17.2011895600      20.0000000000
4041 2      14.9474217831      20.0000000000
4042 2      12.5186108945      13.0000000000
4043 2      15.6185393057      18.0000000000
4044 2      15.6185900312      20.0000000000
4045 2      14.7836675430      22.0000000000
4046 2      16.8875500163      18.0000000000
4047 2      13.5781546710      16.0000000000
4048 2      14.0396408160      20.0000000000
4049 2      16.3291427909      20.0000000000
4050 2      12.4702300598      16.0000000000
4051 2      15.1755349354      19.0000000000
4052 2      17.0624365233      21.0000000000
4053 2      12.7535411904      15.0000000000
4054 2      15.0200956781      16.0000000000
4055 2      14.8455463820      20.0000000000
4056 2      12.7862392311      17.0000000000
4057 2      16.8716988202      21.0000000000
4058 2      13.5200661095      16.0000000000
4059 2      13.5850113986      17.0000000000
4060 2      13.4885431609      17.0000000000
4061 2      16.4550664031      20.0000000000
4062 2      15.4586890924      23.0000000000
4063 2      16.4298374167      21.0000000000
4064 2      15.3842955342      21.0000000000
4065 2      12.2765254408      17.0000000000
4066 2      15.1618199467      20.0000000000
4067 2      14.4455958296      18.0000000000
4068 2      15.0431182651      17.0000000000
4069 2      17.1057232525      23.0000000000
4070 2      14.0077977316      15.0000000000
4071 2      14.7050353746      17.0000000000
4072 2      13.0347477399      18.0000000000
4073 2      15.1262874323      19.0000000000
4074 2      16.1987560498      21.0000000000
4075 2      12.9279828887      17.0000000000
4076 2      17.4339729052      19.0000000000
4077 2      13.9897623989      18.0000000000
4078 2      13.7509709031      17.0000000000
4079 2      12.7411249208      17.0000000000
4080 2      16.6691070645      19.0000000000
4081 2      16.2741147420      22.0000000000
4082 2      16.3661138962      22.0000000000
4083 2      14.8593577006      19.0000000000
4084 2      14.7473846515      23.0000000000
4085 2      15.5978657379      21.0000000000
4086 2      14.5584900248      17.0000000000
4087 2      13.7113526252      16.0000000000
4088 2      12.7525737373      16.0000000000
4089 2      13.2288201344      19.0000000000
4090 2      12.3266726997      14.0000000000
4091 2      13.4495263063      15.0000000000
4092 2      13.1722508859      15.0000000000
4093 2      14.2398379638      18.0000000000
4094 2      15.1182625381      20.0000000000
4095 2      15.1695844401      18.0000000000
4096 2      13.6967342856      17.0000000000
4097 2      12.8113199769      14.0000000000
4098 2      15.9602087326      17.0000000000
4099 2      15.8444925885      22.0000000000
4100 2      18.1442681236      21.0000000000
4101 2      17.9634608678      22.0000000000
4102 2      15.3224226014      16.0000000000
4103 2      14.7586917879      17.0000000000
4104 2      15.3272635918      20.0000000000
4105 2      15.8344803442      20.0000000000
4106 2      15.0675867392      18.0000000000
4107 2      14.5178372547      19.0000000000
4108 2      13.2408290694      17.0000000000
4109 2      14.9940119261      18.0000000000
4110 2      11.6386745708      15.0000000000
4111 2      15.4993994551      17.0000000000
4112 2      14.7237755767      20.0000000000
4113 2      12.6079455715      16.0000000000
4114 2      12.4160591189      16.0000000000
4115 2      14.0412669819      16.0000000000
4116 2      15.1871854362      20.0000000000
4117 2      14.9763586840      20.0000000000
4118 2      15.2021525521      16.0000000000
4119 2      13.5957608662      17.0000000000
4120 2      14.6791156598      18.0000000000
4121 2      15.8731364326      17.0000000000
4122 2      15.0556516440      17.0000000000
4123 2      15.7986742830      21.0000000000
4124 2      12.4264541071      14.0000000000
4125 2      14.9763939978      19.0000000000
4126 2      15.2320405015      23.0000000000
4127 2      15.4680697396      17.0000000000
4128 2      13.0436674748      12.0000000000
4129 2      16.4100355296      20.0000000000
4130 2      15.6911365613      18.0000000000
4131 2      15.7709736015      20.0000000000
4132 2      16.9226778587      23.0000000000
4133 2      14.5778764627      18.0000000000
4134 2      13.1725615961      14.0000000000
4135 2      15.7919749342      16.0000000000
4136 2      11.2001903395      16.0000000000
4137 2      15.0371563640      17.0000000000
4138 2      14.4885349797      19.0000000000
4139 2      15.4184803279      19.0000000000
4140 2      13.5715663910      17.0000000000
4141 2      14.4475472011      19.0000000000
4142 2      17.7252875570      21.0000000000
4143 2      13.9222888558      20.0000000000
4144 2      12.4534396222      16.0000000000
4145 2      13.9399499176      16.0000000000
4146 2      12.4869669593      16.0000000000
4147 2      13.1575122173      15.0000000000
4148 2      17.2570937685      20.0000000000
4149 2      16.0005718468      17.0000000000
4150 2      14.8825813028      15.0000000000
4151 2      14.8065603354      16.0000000000
4152 2      14.6084164085      15.0000000000
4153 2      14.1144967490      16.0000000000
4154 2      17.1180677563      21.0000000000
4155 2      14.9646570987      19.0000000000
4156 2      14.2454735700      17.0000000000
4157 2      14.2227790197      20.0000000000
4158 2      13.7741384918      17.0000000000
4159 2      13.5131033951      16.0000000000
4160 2      13.5814261553      16.0000000000
4161 2      14.9382186009      16.0000000000
4162 2      13.5660004911      19.0000000000
4163 2      14.2019253011      16.0000000000
4164 2      15.4547545491      16.0000000000
4165 2      15.0191049810      16.0000000000
4166 2      13.7164027280      20.0000000000
4167 2      16.9577051270      18.0000000000
4168 2      13.8896072876      15.0000000000
4169 2      16.8605422181      20.0000000000
4170 2      14.1258223067      17.0000000000
4171 2      13.8315576865      17.0000000000
4172 2      13.4062315950      14.0000000000
4173 2      14.6210361902      17.0000000000
4174 2      14.1046928307      18.0000000000
4175 2      16.0977742801      19.0000000000
4176 2      15.9024936890      17.0000000000
4177 2      12.6697921732      18.0000000000
4178 2      15.9519116722      16.0000000000
4179 2      14.8429512625      19.0000000000
4180 2      15.9540258196      18.0000000000
4181 2      16.0585148086      15.0000000000
4182 2      18.7660004746      25.0000000000
4183 2      13.2476874770      15.0000000000
4184 2      14.3342905188      18.0000000000
4185 2      12.6848755100      15.0000000000
4186 2      14.8025763115      15.0000000000
4187 2      16.0313001063      21.0000000000
4188 2      15.4876863862      19.0000000000
4189 2      14.6263594697      17.0000000000
4190 2      15.3545568017      18.0000000000
4191 2      13.5988608862      17.0000000000
4192 2      12.9684557617      18.0000000000
4193 2      14.7891259423      22.0000000000
4194 2      13.8611030479      12.0000000000
4195 2      15.1027988410      18.0000000000
4196 2      15.7563770126      19.0000000000
4197 2      13.7317427184      17.0000000000
4198 2      16.6042353880      20.0000000000
4199 2      14.5849281373      21.0000000000
4200 2      13.1979797458      14.0000000000
4201 2      13.5624719913      18.0000000000
4202 2      15.2414566844      17.0000000000
4203 2      14.9919653586      17.0000000000
4204 2      12.6776856570      18.0000000000
4205 2      15.9346198875      19.0000000000
4206 2      17.0135397463      16.0000000000
4207 2      15.5969480869      20.0000000000
4208 2      16.3659785248      20.0000000000
4209 2      14.7830167327      15.0000000000
4210 2      12.9560942860      18.0000000000
4211 2      14.7621331964      18.0000000000
4212 2      13.0739311753      16.0000000000
4213 2      16.4303464420      16.0000000000
4214 2      13.8043899168      17.0000000000
4215 2      12.6719600235      14.0000000000
4216 2      12.0446904766      15.0000000000
4217 2      14.3116290013      18.0000000000
4218 2      16.9482549022      19.0000000000
4219 2      16.8323691935      21.0000000000
4220 2      15.4324368132      18.0000000000
4221 2      14.7752872605      20.0000000000
4222 2      15.4042826170      16.0000000000
4223 2      14.6851914503      23.0000000000
4224 2      14.6279275619      18.0000000000
4225 2      15.2815363380      16.0000000000
4226 2      16.3043667314      20.0000000000
4227 2      13.7492757515      18.0000000000
4228 2      15.7010681327      17.0000000000
4229 2      13.0472070681      16.0000000000
4230 2      15.7958216662      19.0000000000
4231 2      15.3577272057      17.0000000000
4232 2      15.9344415856      17.0000000000
4233 2      13.9594586963      17.0000000000
4234 2      14.8901508748      21.0000000000
4235 2      16.5316582914      17.0000000000
4236 2      16.6424369961      17.0000000000
4237 2      13.6109513135      18.0000000000
4238 2      12.8324008747      17.0000000000
4239 2      17.0002691389      19.0000000000
4240 2      16.3389894466      16.0000000000
4241 2      14.9863541525      16.0000000000
4242 2      12.6642011516      18.0000000000
4243 2      14.2910873228      17.0000000000
4244 2      16.8847930167      20.0000000000
4245 2      15.4681831224      18.0000000000
4246 2      15.1807760074      21.0000000000
4247 2      15.0296489494      24.0000000000
4248 2      14.1128235202      19.0000000000
4249 2      13.0593399846      18.0000000000
4250 2      13.5397682309      16.0000000000
4251 2      12.4813446143      16.0000000000
4252 2      13.0568222652      17.0000000000
4253 2      15.5309263873      18.0000000000
4254 2      14.4661249437      18.0000000000
4255 2      14.8121216460      19.0000000000
4256 2      14.4406560897      14.0000000000
4257 2      14.7779621832      18.0000000000
4258 2      14.9406108753      13.0000000000
4259 2      13.9465437775      16.0000000000
4260 2      14.6753378778      17.0000000000
4261 2      14.7636936253      19.0000000000
4262 2      14.6659549828      16.0000000000
4263 2      15.6825504725      22.0000000000
4264 2      16.8899443713      16.0000000000
4265 2      12.7372755900      14.0000000000
4266 2      15.0884315703      20.0000000000
4267 2      17.2553140823      21.0000000000
4268 2      13.1767531847      16.0000000000
4269 2      13.1306192919      16.0000000000
4270 2      14.7216074216      22.0000000000
4271 2      15.3396577523      20.0000000000
4272 2      12.2328351036      18.0000000000
4273 2      13.8969721216      18.0000000000
4274 2      17.4415307988      21.0000000000
4275 2      13.9386600993      22.0000000000
4276 2      17.6737268538      24.0000000000
4277 2      18.9087607617      17.0000000000
4278 2      18.6654901340      23.0000000000
4279 2      13.2097795184      15.0000000000
4280 2      13.4729881307      19.0000000000
4281 2      13.9891180894      15.0000000000
4282 2      14.3839951020      21.0000000000
4283 2      16.4250669026      21.0000000000
4284 2      11.8227558620      17.0000000000
4285 2      14.3831546582      17.0000000000
4286 2      13.0765045373      14.0000000000
4287 2      13.3575243809      16.0000000000
4288 2      14.9507302285      19.0000000000
4289 2      14.3201286037      18.0000000000
4290 2      15.1240001134      19.0000000000
4291 2      14.0743450647      18.0000000000
4292 2      14.1626544248      18.0000000000
4293 2      16.4595451585      19.0000000000
4294 2      15.9686151655      19.0000000000
4295 2      15.4894622141      17.0000000000
4296 2      13.8075898706      18.0000000000
4297 2      13.3933177555      19.0000000000
4298 2      14.8951264151      16.0000000000
4299 2      14.9611768669      18.0000000000
4300 2      12.6903596976      17.0000000000
4301 2      16.0912509950      18.0000000000
4302 2      16.9321308573      19.0000000000
4303 2      13.2487114447      15.0000000000
4304 2      15.2861095250      18.0000000000
4305 2      14.4778108755      19.0000000000
4306 2      10.9320934120      14.0000000000
4307 2      14.7442191361      16.0000000000
4308 2      14.8276874835      21.0000000000
4309 2      18.0099565961      21.0000000000
4310 2      11.9715080138      14.0000000000
4311 2      14.5410331210      17.0000000000
4312 2      13.2008332809      14.0000000000
4313 2      12.8569197676      17.0000000000
4314 2      14.7760776280      17.0000000000
4315 2      12.2629117534      17.0000000000
4316 2      13.8366566363      16.0000000000
4317 2      13.4927276385      15.0000000000
4318 2      13.4172723504      20.0000000000
4319 2      15.3201183483      15.0000000000
4320 2      14.5009866959      20.0000000000
4321 2      16.6609677698      16.0000000000
4322 2      15.9223513250      17.0000000000
4323 2      12.4794344689      16.0000000000
4324 2      15.5272924265      18.0000000000
4325 2      13.8056764081      18.0000000000
4326 2      17.4428881134      21.0000000000
4327 2      13.9821044580      18.0000000000
4328 2      14.8911557083      17.0000000000
4329 2      14.7877527247      19.0000000000
4330 2      13.1930680005      17.0000000000
4331 2      16.3380043413      22.0000000000
4332 2      18.9486376308      23.0000000000
4333 2      13.2959652570      15.0000000000
4334 2      16.0588518483      21.0000000000
4335 2      14.4947318276      17.0000000000
4336 2      16.5908763458      19.0000000000
4337 2      16.4485344008      19.0000000000
4338 2      16.8175983312      18.0000000000
4339 2      14.5459570631      22.0000000000
4340 2      17.3159754097      22.0000000000
4341 2      14.4271843926      19.0000000000
4342 2      13.7307802448      13.0000000000
4343 2      14.4513530645      20.0000000000
4344 2      13.6671305799      16.0000000000
4345 2      15.7066058643      19.0000000000
4346 2      14.9989180877      18.0000000000
4347 2      15.5434467716      18.0000000000
4348 2      15.9126068178      15.0000000000
4349 2      13.0603540338      14.0000000000
4350 2      14.7340944152      18.0000000000
4351 2      14.9771537765      17.0000000000
4352 2      15.6681577443      22.0000000000
4353 2      14.5611156481      19.0000000000
4354 2      14.4123062555      21.0000000000
4355 2      14.0846300044      19.0000000000
4356 2      11.7094856778      15.0000000000
4357 2      13.9677869467      15.0000000000
4358 2      15.3884785020      20.0000000000
4359 2      14.6291070649      16.0000000000
4360 2      13.3899756586      17.0000000000
4361 2      15.7567434157      15.0000000000
4362 2      13.1681673117      17.0000000000
4363 2      13.6529448834      17.0000000000
4364 2      14.3256639877      17.0000000000
4365 2      15.4461719516      18.0000000000
4366 2      16.6678039607      19.0000000000
4367 2      16.3938336473      16.0000000000
4368 2      13.1424430675      15.0000000000
4369 2      15.9652628685      18.0000000000
4370 2      13.0507656397      17.0000000000
4371 2      13.0504234859      15.0000000000
4372 2      16.1551145307      18.0000000000
4373 2      14.3039114720      16.0000000000
4374 2      14.6593444433      18.0000000000
4375 2      15.7867772823      20.0000000000
4376 2      15.6388865628      19.0000000000
4377 2      14.0532301878      20.0000000000
4378 2      13.8979945360      16.0000000000
4379 2      14.4826979977      20.0000000000
4380 2      14.4212141306      17.0000000000
4381 2      14.2558699669      16.0000000000
4382 2      14.3406758935      18.0000000000
4383 2      13.8866223392      19.0000000000
4384 2      15.3547817965      19.0000000000
4385 2      11.3381902552      13.0000000000
4386 2      15.9231206178      19.0000000000
4387 2      16.5232757998      21.0000000000
4388 2      15.9633215764      17.0000000000
4389 2      17.5349645016      20.0000000000
4390 2      14.6578684902      18.0000000000
4391 2      14.0120920158      19.0000000000
4392 2      11.3986164574      15.0000000000
4393 2      14.9301992237      20.0000000000
4394 2      15.3988367598      21.0000000000
4395 2      13.2487878960      16.0000000000
4396 2      14.4463872370      18.0000000000
4397 2      14.4520908297      16.0000000000
4398 2      13.5202380379      18.0000000000
4399 2      14.6929765232      15.0000000000
4400 2      14.5916136461      21.0000000000
4401 2      16.6909357489      16.0000000000
4402 2      18.0777614614      23.0000000000
4403 2      15.6113095437      18.0000000000
4404 2      13.2766804676      12.0000000000
4405 2      17.0425299221      19.0000000000
4406 2      12.6222461063      18.0000000000
4407 2      15.2336722970      17.0000000000
4408 2      12.7048451021      14.0000000000
4409 2      14.3739763582      18.0000000000
4410 2      12.9444991667      15.0000000000
4411 2      13.8112615115      18.0000000000
4412 2      14.2364521108      17.0000000000
4413 2      18.1116581829      21.0000000000
4414 2      14.6439182824      15.0000000000
4415 2      14.8396850133      21.0000000000
4416 2      14.3500961929      19.0000000000
4417 2      14.9807036990      17.0000000000
4418 2      15.9988559399      20.0000000000
4419 2      13.2378685553      15.0000000000
4420 2      15.8460246157      19.0000000000
4421 2      16.1606175861      17.0000000000
4422 2      14.0735662336      19.0000000000
4423 2      12.4538407902      14.0000000000
4424 2      16.5061508858      19.0000000000
4425 2      14.7408472542      16.0000000000
4426 2      15.6336718698      21.0000000000
4427 2      15.4810840229      18.0000000000
4428 2      15.2311515447      19.0000000000
4429 2      13.3555012118      15.0000000000
4430 2      16.2689086747      14.0000000000
4431 2      15.1217772375      19.0000000000
4432 2      13.6200876169      17.0000000000
4433 2      14.0176529725      17.0000000000
4434 2      12.9700274689      18.0000000000
4435 2      15.8121253465      21.0000000000
4436 2      14.1200154142      16.0000000000
4437 2      13.9279919833      18.0000000000
4438 2      15.1154038939      19.0000000000
4439 2      15.7639808037      15.0000000000
4440 2      15.5001371861      20.0000000000
4441 2      15.6815038253      16.0000000000
4442 2      16.4016501490      20.0000000000
4443 2      13.5581039504      14.0000000000
4444 2      15.2612771289      15.0000000000
4445 2      13.7712906714      21.0000000000
4446 2      14.7580788941      17.0000000000
4447 2      13.9987390277      20.0000000000
4448 2      11.3811731368      17.0000000000
4449 2      14.4406308427      18.0000000000
4450 2      14.0830818401      18.0000000000
4451 2      14.4039032874      20.0000000000
4452 2      14.9475086195      23.0000000000
4453 2      14.1494477296      16.0000000000
4454 2      12.6240708608      14.0000000000
4455 2      15.3833131032      18.0000000000
4456 2      13.4506494863      15.0000000000
4457 2      12.5441204597      16.0000000000
4458 2      14.8833564528      18.0000000000
4459 2      15.4899796485      20.0000000000
4460 2      14.8118276341      20.0000000000
4461 2      15.9503217381      22.0000000000
4462 2      13.8340895923      16.0000000000
4463 2      15.4542332755      16.0000000000
4464 2      13.5662203949      18.0000000000
4465 2      15.0343411485      18.0000000000
4466 2      14.9320768368      14.0000000000
4467 2      11.9400662375      17.0000000000
4468 2      13.5279007774      14.0000000000
4469 2      13.2507757415      15.0000000000
4470 2      16.4326675481      20.0000000000
4471 2      15.6709230862      19.0000000000
4472 2      19.1615967588      25.0000000000
4473 2      14.1046703243      14.0000000000
4474 2      16.1943861531      20.0000000000
4475 2      13.8301396149      14.0000000000
4476 2      15.6549993166      22.0000000000
4477 2      14.0347333012      20.0000000000
4478 2      16.1017328701      20.0000000000
4479 2      15.2056010698      16.0000000000
4480 2      13.6911557891      17.0000000000
4481 2      14.4178098772      20.0000000000
4482 2      14.7809329203      22.0000000000
4483 2      17.8387755358      19.0000000000
4484 2      14.2162316092      21.0000000000
4485 2      13.0819178475      15.0000000000
4486 2      14.4158868908      15.0000000000
4487 2      13.1274030267      17.0000000000
4488 2      16.9908131838      21.0000000000
4489 2      17.0398363761      20.0000000000
4490 2      16.0594836893      21.0000000000
4491 2      14.2639810710      23.0000000000
4492 2      13.7609786305      19.0000000000
4493 2      15.3675569380      14.0000000000
4494 2      12.4023290021      15.0000000000
4495 2      15.7526713887      19.0000000000
4496 2      15.5226039820      18.0000000000
4497 2      16.4459323884      18.0000000000
4498 2      15.5125454644      20.0000000000
4499 2      12.3902392944      13.0000000000
4500 2      14.3372428877      15.0000000000
4501 2      14.9942629707      19.0000000000
4502 2      16.2426984947      15.0000000000
4503 2      15.3033270954      15.0000000000
4504 2      11.9192694832      16.0000000000
4505 2      12.6302544415      18.0000000000
4506 2      18.4169973040      21.0000000000
4507 2      15.5409994437      18.0000000000
4508 2      14.3760563860      18.0000000000
4509 2      17.5511808068      20.0000000000
4510 2      14.9637472482      18.0000000000
4511 2      17.3648105932      20.0000000000
4512 2      14.0690484733      17.0000000000
4513 2      14.2197019097      20.0000000000
4514 2      14.5960326842      18.0000000000
4515 2      15.4167023364      17.0000000000
4516 2      15.6622238734      19.0000000000
4517 2      16.1795807924      16.0000000000
4518 2      18.0729629805      18.0000000000
4519 2      13.6507170560      16.0000000000
4520 2      13.8680989153      15.0000000000
4521 2      15.9536427635      21.0000000000
4522 2      11.2288749872      15.0000000000
4523 2      14.3449400335      19.0000000000
4524 2      15.4838836307      17.0000000000
4525 2      17.6616234162      23.0000000000
4526 2      15.0578695899      18.0000000000
4527 2      19.6919225696      23.0000000000
4528 2      14.9374405638      17.0000000000
4529 2      14.7776483381      16.0000000000
4530 2      14.8579211846      19.0000000000
4531 2      15.2156190985      19.0000000000
4532 2      15.2733354897      21.0000000000
4533 2      15.0772860614      16.0000000000
4534 2      14.2093769113      16.0000000000
4535 2      15.9273580216      19.0000000000
4536 2      12.5017965137      18.0000000000
4537 2      13.8196231570      18.0000000000
4538 2      18.1485598254      19.0000000000
4539 2      12.8506676234      17.0000000000
4540 2      15.3294716033      18.0000000000
4541 2      12.1097835485      15.0000000000
4542 2      12.7179557553      14.0000000000
4543 2      12.1962279331      16.0000000000
4544 2      14.8497914318      17.0000000000
4545 2      15.2045315220      18.0000000000
4546 2      16.5643846665      21.0000000000
4547 2      13.2381308191      16.0000000000
4548 2      14.8086842329      16.0000000000
4549 2      13.9423489949      19.0000000000
4550 2      16.1163992037      19.0000000000
4551 2      15.6010497143      24.0000000000
4552 2      17.2524282491      17.0000000000
4553 2      13.6696264189      16.0000000000
4554 2      14.2791147157      15.0000000000
4555 2      16.1290822324      22.0000000000
4556 2      14.8483474968      17.0000000000
4557 2      15.0076654843      23.0000000000
4558 2      14.7757369051      16.0000000000
4559 2      15.6934743677      21.0000000000
4560 2      13.2291532119      15.0000000000
4561 2      16.6107854964      18.0000000000
4562 2      17.6019325634      19.0000000000
4563 2      16.6683252736      20.0000000000
4564 2      14.3370027151      13.0000000000
4565 2      15.8811574487      17.0000000000
4566 2      15.7017063872      18.0000000000
4567 2      13.9858195228      16.0000000000
4568 2      15.4915273649      21.0000000000
4569 2      13.0521067500      18.0000000000
4570 2      13.6462756329      20.0000000000
4571 2      15.7504747914      18.0000000000
4572 2      15.2734490164      17.0000000000
4573 2      16.3152973132      19.0000000000
4574 2      13.3223924370      15.0000000000
4575 2      11.9206074582      15.0000000000
4576 2      14.2347843426      16.0000000000
4577 2      13.1389963810      15.0000000000
4578 2      16.0449719422      18.0000000000
4579 2      14.1706008738      18.0000000000
4580 2      17.5153255058      19.0000000000
4581 2      13.1576593646      19.0000000000
4582 2      15.9894910656      19.0000000000
4583 2      13.8659004361      19.0000000000
4584 2      14.0505268101      17.0000000000
4585 2      12.6986972576      16.0000000000
4586 2      14.5206013695      13.0000000000
4587 2      19.4687950394      22.0000000000
4588 2      14.0094573487      15.0000000000
4589 2      12.0702240251      18.0000000000
4590 2      14.3817783761      13.0000000000
4591 2      12.1290992004      16.0000000000
4592 2      14.4966826572      19.0000000000
4593 2      13.6965193743      14.0000000000
4594 2      13.0765398299      14.0000000000
4595 2      15.9465756152      16.0000000000
4596 2      17.8232160097      23.0000000000
4597 2      15.5226500272      19.0000000000
4598 2      14.0326305272      19.0000000000
4599 2      13.7351470999      18.0000000000
4600 2      15.3269485620      19.0000000000
4601 2      14.0244798922      17.0000000000
4602 2      16.9513996149      20.0000000000
4603 2      15.1921273752      16.0000000000
4604 2      13.9783771594      16.0000000000
4605 2      15.8883542818      19.0000000000
4606 2      15.1493633957      23.0000000000
4607 2      13.7931323885      22.0000000000
4608 2      15.9357251345      20.0000000000
4609 2      14.8171847164      20.0000000000
4610 2      16.3150404627      18.0000000000
4611 2      14.6022799605      18.0000000000
4612 2      15.4001722003      19.0000000000
4613 2      12.9164433212      18.0000000000
4614 2      16.5929410509      18.0000000000
4615 2      14.8795338338      17.0000000000
4616 2      15.8115794819      16.0000000000
4617 2      14.2700486809      18.0000000000
4618 2      14.3838408372      17.0000000000
4619 2      12.8884344638      14.0000000000
4620 2      14.1622245076      20.0000000000
4621 2      13.5387907534      16.0000000000
4622 2      14.0009066823      19.0000000000
4623 2      13.3061513891      16.0000000000
4624 2      17.2359783306      23.0000000000
4625 2      11.4599730895      17.0000000000
4626 2      13.4122079478      15.0000000000
4627 2      19.0309864596      19.0000000000
4628 2      14.4256436516      17.0000000000
4629 2      14.9049160091      18.0000000000
4630 2      14.4893809352      22.0000000000
4631 2      20.0485812802      25.0000000000
4632 2      13.6353358833      16.0000000000
4633 2      16.0028533005      19.0000000000
4634 2      16.2154543580      22.0000000000
4635 2      13.9074657444      18.0000000000
4636 2      14.4591178348      18.0000000000
4637 2      14.4544508742      18.0000000000
4638 2      13.4052735802      17.0000000000
4639 2      15.1409317861      19.0000000000
4640 2      14.3412056190      18.0000000000
4641 2      13.5361205529      14.0000000000
4642 2      15.1325369489      19.0000000000
4643 2      13.6388683412      18.0000000000
4644 2      13.9432699159      17.0000000000
4645 2      15.1860428361      15.0000000000
4646 2      15.5997350611      19.0000000000
4647 2      13.2475558166      16.0000000000
4648 2      14.2263799450      19.0000000000
4649 2      12.7749572068      16.0000000000
4650 2      15.4804137915      19.0000000000
4651 2      13.8698969092      15.0000000000
4652 2      14.9068065317      18.0000000000
4653 2      15.5907389624      22.0000000000
4654 2      14.3665709710      16.0000000000
4655 2      15.6055579338      21.0000000000
4656 2      14.0673212381      17.0000000000
4657 2      11.3082510543      15.0000000000
4658 2      13.0494819258      16.0000000000
4659 2      15.3094281728      20.0000000000
4660 2      12.9931936364      18.0000000000
4661 2      12.6582325710      15.0000000000
4662 2      14.9249788728      16.0000000000
4663 2      16.5215587206      17.0000000000
4664 2      16.1832137345      21.0000000000
4665 2      18.1442026221      16.0000000000
4666 2      14.7268928601      18.0000000000
4667 2      16.2484188749      17.0000000000
4668 2      12.9550809114      15.0000000000
4669 2      13.9135157300      13.0000000000
4670 2      12.3725145502      14.0000000000
4671 2      15.0857054324      19.0000000000
4672 2      13.9124524169      15.0000000000
4673 2      15.0307832468      20.0000000000
4674 2      15.6170028536      16.0000000000
4675 2      13.3863797179      19.0000000000
4676 2      15.5088356023      15.0000000000
4677 2      13.8519200075      16.0000000000
4678 2      14.2734236013      17.0000000000
4679 2      18.3596391948      20.0000000000
4680 2      14.3678076350      16.0000000000
4681 2      16.3993654425      20.0000000000
4682 2      17.7788641589      23.0000000000
4683 2      15.4146766424      15.0000000000
4684 2      14.5452423395      20.0000000000
4685 2      18.2276529477      24.0000000000
4686 2      15.0845951646      20.0000000000
4687 2      15.0706172164      22.0000000000
4688 2      13.9255523595      18.0000000000
4689 2      16.0660331846      17.0000000000
4690 2      15.8525022783      17.0000000000
4691 2      14.8373835866      18.0000000000
4692 2      11.6140520073      16.0000000000
4693 2      13.6534948933      14.0000000000
4694 2      13.3158907986      16.0000000000
4695 2      13.7263951480      19.0000000000
4696 2      14.9090391344      17.0000000000
4697 2      12.5689866700      15.0000000000
4698 2      13.7229402696      21.0000000000
4699 2      14.0794585425      16.0000000000
4700 2      16.0674206449      20.0000000000
4701 2      13.8203186837      14.0000000000
4702 2      15.9346418418      15.0000000000
4703 2      15.7066046702      20.0000000000
4704 2      15.0244491283      18.0000000000
4705 2      13.1132480127      17.0000000000
4706 2      11.3306244755      16.0000000000
4707 2      12.1091437466      17.0000000000
4708 2      14.2629792713      18.0000000000
4709 2      13.1484803219      15.0000000000
4710 2      13.4773424620      18.0000000000
4711 2      13.7801592221      16.0000000000
4712 2      13.6584979739      17.0000000000
4713 2      17.0341952023      17.0000000000
4714 2      13.9888598124      17.0000000000
4715 2      14.7487860213      18.0000000000
4716 2      14.6447912218      16.0000000000
4717 2      16.2257801601      18.0000000000
4718 2      13.2000646293      18.0000000000
4719 2      15.6407660116      18.0000000000
4720 2      15.0722391312      22.0000000000
4721 2      14.4285019586      16.0000000000
4722 2      16.2081070750      19.0000000000
4723 2      14.6590529290      16.0000000000
4724 2      13.7783090200      19.0000000000
4725 2      13.4023414943      18.0000000000
4726 2      14.2463115694      16.0000000000
4727 2      16.8245823725      18.0000000000
4728 2      11.8454900524      16.0000000000
4729 2      12.2695601919      13.0000000000
4730 2      17.2515868958      22.0000000000
4731 2      14.2368059870      18.0000000000
4732 2      14.5977121839      16.0000000000
4733 2      16.2069255423      15.0000000000
4734 2      15.2621163330      19.0000000000
4735 2      15.0151907931      20.0000000000
4736 2      16.5342834628      20.0000000000
4737 2      13.8597794964      16.0000000000
4738 2      12.6879800681      16.0000000000
4739 2      14.3609874865      16.0000000000
4740 2      16.5117488634      18.0000000000
4741 2      12.9486171781      16.0000000000
4742 2      16.3955389718      23.0000000000
4743 2      12.5650668419      18.0000000000
4744 2      12.8417642410      15.0000000000
4745 2      12.5535608782      17.0000000000
4746 2      15.1976912752      16.0000000000
4747 2      13.4761245552      15.0000000000
4748 2      15.2066113974      17.0000000000
4749 2      13.0822525397      15.0000000000
4750 2      16.4551477844      19.0000000000
4751 2      15.9236800941      18.0000000000
4752 2      14.2560962901      20.0000000000
4753 2      16.3761765934      18.0000000000
4754 2      14.1715854802      18.0000000000
4755 2      17.5724400261      20.0000000000
4756 2      11.8869052397      14.0000000000
4757 2      14.5080835741      15.0000000000
4758 2      13.6142192870      19.0000000000
4759 2      14.1261698630      16.0000000000
4760 2      13.7058833037      16.0000000000
4761 2      16.3262980155      22.0000000000
4762 2      14.3695913827      19.0000000000
4763 2      15.5047588506      20.0000000000
4764 2      17.5848968254      19.0000000000
4765 2      13.7128532690      16.0000000000
4766 2      16.3900242179      18.0000000000
4767 2      12.6553508224      16.0000000000
4768 2      16.9336254563      20.0000000000
4769 2      15.3157380773      22.0000000000
4770 2      15.1097662226      17.0000000000
4771 2      13.9470877223      17.0000000000
4772 2      17.1700767624      21.0000000000
4773 2      15.6139260665      20.0000000000
4774 2      14.9690968638      18.0000000000
4775 2      16.7143601656      18.0000000000
4776 2      17.3556653235      17.0000000000
4777 2      12.4311132974      14.0000000000
4778 2      14.7978547247      20.0000000000
4779 2      14.6680866473      18.0000000000
4780 2      15.4438249210      19.0000000000
4781 2      15.5647592375      21.0000000000
4782 2      14.5131003032      19.0000000000
4783 2      14.1001842100      16.0000000000
4784 2      13.3843988328      16.0000000000
4785 2      14.2262307716      16.0000000000
4786 2      13.6610249999      15.0000000000
4787 2      14.2245111585      17.0000000000
4788 2      15.4331541426      18.0000000000
4789 2      14.1220172721      13.0000000000
4790 2      13.9085755394      17.0000000000
4791 2      14.1342921583      19.0000000000
4792 2      16.1240425493      17.0000000000
4793 2      13.2679719764      15.0000000000
4794 2      12.3927966706      13.0000000000
4795 2      15.2880168906      16.0000000000
4796 2      15.0042170572      13.0000000000
4797 2      15.2128682668      18.0000000000
4798 2      16.4997915244      19.0000000000
4799 2      15.3894158788      19.0000000000
4800 2      15.7588038099      19.0000000000
4801 2      13.2695484845      17.0000000000
4802 2      17.8204818426      21.0000000000
4803 2      13.3288048992      17.0000000000
4804 2      16.7790366797      21.0000000000
4805 2      14.7900773562      14.0000000000
4806 2      12.9672972755      16.0000000000
4807 2      13.5084760798      16.0000000000
4808 2      15.7125040364      20.0000000000
4809 2      13.9275779144      17.0000000000
4810 2      15.0390205272      20.0000000000
4811 2      15.2661738575      17.0000000000
4812 2      14.7251053113      18.0000000000
4813 2      16.0010570254      18.0000000000
4814 2      15.4070231618      16.0000000000
4815 2      16.7592171651      19.0000000000
4816 2      14.6203128807      15.0000000000
4817 2      14.0197593567      18.0000000000
4818 2      15.5895704711      14.0000000000
4819 2      13.0681099648      18.0000000000
4820 2      13.9530587387      16.0000000000
4821 2      13.3941294765      16.0000000000
4822 2      13.5901324238      15.0000000000
4823 2      13.3432644509      18.0000000000
4824 2      12.9685126384      15.0000000000
4825 2      14.4405854858      19.0000000000
4826 2      14.1870815086      16.0000000000
4827 2      16.5361706184      21.0000000000
4828 2      15.1316468916      16.0000000000
4829 2      13.0246073857      20.0000000000
4830 2      17.1255441395      20.0000000000
4831 2      13.7199113773      19.0000000000
4832 2      16.8008216180      21.0000000000
4833 2      14.7097425970      18.0000000000
4834 2      16.7059862007      20.0000000000
4835 2      14.6033677157      17.0000000000
4836 2      14.6105298686      18.0000000000
4837 2      13.8955555513      19.0000000000
4838 2      15.3916365582      17.0000000000
4839 2      16.7319108304      18.0000000000
4840 2      18.8462997394      21.0000000000
4841 2      14.8744386762      16.0000000000
4842 2      14.2066721421      20.0000000000
4843 2      13.7760398662      16.0000000000
4844 2      17.1530494902      19.0000000000
4845 2      14.4257422231      19.0000000000
4846 2      15.0778115567      20.0000000000
4847 2      15.4152588987      18.0000000000
4848 2      14.6895639997      19.0000000000
4849 2      17.3709582986      20.0000000000
4850 2      14.9431951138      23.0000000000
4851 2      15.3884411181      17.0000000000
4852 2      13.5992753116      16.0000000000
4853 2      15.3422597835      15.0000000000
4854 2      13.6071750889      22.0000000000
4855 2      15.4802489286      19.0000000000
4856 2      18.7252665273      19.0000000000
4857 2      13.3550186462      17.0000000000
4858 2      16.5728150056      16.0000000000
4859 2      13.9949280742      15.0000000000
4860 2      12.0775381875      14.0000000000
4861 2      16.7430683691      18.0000000000
4862 2      15.7128508542      17.0000000000
4863 2      15.4124724229      16.0000000000
4864 2      14.4109417384      20.0000000000
4865 2      15.9052718422      19.0000000000
4866 2      13.7186158388      17.0000000000
4867 2      19.0612291851      22.0000000000
4868 2      14.3300520235      17.0000000000
4869 2      17.5367566419      20.0000000000
4870 2      15.5156577778      18.0000000000
4871 2      15.9463521600      15.0000000000
4872 2      15.2881091550      15.0000000000
4873 2      16.2642260029      16.0000000000
4874 2      14.3149245633      19.0000000000
4875 2      15.2567104804      18.0000000000
4876 2      15.7611008682      16.0000000000
4877 2      16.5794450543      17.0000000000
4878 2      16.2528186214      22.0000000000
4879 2      15.8172505000      18.0000000000
4880 2      18.3249833434      20.0000000000
4881 2      14.5266268767      15.0000000000
4882 2      15.6381255714      17.0000000000
4883 2      14.2182437961      15.0000000000
4884 2      16.5506327034      18.0000000000
4885 2      17.3900964231      20.0000000000
4886 2      13.8342011311      17.0000000000
4887 2      14.4135245699      15.0000000000
4888 2      16.7018293209      19.0000000000
4889 2      14.3765967437      18.0000000000
4890 2      16.2046855948      17.0000000000
4891 2      14.9811811104      19.0000000000
4892 2      16.7036980247      18.0000000000
4893 2      14.0873425195      18.0000000000
4894 2      15.3223627289      19.0000000000
4895 2      14.0639777495      16.0000000000
4896 2      17.1917728780      20.0000000000
4897 2      13.5525637018      16.0000000000
4898 2      14.1662307598      19.0000000000
4899 2      14.1996014853      18.0000000000
4900 2      17.2630505949      22.0000000000
4901 2      14.7078140754      16.0000000000
4902 2      16.3627129548      18.0000000000
4903 2      16.2026356462      19.0000000000
4904 2      15.8087587578      18.0000000000
4905 2      15.2091568164      22.0000000000
4906 2      14.6601793498      16.0000000000
4907 2      16.2223188068      19.0000000000
4908 2      14.3034049360      21.0000000000
4909 2      17.0057408054      21.0000000000
4910 2      13.7715785921      16.0000000000
4911 2      16.0296946935      18.0000000000
4912 2      13.6396802121      16.0000000000
4913 2      12.2892607881      14.0000000000
4914 2      15.3467280515      18.0000000000
4915 2      17.0208834498      22.0000000000
4916 2      14.8635071497      20.0000000000
4917 2      14.9877583438      15.0000000000
4918 2      16.8079573575      17.0000000000
4919 2      15.6371852868      18.0000000000
4920 2      15.2865613635      20.0000000000
4921 2      14.0257397776      17.0000000000
4922 2      12.2064907245      13.0000000000
4923 2      16.3808345282      21.0000000000
4924 2      15.9878001297      18.0000000000
4925 2      15.7412238945      18.0000000000
4926 2      12.7685684723      16.0000000000
4927 2      15.1257415359      18.0000000000
4928 2      16.6365776438      15.0000000000
4929 2      13.7381545954      18.0000000000
4930 2      14.3900826441      18.0000000000
4931 2      15.7398984016      16.0000000000
4932 2      14.9832308077      17.0000000000
4933 2      13.8788661291      18.0000000000
4934 2      14.3167017045      15.0000000000
4935 2      14.5077350175      16.0000000000
4936 2      14.3650525845      21.0000000000
4937 2      17.2307356427      20.0000000000
4938 2      15.0775619261      17.0000000000
4939 2      15.2510517037      20.0000000000
4940 2      14.3693944734      21.0000000000
4941 2      16.2022543226      16.0000000000
4942 2      16.5409742006      19.0000000000
4943 2      14.0336074999      20.0000000000
4944 2      14.2188504859      17.0000000000
4945 2      13.5743766628      14.0000000000
4946 2      15.8013508215      21.0000000000
4947 2      14.9504980684      15.0000000000
4948 2      14.2088985239      16.0000000000
4949 2      17.0576862307      21.0000000000
4950 2      15.1848494918      21.0000000000
4951 2      13.7111000078      16.0000000000
4952 2      15.7573673638      21.0000000000
4953 2      14.3674076523      17.0000000000
4954 2      15.1317651865      20.0000000000
4955 2      13.6270080968      14.0000000000
4956 2      13.2003150284      14.0000000000
4957 2      15.4547325416      16.0000000000
4958 2      15.6227955482      16.0000000000
4959 2      15.3301554217      17.0000000000
4960 2      14.9889761584      19.0000000000
4961 2      13.9954383987      18.0000000000
4962 2      15.9090123041      18.0000000000
4963 2      13.7358295415      17.0000000000
4964 2      18.1531089343      23.0000000000
4965 2      16.9374761761      18.0000000000
4966 2      12.4212438245      18.0000000000
4967 2      14.4415769742      20.0000000000
4968 2      14.3005230243      20.0000000000
4969 2      15.4493309608      16.0000000000
4970 2      14.9524188751      20.0000000000
4971 2      14.7062985572      15.0000000000
4972 2      13.8771404861      19.0000000000
4973 2      12.7631374146      15.0000000000
4974 2      12.7410952411      17.0000000000
4975 2      14.9941510519      14.0000000000
4976 2      14.2105410467      13.0000000000
4977 2      13.0511520076      14.0000000000
4978 2      15.2886372942      21.0000000000
4979 2      15.2166137021      22.0000000000
4980 2      13.4699720964      17.0000000000
4981 2      15.3453808155      17.0000000000
4982 2      18.0763268210      21.0000000000
4983 2      12.5671151147      18.0000000000
4984 2      13.0276766566      15.0000000000
4985 2      13.2722930424      18.0000000000
4986 2      15.2701795070      17.0000000000
4987 2      14.2543600081      16.0000000000
4988 2      13.8181407423      17.0000000000
4989 2      15.5076855251      19.0000000000
4990 2      12.6852761584      17.0000000000
4991 2      16.6618376531      21.0000000000
4992 2      16.5258270620      17.0000000000
4993 2      18.1205444294      19.0000000000
4994 2      14.0569439621      14.0000000000
4995 2      14.4610947504      16.0000000000
4996 2      15.7050294076      20.0000000000
4997 2      15.1949345269      18.0000000000
4998 2      13.5539535407      14.0000000000
4999 2      14.7934156383      16.0000000000
5000 2      18.2646683025      22.0000000000
5001 2      18.0399322240      19.0000000000
5002 2      17.1992722531      18.0000000000
5003 2      16.0718932872      18.0000000000
5004 2      17.3406000063      20.0000000000
5005 2      16.7785588608      19.0000000000
5006 2      14.1493829890      16.0000000000
5007 2      15.8506290055      19.0000000000
5008 2      15.7193641854      19.0000000000
5009 2      17.9403906630      16.0000000000
5010 2      11.8104544753      15.0000000000
5011 2      17.2420419683      17.0000000000
5012 2      12.7728269157      18.0000000000
5013 2      16.1469294300      21.0000000000
5014 2      14.6539917710      17.0000000000
5015 2      15.7716901780      20.0000000000
5016 2      14.1190499810      15.0000000000
5017 2      17.0809013051      17.0000000000
5018 2      14.4733582855      18.0000000000
5019 2      12.1618276082      14.0000000000
5020 2      15.5354924856      17.0000000000
5021 2      14.5830569738      19.0000000000
5022 2      14.0136040375      19.0000000000
5023 2      15.1270084971      18.0000000000
5024 2      12.9812125596      17.0000000000
5025 2      16.3059519469      19.0000000000
5026 2      14.4948645602      18.0000000000
5027 2      14.7505512603      21.0000000000
5028 2      18.2068617996      21.0000000000
5029 2      16.2992628034      19.0000000000
5030 2      13.3819093255      16.0000000000
5031 2      14.3442973575      18.0000000000
5032 2      15.3231801926      17.0000000000
5033 2      15.4195482399      18.0000000000
5034 2      14.3316643177      19.0000000000
5035 2      16.0997560939      20.0000000000
5036 2      13.7636765511      17.0000000000
5037 2      15.3170508006      20.0000000000
5038 2      14.8021408722      14.0000000000
5039 2      14.9200442496      17.0000000000
5040 2      13.7466332279      19.0000000000
5041 2      12.3577165542      17.0000000000
5042 2      15.1738686451      17.0000000000
5043 2      13.9481227017      19.0000000000
5044 2      14.3583105411      17.0000000000
5045 2      17.4944619217      20.0000000000
5046 2      15.3014170556      19.0000000000
5047 2      17.7559480536      20.0000000000
5048 2      16.3925667289      22.0000000000
5049 2      16.1890259803      23.0000000000
5050 2      16.6369861836      22.0000000000
5051 2      17.8586759620      15.0000000000
5052 2      17.2079644882      19.0000000000
5053 2      12.8261263475      15.0000000000
5054 2      14.9172526804      16.0000000000
5055 2      14.1878179537      17.0000000000
5056 2      14.2388616384      18.0000000000
5057 2      15.1863690978      19.0000000000
5058 2      13.1481633154      17.0000000000
5059 2      14.3590964164      15.0000000000
5060 2      14.2545691482      17.0000000000
5061 2      14.6285839232      20.0000000000
5062 2      16.8768412994      21.0000000000
5063 2      12.4080894117      16.0000000000
5064 2      16.9961178495      26.0000000000
5065 2      14.0750069288      18.0000000000
5066 2      14.6142455502      17.0000000000
5067 2      14.0798930016      17.0000000000
5068 2      15.7610096198      17.0000000000
5069 2      17.1031139924      19.0000000000
5070 2      14.2553195348      13.0000000000
5071 2      13.5209345999      15.0000000000
5072 2      15.6644150641      17.0000000000
5073 2      15.9046690355      19.0000000000
5074 2      14.5145605567      17.0000000000
5075 2      20.7202945794      22.0000000000
5076 2      13.6382422330      14.0000000000
5077 2      16.0945500332      18.0000000000
5078 2      14.7612433200      19.0000000000
5079 2      13.2449069193      15.0000000000
5080 2      11.8923750502      18.0000000000
5081 2      13.3427100683      18.0000000000
5082 2      15.1951384060      15.0000000000
5083 2      19.3100760149      21.0000000000
5084 2      16.1667080065      21.0000000000
5085 2      17.0535100179      21.0000000000
5086 2      15.3386740871      16.0000000000
5087 2      15.8375056528      22.0000000000
5088 2      14.2944334311      15.0000000000
5089 2      11.8924981348      16.0000000000
5090 2      14.9059509215      18.0000000000
5091 2      16.2263787594      22.0000000000
5092 2      16.0010690189      22.0000000000
5093 2      12.5561246895      19.0000000000
5094 2      16.4065299670      16.0000000000
5095 2      12.7105311949      16.0000000000
5096 2      14.6679469119      20.0000000000
5097 2      14.1539607392      20.0000000000
5098 2      14.8496332227      23.0000000000
5099 2      16.6856521643      21.0000000000
5100 2      15.9872391854      17.0000000000
5101 2      14.9993398773      17.0000000000
5102 2      16.2341975327      20.0000000000
5103 2      12.7888614992      17.0000000000
5104 2      12.7216379642      16.0000000000
5105 2      15.2404907717      16.0000000000
5106 2      14.8950209661      20.0000000000
5107 2      13.2589452952      16.0000000000
5108 2      13.5993801314      14.0000000000
5109 2      15.7205290758      23.0000000000
5110 2      16.0379193592      20.0000000000
5111 2      14.4312152994      17.0000000000
5112 2      13.6181363455      19.0000000000
5113 2      15.5556605031      16.0000000000
5114 2      15.0824225439      18.0000000000
5115 2      15.4471109975      21.0000000000
5116 2      15.6713885178      21.0000000000
5117 2      12.9084061274      17.0000000000
5118 2      13.0819170955      19.0000000000
5119 2      12.0802759742      15.0000000000
5120 2      15.4518625041      17.0000000000
5121 2      14.2419734992      20.0000000000
5122 2      16.5107331553      21.0000000000
5123 2      12.6187103046      18.0000000000
5124 2      14.3863076347      18.0000000000
5125 2      13.0697654907      17.0000000000
5126 2      13.5524878657      18.0000000000
5127 2      15.0951634944      20.0000000000
5128 2      13.0370452453      16.0000000000
5129 2      15.7256063006      20.0000000000
5130 2      15.0055583724      15.0000000000
5131 2      15.7419813272      17.0000000000
5132 2      14.6575478569      17.0000000000
5133 2      13.5952764961      15.0000000000
5134 2      18.3550877459      24.0000000000
5135 2      12.4610007218      17.0000000000
5136 2      12.4733482325      12.0000000000
5137 2      15.5303793559      21.0000000000
5138 2      13.9434874063      17.0000000000
5139 2      17.4249936959      27.0000000000
5140 2      14.2468619897      20.0000000000
5141 2      14.1721455837      19.0000000000
5142 2      16.6631961329      18.0000000000
5143 2      13.4788779105      16.0000000000
5144 2      13.3794312687      16.0000000000
5145 2      13.3200766556      16.0000000000
5146 2      12.9336893093      18.0000000000
5147 2      13.3494045839      15.0000000000
5148 2      15.1328907913      17.0000000000
5149 2      12.3836943647      15.0000000000
5150 2      14.5770342839      16.0000000000
5151 2      15.1497865116      15.0000000000
5152 2      14.2126324111      15.0000000000
5153 2      13.9812585165      19.0000000000
5154 2      12.4964501508      16.0000000000
5155 2      19.9882538105      22.0000000000
5156 2      13.7667046803      19.0000000000
5157 2      15.5832410697      21.0000000000
5158 2      14.1056542226      16.0000000000
5159 2      15.7589455580      19.0000000000
5160 2      16.5220151692      16.0000000000
5161 2      13.2247336384      20.0000000000
5162 2      12.6167784872      17.0000000000
5163 2      14.9463314138      23.0000000000
5164 2      15.5287858845      22.0000000000
5165 2      13.7917894843      17.0000000000
5166 2      14.2395904312      16.0000000000
5167 2      14.1980099231      18.0000000000
5168 2      15.4067810407      19.0000000000
5169 2      16.2352706148      19.0000000000
5170 2      13.1580901743      18.0000000000
5171 2      15.5835884364      25.0000000000
5172 2      15.4244239987      19.0000000000
5173 2      17.3270487497      19.0000000000
5174 2      14.8202734831      22.0000000000
5175 2      13.5638402965      17.0000000000
5176 2      15.1742179460      18.0000000000
5177 2      17.6621701861      17.0000000000
5178 2      14.2641550522      15.0000000000
5179 2      15.1889315840      17.0000000000
5180 2      12.4934606559      18.0000000000
5181 2      17.4067086756      18.0000000000
5182 2      14.6346029733      16.0000000000
5183 2      16.1073181968      20.0000000000
5184 2      16.0582179057      21.0000000000
5185 2      16.4724247122      20.0000000000
5186 2      13.9130951565      19.0000000000
5187 2      16.6755901053      19.0000000000
5188 2      14.0915993792      16.0000000000
5189 2      14.7301899291      21.0000000000
5190 2      14.3769671867      21.0000000000
5191 2      12.1857576535      16.0000000000
5192 2      12.5525172613      16.0000000000
5193 2      13.6009876232      17.0000000000
5194 2      15.3467238264      18.0000000000
5195 2      16.7073789318      18.0000000000
5196 2      14.1501248084      17.0000000000
5197 2      12.8198540054      13.0000000000
5198 2      15.0939314343      18.0000000000
5199 2      14.7383145473      18.0000000000
5200 2      14.0940831658      16.0000000000
5201 2      14.2567781953      14.0000000000
5202 2      16.2074700448      20.0000000000
5203 2      11.8354667749      17.0000000000
5204 2      13.7126392161      18.0000000000
5205 2      18.4551903591      22.0000000000
5206 2      16.2100759987      22.0000000000
5207 2      12.7158623581      16.0000000000
5208 2      12.9037941405      17.0000000000
5209 2      15.6127456940      20.0000000000
5210 2      15.1757391765      19.0000000000
5211 2      13.7257059008      17.0000000000
5212 2      18.1014059117      20.0000000000
5213 2      13.7879327073      13.0000000000
5214 2      15.4225579096      19.0000000000
5215 2      17.5390579367      24.0000000000
5216 2      14.7643893502      17.0000000000
5217 2      12.7092257839      15.0000000000
5218 2      13.2122199840      15.0000000000
5219 2      14.5411648116      17.0000000000
5220 2      13.9124244585      17.0000000000
5221 2      14.8240379460      16.0000000000
5222 2      17.5417071331      17.0000000000
5223 2      16.2719915605      18.0000000000
5224 2      12.6083127594      17.0000000000
5225 2      13.1566029976      14.0000000000
5226 2      12.8449633170      18.0000000000
5227 2      13.3616794517      16.0000000000
5228 2      14.7636876300      17.0000000000
5229 2      13.5015289539      19.0000000000
5230 2      15.5018804097      15.0000000000
5231 2      13.4110050289      16.0000000000
5232 2      16.1163804841      17.0000000000
5233 2      13.1481214913      16.0000000000
5234 2      13.9715142172      15.0000000000
5235 2      14.0717692632      20.0000000000
5236 2      14.3774788421      20.0000000000
5237 2      14.7811747360      14.0000000000
5238 2      14.1998922996      18.0000000000
5239 2      14.2692824845      18.0000000000
5240 2      14.0482578479      17.0000000000
5241 2      14.8553867546      18.0000000000
5242 2      14.5050450255      17.0000000000
5243 2      15.0937491233      17.0000000000
5244 2      14.7866245569      19.0000000000
5245 2      17.6565464580      21.0000000000
5246 2      15.7880583041      19.0000000000
5247 2      13.5801865467      15.0000000000
5248 2      18.4396359890      18.0000000000
5249 2      18.2175344914      21.0000000000
5250 2      13.2427638771      19.0000000000
5251 2      14.8940449178      19.0000000000
5252 2      17.2028092690      19.0000000000
5253 2      16.9265329851      21.0000000000
5254 2      12.3125864005      15.0000000000
5255 2      14.6912394389      18.0000000000
5256 2      14.0826664688      16.0000000000
5257 2      14.1907603954      22.0000000000
5258 2      15.1570424205      23.0000000000
5259 2      16.7005651731      19.0000000000
5260 2      16.8592344908      22.0000000000
5261 2      15.4398844832      16.0000000000
5262 2      12.7597453699      15.0000000000
5263 2      14.9178914912      18.0000000000
5264 2      17.5978911509      22.0000000000
5265 2      16.7439113035      19.0000000000
5266 2      12.7150794726      15.0000000000
5267 2      12.3283834820      18.0000000000
5268 2      12.7287670991      16.0000000000
5269 2      15.2995018944      16.0000000000
5270 2      12.9915566828      16.0000000000
5271 2      14.3707287494      15.0000000000
5272 2      15.1300471488      18.0000000000
5273 2      16.9201319068      20.0000000000
5274 2      14.0157477701      16.0000000000
5275 2      14.4859002893      17.0000000000
5276 2      14.7334989116      16.0000000000
5277 2      12.7911895984      15.0000000000
5278 2      15.0004859151      17.0000000000
5279 2      12.3321535545      17.0000000000
5280 2      14.4614050832      18.0000000000
5281 2      15.1073236443      17.0000000000
5282 2      14.5454359652      18.0000000000
5283 2      14.7466677067      16.0000000000
5284 2      13.4619486337      15.0000000000
5285 2      13.6848324340      17.0000000000
5286 2      16.3114822724      18.0000000000
5287 2      14.5436551488      16.0000000000
5288 2      14.3425902600      18.0000000000
5289 2      12.9319727760      15.0000000000
5290 2      13.6326430967      15.0000000000
5291 2      14.0025113895      14.0000000000
5292 2      10.7399681793      14.0000000000
5293 2      12.4820720255      15.0000000000
5294 2      14.6631755245      17.0000000000
5295 2      14.1134034601      17.0000000000
5296 2      17.0511256591      15.0000000000
5297 2      13.1889907266      16.0000000000
5298 2      13.7626078623      16.0000000000
5299 2      12.3935435358      16.0000000000
5300 2      14.9560450112      18.0000000000
5301 2      11.8565677764      15.0000000000
5302 2      14.5381500804      22.0000000000
5303 2      16.2949206932      22.0000000000
5304 2      14.7024102715      19.0000000000
5305 2      16.6816710243      17.0000000000
5306 2      13.6893068811      17.0000000000
5307 2      14.6686292249      16.0000000000
5308 2      13.0772586981      17.0000000000
5309 2      15.2755131426      16.0000000000
5310 2      11.1762875071      15.0000000000
5311 2      14.6338289868      19.0000000000
5312 2      14.4249009313      20.0000000000
5313 2      14.7262438907      23.0000000000
5314 2      15.7297534612      18.0000000000
5315 2      14.3552126759      17.0000000000
5316 2      15.4257576080      20.0000000000
5317 2      13.2903283933      17.0000000000
5318 2      18.7520268044      23.0000000000
5319 2      14.7532105203      17.0000000000
5320 2      14.0462314466      17.0000000000
5321 2      13.7475982519      17.0000000000
5322 2      12.6121898616      17.0000000000
5323 2      11.3921643795      16.0000000000
5324 2      14.0560546300      14.0000000000
5325 2      14.4022117603      17.0000000000
5326 2      15.2546042243      17.0000000000
5327 2      12.4662378770      15.0000000000
5328 2      15.0697027929      20.0000000000
5329 2      13.6603828158      18.0000000000
5330 2      11.7964830702      16.0000000000
5331 2      14.9640398345      20.0000000000
5332 2      14.0114632072      17.0000000000
5333 2      14.6259297320      20.0000000000
5334 2      16.5989805469      16.0000000000
5335 2      14.1534359226      21.0000000000
5336 2      14.2256003842      18.0000000000
5337 2      18.1874811113      19.0000000000
5338 2      14.2161834851      15.0000000000
5339 2      15.9791416023      18.0000000000
5340 2      13.1263178080      17.0000000000
5341 2      14.8037396231      17.0000000000
5342 2      17.9481119283      18.0000000000
5343 2      16.4404152265      17.0000000000
5344 2      15.1522594716      19.0000000000
5345 2      13.1013074073      17.0000000000
5346 2      13.9192399154      16.0000000000
5347 2      12.7277387345      17.0000000000
5348 2      15.1056161023      16.0000000000
5349 2      12.4924207238      15.0000000000
5350 2      16.0168222960      19.0000000000
5351 2      14.0115554272      20.0000000000
5352 2      14.0941136892      16.0000000000
5353 2      12.5116144527      16.0000000000
5354 2      16.6128733735      18.0000000000
5355 2      13.3719818248      15.0000000000
5356 2      15.8431900999      18.0000000000
5357 2      14.8388197948      19.0000000000
5358 2      17.8415528108      19.0000000000
5359 2      15.5244580369      17.0000000000
5360 2      11.3877419087      14.0000000000
5361 2      13.7070653080      21.0000000000
5362 2      15.2966764425      18.0000000000
5363 2      15.2338086138      21.0000000000
5364 2      14.4381267337      18.0000000000
5365 2      15.0056048657      16.0000000000
5366 2      14.9873936076      18.0000000000
5367 2      15.7661888363      22.0000000000
5368 2      15.6066498698      16.0000000000
5369 2      16.1764740234      16.0000000000
5370 2      14.6971209315      15.0000000000
5371 2      16.6305458251      16.0000000000
5372 2      16.0867068900      17.0000000000
5373 2      13.7242811653      16.0000000000
5374 2      15.2830056193      16.0000000000
5375 2      12.9070508936      17.0000000000
5376 2      17.4312859131      19.0000000000
5377 2      17.7253447678      19.0000000000
5378 2      17.9298380037      20.0000000000
5379 2      13.3201759053      15.0000000000
5380 2      14.8140995675      16.0000000000
5381 2      15.2998571246      18.0000000000
5382 2      15.2077440316      17.0000000000
5383 2      12.8884662341      18.0000000000
5384 2      16.7686316239      18.0000000000
5385 2      14.2717702399      18.0000000000
5386 2      14.8576329413      18.0000000000
5387 2      15.7387505918      20.0000000000
5388 2      14.9309696404      20.0000000000
5389 2      13.5318958491      15.0000000000
5390 2      14.1429101572      17.0000000000
5391 2      15.3283966111      19.0000000000
5392 2      14.5859742499      20.0000000000
5393 2      15.0248521505      19.0000000000
5394 2      13.7332555933      17.0000000000
5395 2      15.9029418809      18.0000000000
5396 2      12.4367858996      15.0000000000
5397 2      13.9298885065      15.0000000000
5398 2      16.6690006276      21.0000000000
5399 2      16.3181319181      20.0000000000
5400 2      14.4270290835      20.0000000000
5401 2      14.3011188900      17.0000000000
5402 2      15.5916485622      20.0000000000
5403 2      14.2835223275      17.0000000000
5404 2      13.5672928135      16.0000000000
5405 2      15.5106453017      18.0000000000
5406 2      15.0159079020      17.0000000000
5407 2      17.5378338829      23.0000000000
5408 2      19.3807788868      20.0000000000
5409 2      15.8176318632      19.0000000000
5410 2      18.1106309914      21.0000000000
5411 2      12.9936684171      18.0000000000
5412 2      14.1347234875      18.0000000000
5413 2      13.9065137545      17.0000000000
5414 2      13.1885244490      14.0000000000
5415 2      13.9437937435      18.0000000000
5416 2      12.8262336250      17.0000000000
5417 2      16.1082966585      18.0000000000
5418 2      15.3615010593      20.0000000000
5419 2      12.8858137034      16.0000000000
5420 2      13.9106979086      17.0000000000
5421 2      16.9980890713      20.0000000000
5422 2      13.9346140430      17.0000000000
5423 2      15.5484307324      18.0000000000
5424 2      16.8444580237      19.0000000000
5425 2      16.1327598800      21.0000000000
5426 2      14.8269709119      16.0000000000
5427 2      16.9342933046      15.0000000000
5428 2      12.8614468987      16.0000000000
5429 2      16.1371259014      18.0000000000
5430 2      14.3749008041      18.0000000000
5431 2      15.2228143070      21.0000000000
5432 2      14.5233860238      20.0000000000
5433 2      15.2415245284      20.0000000000
5434 2      13.6951266261      18.0000000000
5435 2      13.8201239947      15.0000000000
5436 2      14.9638215560      18.0000000000
5437 2      15.7415738677      22.0000000000
5438 2      14.8734623951      15.0000000000
5439 2      14.2507452071      16.0000000000
5440 2      12.9890061722      17.0000000000
5441 2      14.0352038678      15.0000000000
5442 2      14.6051457520      15.0000000000
5443 2      13.8223038691      16.0000000000
5444 2      15.8314013300      17.0000000000
5445 2      14.4120839179      16.0000000000
5446 2      15.2128450370      19.0000000000
5447 2      13.9088190025      20.0000000000
5448 2      15.2298798049      20.0000000000
5449 2      12.9303401865      18.0000000000
5450 2      12.3054577832      14.0000000000
5451 2      13.0964208870      18.0000000000
5452 2      15.0287275273      19.0000000000
5453 2      13.0862308564      19.0000000000
5454 2      13.8277364730      17.0000000000
5455 2      17.7033610632      22.0000000000
5456 2      14.7823742509      17.0000000000
5457 2      14.6771947895      17.0000000000
5458 2      13.5612570873      19.0000000000
5459 2      13.6732458849      16.0000000000
5460 2      13.9950754628      16.0000000000
5461 2      13.0226442481      20.0000000000
5462 2      15.7744924611      19.0000000000
5463 2      16.2034282398      20.0000000000
5464 2      14.4318904585      16.0000000000
5465 2      13.3129756715      18.0000000000
5466 2      13.6399259608      18.0000000000
5467 2      14.2081657143      17.0000000000
5468 2      15.5913582667      19.0000000000
5469 2      17.3818916933      18.0000000000
5470 2      13.8652211651      17.0000000000
5471 2      14.6676155964      19.0000000000
5472 2      14.1398761756      15.0000000000
5473 2      15.5581350465      18.0000000000
5474 2      16.6504294831      21.0000000000
5475 2      13.8684749515      14.0000000000
5476 2      11.9300803511      15.0000000000
5477 2      15.0944286099      15.0000000000
5478 2      18.7090532148      22.0000000000
5479 2      14.1701070475      18.0000000000
5480 2      13.3707691334      19.0000000000
5481 2      15.5541410096      14.0000000000
5482 2      13.1932012424      17.0000000000
5483 2      14.3527004650      17.0000000000
5484 2      13.0345255267      15.0000000000
5485 2      13.5145728364      16.0000000000
5486 2      14.7059274310      17.0000000000
5487 2      17.7044533768      20.0000000000
5488 2      13.6504249092      14.0000000000
5489 2      14.3786288282      20.0000000000
5490 2      15.9343081487      18.0000000000
5491 2      12.3327756032      14.0000000000
5492 2      14.1783548024      16.0000000000
5493 2      13.1511609081      15.0000000000
5494 2      14.3927071096      16.0000000000
5495 2      15.0338825598      19.0000000000
5496 2      13.4233237040      17.0000000000
5497 2      16.7130851433      20.0000000000
5498 2      14.9391206022      18.0000000000
5499 2      13.0222339383      18.0000000000
5500 2      15.9653326984      20.0000000000
5501 2      15.2420216715      21.0000000000
5502 2      16.3704392273      20.0000000000
5503 2      16.0534615198      18.0000000000
5504 2      16.5306001935      16.0000000000
5505 2      14.2552127120      17.0000000000
5506 2      16.0652710029      17.0000000000
5507 2      13.2017402342      17.0000000000
5508 2      16.2747674385      22.0000000000
5509 2      14.5012847202      17.0000000000
5510 2      15.4129727286      19.0000000000
5511 2      15.8938097138      18.0000000000
5512 2      14.7514897896      15.0000000000
5513 2      12.5189889602      15.0000000000
5514 2      15.7702026537      14.0000000000
5515 2      14.7185309258      18.0000000000
5516 2      16.7032732817      18.0000000000
5517 2      16.7376412337      18.0000000000
5518 2      16.4354210173      17.0000000000
5519 2      16.9717757573      19.0000000000
5520 2      14.4757706249      18.0000000000
5521 2      17.5220657774      23.0000000000
5522 2      13.5092671393      16.0000000000
5523 2      13.2772504218      18.0000000000
5524 2      13.0157530795      17.0000000000
5525 2      12.8433960294      15.0000000000
5526 2      13.8243413131      18.0000000000
5527 2      14.8194523870      21.0000000000
5528 2      13.0811199810      16.0000000000
5529 2      18.7534206449      16.0000000000
5530 2      16.9381085979      19.0000000000
5531 2      14.2974642955      14.0000000000
5532 2      16.4380032334      20.0000000000
5533 2      15.2125162224      18.0000000000
5534 2      12.9407743470      19.0000000000
5535 2      11.9733112003      17.0000000000
5536 2      15.4127017971      15.0000000000
5537 2      14.2962583651      19.0000000000
5538 2      14.5727117429      16.0000000000
5539 2      17.7039618159      22.0000000000
5540 2      16.2225667685      22.0000000000
5541 2      13.7433682328      18.0000000000
5542 2      14.7921581599      16.0000000000
5543 2      14.3444194115      15.0000000000
5544 2      14.9661293718      16.0000000000
5545 2      14.8860091169      18.0000000000
5546 2      15.1305088130      19.0000000000
5547 2      14.8801867879      17.0000000000
5548 2      15.6104700163      18.0000000000
5549 2      14.8424590258      22.0000000000
5550 2      12.3784130585      14.0000000000
5551 2      14.2610794686      16.0000000000
5552 2      18.7022802895      21.0000000000
5553 2      15.0159294648      19.0000000000
5554 2      14.8488333470      18.0000000000
5555 2      13.0236264584      17.0000000000
5556 2      16.1240496287      22.0000000000
5557 2      14.1098198464      18.0000000000
5558 2      14.3567937315      16.0000000000
5559 2      17.1104396395      18.0000000000
5560 2      16.0224050668      19.0000000000
5561 2      16.8211257838      20.0000000000
5562 2      18.7801753054      20.0000000000
5563 2      14.2568801894      18.0000000000
5564 2      13.9238593615      17.0000000000
5565 2      15.6948549822      21.0000000000
5566 2      13.0861254477      15.0000000000
5567 2      16.0986340643      20.0000000000
5568 2      14.8509165721      21.0000000000
5569 2      14.3776201254      14.0000000000
5570 2      13.5314078005      20.0000000000
5571 2      16.3758064250      19.0000000000
5572 2      14.2463745450      22.0000000000
5573 2      17.1408610991      23.0000000000
5574 2      15.2401724544      18.0000000000
5575 2      15.6253035247      19.0000000000
5576 2      13.7354092334      15.0000000000
5577 2      13.0478725719      17.0000000000
5578 2      14.6434746062      16.0000000000
5579 2      16.2746676947      20.0000000000
5580 2      14.6443983928      17.0000000000
5581 2      13.4316557019      19.0000000000
5582 2      16.0804446549      17.0000000000
5583 2      14.4867578986      19.0000000000
5584 2      17.5938260714      19.0000000000
5585 2      15.3619317273      17.0000000000
5586 2      14.2282841182      16.0000000000
5587 2      15.9288076298      23.0000000000
5588 2      15.9876282402      21.0000000000
5589 2      14.5479192185      15.0000000000
5590 2      13.6874898870      18.0000000000
5591 2      15.2129522288      14.0000000000
5592 2      14.8490278057      19.0000000000
5593 2      16.1568668138      17.0000000000
5594 2      11.3849578501      14.0000000000
5595 2      14.5913778174      19.0000000000
5596 2      17.4259902093      24.0000000000
5597 2      12.1380769772      13.0000000000
5598 2      15.3710073858      19.0000000000
5599 2      16.3102076435      20.0000000000
5600 2      14.2629601605      18.0000000000
5601 2      12.5023694233      17.0000000000
5602 2      15.3190068893      19.0000000000
5603 2      13.4090935293      18.0000000000
5604 2      14.7000883269      18.0000000000
5605 2      17.0788567509      20.0000000000
5606 2      14.5447085374      19.0000000000
5607 2      14.6886921993      19.0000000000
5608 2      14.6546908678      17.0000000000
5609 2      14.4899639132      22.0000000000
5610 2      15.4401890702      18.0000000000
5611 2      15.0328300886      19.0000000000
5612 2      15.1227134360      17.0000000000
5613 2      14.9615002476      17.0000000000
5614 2      12.6993468152      19.0000000000
5615 2      16.5771451131      18.0000000000
5616 2      17.2552846002      22.0000000000
5617 2      13.4647775618      20.0000000000
5618 2      13.7062006535      16.0000000000
5619 2      13.3917846678      15.0000000000
5620 2      15.9934791846      20.0000000000
5621 2      16.0805071742      19.0000000000
5622 2      14.5061058757      22.0000000000
5623 2      15.8733166827      16.0000000000
5624 2      16.6574517775      17.0000000000
5625 2      15.4293966018      17.0000000000
5626 2      14.2594116367      19.0000000000
5627 2      15.4810446992      21.0000000000
5628 2      17.6434975101      20.0000000000
5629 2      14.5470116443      16.0000000000
5630 2      15.4828893018      21.0000000000
5631 2      16.7354877428      22.0000000000
5632 2      15.3837669123      21.0000000000
5633 2      15.1337304555      18.0000000000
5634 2      14.1033705637      14.0000000000
5635 2      14.7817278533      18.0000000000
5636 2      14.7005683092      18.0000000000
5637 2      12.0225544237      14.0000000000
5638 2      14.2965052778      18.0000000000
5639 2      12.8911199699      20.0000000000
5640 2      16.5082796404      16.0000000000
5641 2      14.3084144789      20.0000000000
5642 2      16.0303937621      17.0000000000
5643 2      17.9460720584      20.0000000000
5644 2      16.6372054042      17.0000000000
5645 2      13.8414134506      19.0000000000
5646 2      14.7817124881      20.0000000000
5647 2      16.6493113906      22.0000000000
5648 2      18.7748390606      21.0000000000
5649 2      16.3517295186      22.0000000000
5650 2      16.0488208575      18.0000000000
5651 2      14.7148650145      15.0000000000
5652 2      11.5908011162      15.0000000000
5653 2      15.6992181356      20.0000000000
5654 2      14.3266647990      14.0000000000
5655 2      13.8422675479      20.0000000000
5656 2      15.7029808951      18.0000000000
5657 2      13.0618078032      15.0000000000
5658 2      15.1800792720      18.0000000000
5659 2      13.4873192700      15.0000000000
5660 2      18.0412522909      19.0000000000
5661 2      15.3154387763      18.0000000000
5662 2      17.6587780159      21.0000000000
5663 2      15.6681262066      21.0000000000
5664 2      15.1419158776      19.0000000000
5665 2      15.1216468624      15.0000000000
5666 2      13.7583435820      16.0000000000
5667 2      15.8098075439      19.0000000000
5668 2      11.6794861209      14.0000000000
5669 2      15.0728887836      18.0000000000
5670 2      15.3325240770      18.0000000000
5671 2      15.0364221530      17.0000000000
5672 2      14.0221780753      18.0000000000
5673 2      17.0894457908      20.0000000000
5674 2      15.5610635341      19.0000000000
5675 2      11.5185354816      14.0000000000
5676 2      16.6547024628      19.0000000000
5677 2      12.3355567558      17.0000000000
5678 2      14.4084778984      19.0000000000
5679 2      13.5291936683      20.0000000000
5680 2      19.5628362609      24.0000000000
5681 2      15.5127194128      22.0000000000
5682 2      13.2652226605      16.0000000000
5683 2      15.1410689925      22.0000000000
5684 2      19.4733965395      20.0000000000
5685 2      15.1478159527      17.0000000000
5686 2      14.7239417819      17.0000000000
5687 2      14.7502480232      19.0000000000
5688 2      13.6705395231      17.0000000000
5689 2      14.0152301497      21.0000000000
5690 2      14.7583251996      19.0000000000
5691 2      15.2454272124      16.0000000000
5692 2      14.2357710904      19.0000000000
5693 2      15.0696590475      17.0000000000
5694 2      13.3798649074      17.0000000000
5695 2      14.9675226449      18.0000000000
5696 2      18.1001411155      18.0000000000
5697 2      14.8829213545      14.0000000000
5698 2      15.5127163209      22.0000000000
5699 2      16.3217856325      18.0000000000
5700 2      16.5024221984      17.0000000000
5701 2      11.6486666932      17.0000000000
5702 2      16.5998275650      15.0000000000
5703 2      15.3892070622      20.0000000000
5704 2      16.7562156446      18.0000000000
5705 2      12.9033222618      17.0000000000
5706 2      15.5973575897      13.0000000000
5707 2      15.4675792970      19.0000000000
5708 2      15.4237846119      22.0000000000
5709 2      13.2399069164      18.0000000000
5710 2      14.7749799201      18.0000000000
5711 2      15.8307199771      19.0000000000
5712 2      13.9133175695      18.0000000000
5713 2      13.9788061166      22.0000000000
5714 2      16.7786587767      20.0000000000
5715 2      18.2595518230      20.0000000000
5716 2      13.8958943373      18.0000000000
5717 2      16.5034079357      18.0000000000
5718 2      14.0078596175      16.0000000000
5719 2      17.6307273589      19.0000000000
5720 2      17.4561158933      22.0000000000
5721 2      18.5903368617      17.0000000000
5722 2      17.4218603732      19.0000000000
5723 2      17.4928410252      17.0000000000
5724 2      14.4688314058      18.0000000000
5725 2      17.1747748210      18.0000000000
5726 2      16.4794846659      17.0000000000
5727 2      18.7771076140      20.0000000000
5728 2      17.5024634344      21.0000000000
5729 2      13.4140446855      16.0000000000
5730 2      15.7990771265      19.0000000000
5731 2      13.9126659111      18.0000000000
5732 2      14.7733154341      18.0000000000
5733 2      17.2655590277      22.0000000000
5734 2      14.5509234806      17.0000000000
5735 2      14.4519473301      16.0000000000
5736 2      12.5378208795      18.0000000000
5737 2      15.2903484135      20.0000000000
5738 2      15.3567256047      18.0000000000
5739 2      15.6525955775      22.0000000000
5740 2      14.3165667699      14.0000000000
5741 2      17.3113351796      19.0000000000
5742 2      13.9696019529      16.0000000000
5743 2      14.4016979276      18.0000000000
5744 2      16.1711362396      21.0000000000
5745 2      12.9097540621      16.0000000000
5746 2      15.8045114966      23.0000000000
5747 2      16.3468090116      19.0000000000
5748 2      15.4895452978      13.0000000000
5749 2      16.8604535196      17.0000000000
5750 2      15.1089619698      20.0000000000
5751 2      16.2058534251      18.0000000000
5752 2      15.0547812614      18.0000000000
5753 2      15.9553310814      18.0000000000
5754 2      18.2703984591      21.0000000000
5755 2      14.4518141535      17.0000000000
5756 2      14.7411405456      19.0000000000
5757 2      14.3721159479      19.0000000000
5758 2      14.7598306227      16.0000000000
5759 2      14.3548384440      20.0000000000
5760 2      13.3518884565      16.0000000000
5761 2      14.2590073825      18.0000000000
5762 2      15.5340546324      19.0000000000
5763 2      16.7768031673      21.0000000000
5764 2      12.9518200035      17.0000000000
5765 2      14.1367100542      18.0000000000
5766 2      13.8825878495      14.0000000000
5767 2      15.3616809560      22.0000000000
5768 2      15.6783866925      19.0000000000
5769 2      14.3383997026      16.0000000000
5770 2      18.4848241947      19.0000000000
5771 2      15.5343960058      18.0000000000
5772 2      15.3233438877      19.0000000000
5773 2      13.8370075307      16.0000000000
5774 2      13.5085109407      19.0000000000
5775 2      14.7234068341      20.0000000000
5776 2      13.6803736614      15.0000000000
5777 2      12.0049941465      16.0000000000
5778 2      15.1710823484      18.0000000000
5779 2      16.0430924851      20.0000000000
5780 2      18.4322689696      23.0000000000
5781 2      14.0025726954      14.0000000000
5782 2      16.5831431909      24.0000000000
5783 2      14.7021787326      17.0000000000
5784 2      12.0097929827      14.0000000000
5785 2      17.0941278497      19.0000000000
5786 2      11.8132397742      16.0000000000
5787 2      14.0955662308      13.0000000000
5788 2      16.3700642670      23.0000000000
5789 2      16.5868604851      22.0000000000
5790 2      13.9228191058      18.0000000000
5791 2      15.0844364462      17.0000000000
5792 2      16.3884320199      21.0000000000
5793 2      14.8539992896      17.0000000000
5794 2      13.1157749951      15.0000000000
5795 2      15.0700161245      18.0000000000
5796 2      11.5503054096      17.0000000000
5797 2      16.7283170412      21.0000000000
5798 2      14.2949859639      17.0000000000
5799 2      16.8578723706      21.0000000000
5800 2      17.9276622359      20.0000000000
5801 2      15.5267352867      21.0000000000
5802 2      14.2324042112      18.0000000000
5803 2      15.9973937088      19.0000000000
5804 2      13.9532549729      19.0000000000
5805 2      15.8508311160      20.0000000000
5806 2      15.2494801805      19.0000000000
5807 2      16.6270485323      20.0000000000
5808 2      14.9053004371      16.0000000000
5809 2      16.8142774552      22.0000000000
5810 2      13.8406694719      19.0000000000
5811 2      13.1699468109      15.0000000000
5812 2      13.2987724317      14.0000000000
5813 2      13.9760391878      21.0000000000
5814 2      15.7540383117      21.0000000000
5815 2      15.1685532913      14.0000000000
5816 2      15.3350662411      16.0000000000
5817 2      14.4354024449      17.0000000000
5818 2      13.7943574953      15.0000000000
5819 2      17.4812856964      19.0000000000
5820 2      14.5476390738      15.0000000000
5821 2      14.7607916829      16.0000000000
5822 2      13.6660641833      16.0000000000
5823 2      14.3576047095      17.0000000000
5824 2      15.5328233627      22.0000000000
5825 2      13.8048357679      22.0000000000
5826 2      16.1805692479      20.0000000000
5827 2      15.0762256958      15.0000000000
5828 2      16.3098978464      16.0000000000
5829 2      17.7606096413      19.0000000000
5830 2      15.7536619400      18.0000000000
5831 2      14.6580164153      17.0000000000
5832 2      15.0693225750      18.0000000000
5833 2      13.7016958707      19.0000000000
5834 2      16.0920018304      20.0000000000
5835 2      14.6518750288      21.0000000000
5836 2      15.2212364438      18.0000000000
5837 2      15.4721136697      20.0000000000
5838 2      15.3603785766      15.0000000000
5839 2      13.8266764772      15.0000000000
5840 2      13.3995703332      17.0000000000
5841 2      13.0153591170      17.0000000000
5842 2      14.8811385333      19.0000000000
5843 2      16.1461550074      18.0000000000
5844 2      13.3931847221      17.0000000000
5845 2      16.2744910274      17.0000000000
5846 2      10.6024272027      13.0000000000
5847 2      14.8814735933      23.0000000000
5848 2      14.6234145523      18.0000000000
5849 2      15.6288076867      17.0000000000
5850 2      14.7282693842      17.0000000000
5851 2      15.1799591623      21.0000000000
5852 2      16.6052509027      17.0000000000
5853 2      13.8606718280      16.0000000000
5854 2      14.9967553073      20.0000000000
5855 2      16.6415127189      21.0000000000
5856 2      16.6040398640      17.0000000000
5857 2      14.8661300504      18.0000000000
5858 2      13.0711563678      15.0000000000
5859 2      13.9135509675      17.0000000000
5860 2      13.3149362241      18.0000000000
5861 2      16.5376471149      21.0000000000
5862 2      13.0104030180      15.0000000000
5863 2      13.6308103359      17.0000000000
5864 2      16.5979867593      22.0000000000
5865 2      15.4373667788      17.0000000000
5866 2      15.5514713691      18.0000000000
5867 2      14.7763168270      17.0000000000
5868 2      14.5119112634      17.0000000000
5869 2      14.9853357619      19.0000000000
5870 2      13.5377432975      15.0000000000
5871 2      17.0643807820      20.0000000000
5872 2      14.8872968655      18.0000000000
5873 2      15.7412228431      18.0000000000
5874 2      15.3326087249      20.0000000000
5875 2      17.7380293461      19.0000000000
5876 2      15.5825746771      22.0000000000
5877 2      14.7839230563      17.0000000000
5878 2      14.7757234679      16.0000000000
5879 2      16.3507501057      21.0000000000
5880 2      16.8713641704      17.0000000000
5881 2      13.7251441105      18.0000000000
5882 2      13.7594679252      19.0000000000
5883 2      13.4260709342      17.0000000000
5884 2      15.3939789414      17.0000000000
5885 2      12.6154283018      18.0000000000
5886 2      14.8002255234      19.0000000000
5887 2      15.0097516897      20.0000000000
5888 2      17.1507996646      19.0000000000
5889 2      14.8010447954      18.0000000000
5890 2      13.7918690965      14.0000000000
5891 2      13.1190595587      18.0000000000
5892 2      12.7345612048      19.0000000000
5893 2      11.6739982189      16.0000000000
5894 2      12.7819700795      18.0000000000
5895 2      13.1700309474      15.0000000000
5896 2      17.1472973890      21.0000000000
5897 2      12.8862535331      15.0000000000
5898 2      18.0849209349      21.0000000000
5899 2      13.0908381509      15.0000000000
5900 2      14.2765537144      16.0000000000
5901 2      16.6857187934      24.0000000000
5902 2      17.1069876111      20.0000000000
5903 2      13.4251632504      14.0000000000
5904 2      17.9970778144      20.0000000000
5905 2      16.5827192586      25.0000000000
5906 2      15.2620056194      19.0000000000
5907 2      15.8539658742      19.0000000000
5908 2      15.4378981721      19.0000000000
5909 2      14.5808671692      18.0000000000
5910 2      12.0172199600      17.0000000000
5911 2      14.0471781617      19.0000000000
5912 2      14.4845163469      19.0000000000
5913 2      14.4654989952      15.0000000000
5914 2      17.1511389846      15.0000000000
5915 2      14.6618511287      20.0000000000
5916 2      13.4929125083      18.0000000000
5917 2      11.5991478564      13.0000000000
5918 2      13.6100367471      16.0000000000
5919 2      11.7833909500      16.0000000000
5920 2      16.6192133266      22.0000000000
5921 2      12.4436436414      15.0000000000
5922 2      14.4746097229      16.0000000000
5923 2      13.5501735490      21.0000000000
5924 2      19.1825956539      21.0000000000
5925 2      14.9491064115      14.0000000000
5926 2      16.1393943845      19.0000000000
5927 2      15.3520041911      17.0000000000
5928 2      17.2525349596      19.0000000000
5929 2      13.5251612710      16.0000000000
5930 2      12.9728727350      15.0000000000
5931 2      13.4070695228      21.0000000000
5932 2      13.5185137546      17.0000000000
5933 2      14.6783479806      14.0000000000
5934 2      13.0688507620      17.0000000000
5935 2      14.8123835959      19.0000000000
5936 2      13.5357143539      17.0000000000
5937 2      14.4475116603      19.0000000000
5938 2      13.8970168442      20.0000000000
5939 2      13.5422383881      17.0000000000
5940 2      16.8178808129      20.0000000000
5941 2      13.5606411844      14.0000000000
5942 2      13.5919188714      16.0000000000
5943 2      14.0899870044      15.0000000000
5944 2      17.4844518651      19.0000000000
5945 2      14.2826748172      18.0000000000
5946 2      14.0447611034      21.0000000000
5947 2      16.3212303631      17.0000000000
5948 2      13.3069668621      15.0000000000
5949 2      15.5632927332      20.0000000000
5950 2      15.0698500350      17.0000000000
5951 2      14.9079897327      20.0000000000
5952 2      16.6112671653      21.0000000000
5953 2      15.0762810656      19.0000000000
5954 2      16.1163881850      18.0000000000
5955 2      12.7463864957      17.0000000000
5956 2      13.6621986236      17.0000000000
5957 2      14.4706994913      19.0000000000
5958 2      15.6109035088      19.0000000000
5959 2      13.9907089217      15.0000000000
5960 2      16.5278068503      19.0000000000
5961 2      14.1199608293      16.0000000000
5962 2      17.0637005071      19.0000000000
5963 2      14.6259515961      19.0000000000
5964 2      15.2394690915      20.0000000000
5965 2      12.3839757346      16.0000000000
5966 2      15.0157857087      13.0000000000
5967 2      16.1893009155      20.0000000000
5968 2      16.9773201304      21.0000000000
5969 2      16.4569545591      18.0000000000
5970 2      15.9117299268      20.0000000000
5971 2      16.9374490748      20.0000000000
5972 2      12.6091721711      16.0000000000
5973 2      13.5177370185      16.0000000000
5974 2      13.9120361669      19.0000000000
5975 2      14.3372222576      14.0000000000
5976 2      13.1275584816      17.0000000000
5977 2      13.3312984216      14.0000000000
5978 2      15.7473842351      22.0000000000
5979 2      15.3981932516      19.0000000000
5980 2      14.2955235794      16.0000000000
5981 2      14.3553361312      17.0000000000
5982 2      14.4488602543      15.0000000000
5983 2      14.0703664690      19.0000000000
5984 2      13.8593435151      19.0000000000
5985 2      13.1869042403      20.0000000000
5986 2      13.9364815228      19.0000000000
5987 2      14.7530589221      17.0000000000
5988 2      15.6227483801      17.0000000000
5989 2      13.7595698781      17.0000000000
5990 2      14.4221017018      14.0000000000
5991 2      13.0279188006      16.0000000000
5992 2      17.3698148319      20.0000000000
5993 2      11.4455865518      14.0000000000
5994 2      13.6176524664      19.0000000000
5995 2      14.4107758479      19.0000000000
5996 2      14.9417256791      20.0000000000
5997 2      14.2738937531      21.0000000000
5998 2      13.7085865197      16.0000000000
5999 2      14.2025165315      18.0000000000
6000 2      13.1824382462      16.0000000000
6001 2      14.7440824084      17.0000000000
6002 2      16.5872891613      18.0000000000
6003 2      15.4922716831      17.0000000000
6004 2      16.6089149704      17.0000000000
6005 2      16.3550363686      21.0000000000
6006 2      15.9572320776      22.0000000000
6007 2      14.1197870586      14.0000000000
6008 2      12.0781620254      13.0000000000
6009 2      14.9090582889      16.0000000000
6010 2      14.4851962822      19.0000000000
6011 2      12.0699416529      14.0000000000
6012 2      13.7384572458      14.0000000000
6013 2      13.9436697466      15.0000000000
6014 2      13.7336031014      18.0000000000
6015 2      12.7796463567      14.0000000000
6016 2      13.4970747397      19.0000000000
6017 2      12.5042631330      17.0000000000
6018 2      15.3732138769      18.0000000000
6019 2      17.4623469156      18.0000000000
6020 2      14.2148288126      20.0000000000
6021 2      15.9219119971      19.0000000000
6022 2      13.6075493375      19.0000000000
6023 2      11.8068015758      13.0000000000
6024 2      12.5542732265      15.0000000000
6025 2      14.9273707862      21.0000000000
6026 2      15.0605119962      20.0000000000
6027 2      17.0515691172      18.0000000000
6028 2      18.5447512083      22.0000000000
6029 2      14.5212262756      15.0000000000
6030 2      16.7183236732      19.0000000000
6031 2      14.4444404056      18.0000000000
6032 2      14.7773924100      18.0000000000
6033 2      15.8630216500      18.0000000000
6034 2      17.7436141740      20.0000000000
6035 2      13.5359366981      17.0000000000
6036 2      16.3960865124      19.0000000000
6037 2      15.9965125425      20.0000000000
6038 2      14.2885160442      19.0000000000
6039 2      14.8381308597      17.0000000000
6040 2      15.1397913920      14.0000000000
6041 2      16.0123447105      17.0000000000
6042 2      14.6033222951      19.0000000000
6043 2      15.2669712513      18.0000000000
6044 2      13.2118733118      15.0000000000
6045 2      14.3964717660      17.0000000000
6046 2      12.8299614777      16.0000000000
6047 2      16.6426545103      22.0000000000
6048 2      14.4225241754      15.0000000000
6049 2      13.8861797086      15.0000000000
6050 2      14.2149571678      18.0000000000
6051 2      13.6550659853      20.0000000000
6052 2      19.3310173758      21.0000000000
6053 2      16.7707406919      21.0000000000
6054 2      11.7748667891      16.0000000000
6055 2      15.3239622033      19.0000000000
6056 2      15.7826480283      18.0000000000
6057 2      15.1895683359      16.0000000000
6058 2      14.7331498393      16.0000000000
6059 2      14.3893553646      16.0000000000
6060 2      17.3114683236      19.0000000000
6061 2      14.2859396404      17.0000000000
6062 2      17.0502158242      17.0000000000
6063 2      14.0007221499      16.0000000000
6064 2      16.1776548008      19.0000000000
6065 2      15.2182062871      17.0000000000
6066 2      15.8682228315      22.0000000000
6067 2      16.9588797446      17.0000000000
6068 2      15.1785194842      17.0000000000
6069 2      15.5813535522      16.0000000000
6070 2      12.1097598028      13.0000000000
6071 2      15.0960505272      17.0000000000
6072 2      16.1300911527      20.0000000000
6073 2      12.2020038473      14.0000000000
6074 2      12.7103706442      17.0000000000
6075 2      13.1582761888      16.0000000000
6076 2      13.4900263373      15.0000000000
6077 2      15.8877852895      20.0000000000
6078 2      12.6859300957      18.0000000000
6079 2      13.7893721721      14.0000000000
6080 2      15.2409688044      18.0000000000
6081 2      14.9948573223      15.0000000000
6082 2      12.9717867001      17.0000000000
6083 2      14.9371202952      15.0000000000
6084 2      12.9842185225      19.0000000000
6085 2      13.0434643672      16.0000000000
6086 2      14.0247338899      17.0000000000
6087 2      14.8656712187      17.0000000000
6088 2      15.4928998554      20.0000000000
6089 2      14.2846725399      19.0000000000
6090 2      14.2414467746      15.0000000000
6091 2      14.6682138299      17.0000000000
6092 2      14.5972171621      17.0000000000
6093 2      16.0054345256      19.0000000000
6094 2      14.0392416787      16.0000000000
6095 2      14.8701048193      20.0000000000
6096 2      15.0187656775      21.0000000000
6097 2      12.3623119211      12.0000000000
6098 2      15.0242192322      18.0000000000
6099 2      16.4125308505      19.0000000000
6100 2      14.2154883500      18.0000000000
6101 2      13.5160167529      21.0000000000
6102 2      13.8283794953      16.0000000000
6103 2      14.7206236615      18.0000000000
6104 2      14.9971757872      18.0000000000
6105 2      17.2138196515      17.0000000000
6106 2      11.8142257758      15.0000000000
6107 2      12.0018740586      16.0000000000
6108 2      13.5268008794      15.0000000000
6109 2      11.8172041734      16.0000000000
6110 2      15.8218328909      21.0000000000
6111 2      15.2800733687      19.0000000000
6112 2      12.9795701703      16.0000000000
6113 2      14.3417899005      17.0000000000
6114 2      14.9585635030      19.0000000000
6115 2      17.3688920120      22.0000000000
6116 2      14.7003197191      16.0000000000
6117 2      14.9111047627      22.0000000000
6118 2      13.8151005649      16.0000000000
6119 2      14.6173974024      18.0000000000
6120 2      14.5243561558      20.0000000000
6121 2      14.4365700225      20.0000000000
6122 2      14.1005073658      17.0000000000
6123 2      17.2043705818      20.0000000000
6124 2      16.1732440852      18.0000000000
6125 2      16.2647428415      24.0000000000
6126 2      14.1684621218      20.0000000000
6127 2      14.3972303141      18.0000000000
6128 2      12.4917815858      14.0000000000
6129 2      13.2856200131      16.0000000000
6130 2      16.8303428821      20.0000000000
6131 2      16.3078284641      17.0000000000
6132 2      14.7867908767      18.0000000000
6133 2      14.2610848860      17.0000000000
6134 2      14.6436307153      19.0000000000
6135 2      12.6990042924      14.0000000000
6136 2      13.6218224378      17.0000000000
6137 2      15.2522757528      19.0000000000
6138 2      14.4047246549      20.0000000000
6139 2      15.6975180731      19.0000000000
6140 2      13.8313159051      14.0000000000
6141 2      14.8465869874      17.0000000000
6142 2      17.2324888091      15.0000000000
6143 2      13.9497914487      16.0000000000
6144 2      15.4288514375      17.0000000000
6145 2      14.7736318265      19.0000000000
6146 2      14.6529222305      17.0000000000
6147 2      12.8754334084      17.0000000000
6148 2      14.6021810432      15.0000000000
6149 2      14.5917115770      15.0000000000
6150 2      16.3812946752      17.0000000000
6151 2      16.4979288937      18.0000000000
6152 2      16.6953203108      15.0000000000
6153 2      13.0616243161      16.0000000000
6154 2      15.1439806413      18.0000000000
6155 2      14.5940815840      16.0000000000
6156 2      16.3237696495      22.0000000000
6157 2      13.8882900634      16.0000000000
6158 2      13.9095912507      16.0000000000
6159 2      14.8944650354      21.0000000000
6160 2      15.4725810339      18.0000000000
6161 2      15.0124113507      18.0000000000
6162 2      14.2971023807      19.0000000000
6163 2      16.3330905434      22.0000000000
6164 2      12.5844892576      13.0000000000
6165 2      15.3713140283      21.0000000000
6166 2      14.8122907077      17.0000000000
6167 2      14.2460419475      18.0000000000
6168 2      15.9921107767      18.0000000000
6169 2      12.9946536879      15.0000000000
6170 2      14.5946041223      17.0000000000
6171 2      13.4369529432      15.0000000000
6172 2      17.2761495599      20.0000000000
6173 2      12.0210091490      15.0000000000
6174 2      13.4016273277      15.0000000000
6175 2      15.7630599399      21.0000000000
6176 2      14.8029539095      22.0000000000
6177 2      15.2771051545      21.0000000000
6178 2      18.7448914782      14.0000000000
6179 2      15.5856630223      17.0000000000
6180 2      13.5180107944      17.0000000000
6181 2      14.9372664304      19.0000000000
6182 2      14.8079419685      16.0000000000
6183 2      16.3426556288      18.0000000000
6184 2      14.9131838627      19.0000000000
6185 2      16.9169569594      25.0000000000
6186 2      14.9077353488      20.0000000000
6187 2      13.9010094535      17.0000000000
6188 2      16.5964213374      20.0000000000
6189 2      15.2471673228      19.0000000000
6190 2      14.1188271206      15.0000000000
6191 2      14.8273819865      17.0000000000
6192 2      10.8030795159      15.0000000000
6193 2      12.9498449438      17.0000000000
6194 2      18.8326436683      19.0000000000
6195 2      15.6450638939      19.0000000000
6196 2      16.7227678585      23.0000000000
6197 2      15.4751475611      18.0000000000
6198 2      17.3705711946      22.0000000000
6199 2      14.0681030216      16.0000000000
6200 2      14.3074075091      24.0000000000
6201 2      14.9314322279      20.0000000000
6202 2      16.2828612641      19.0000000000
6203 2      14.2083449570      17.0000000000
6204 2      16.7876356540      23.0000000000
6205 2      13.2167861910      16.0000000000
6206 2      13.9665837520      19.0000000000
6207 2      14.5714291177      17.0000000000
6208 2      14.3804731435      18.0000000000
6209 2      14.6359086973      19.0000000000
6210 2      18.1787297659      22.0000000000
6211 2      16.9538607926      19.0000000000
6212 2      13.6223799554      14.0000000000
6213 2      16.4497478924      19.0000000000
6214 2      14.7842423810      16.0000000000
6215 2      12.4368527067      15.0000000000
6216 2      15.5665924728      18.0000000000
6217 2      13.5386029913      14.0000000000
6218 2      16.5740472544      19.0000000000
6219 2      13.6521251756      15.0000000000
6220 2      15.9150333862      20.0000000000
6221 2      14.2280692568      19.0000000000
6222 2      15.8312149013      17.0000000000
6223 2      14.1607459035      18.0000000000
6224 2      14.9599514678      16.0000000000
6225 2      15.4715908869      20.0000000000
6226 2      14.4630982477      17.0000000000
6227 2      14.3525314623      14.0000000000
6228 2      12.9199770274      17.0000000000
6229 2      16.6002625848      18.0000000000
6230 2      17.8175672897      17.0000000000
6231 2      15.4460835319      19.0000000000
6232 2      17.9038432284      17.0000000000
6233 2      15.0397079067      16.0000000000
6234 2      12.7733350527      15.0000000000
6235 2      14.2730059541      16.0000000000
6236 2      18.4325729628      17.0000000000
6237 2      14.2779913851      16.0000000000
6238 2      15.7913766249      17.0000000000
6239 2      17.9216473318      21.0000000000
6240 2      13.8330424504      18.0000000000
6241 2      15.5590914147      14.0000000000
6242 2      17.2007917429      23.0000000000
6243 2      13.7959422910      18.0000000000
6244 2      15.2757641342      20.0000000000
6245 2      12.7548807629      12.0000000000
6246 2      15.7356540536      17.0000000000
6247 2      13.9548669949      20.0000000000
6248 2      11.8590246855      15.0000000000
6249 2      13.7915954873      18.0000000000
6250 2      11.3959473572      16.0000000000
6251 2      17.7119358149      16.0000000000
6252 2      14.8303815906      20.0000000000
6253 2      13.9949870890      21.0000000000
6254 2      13.5484088755      16.0000000000
6255 2      13.4436754305      17.0000000000
6256 2      13.0596947250      16.0000000000
6257 2      15.7701600806      20.0000000000
6258 2      17.4793469475      21.0000000000
6259 2      18.1087051971      20.0000000000
6260 2      15.2707718257      16.0000000000
6261 2      15.1581319096      17.0000000000
6262 2      14.6886172661      20.0000000000
6263 2      13.6514693158      18.0000000000
6264 2      15.0051227581      12.0000000000
6265 2      18.1825457981      17.0000000000
6266 2      12.4262836511      17.0000000000
6267 2      12.7789010689      18.0000000000
6268 2      15.1784980153      18.0000000000
6269 2      14.1687593162      16.0000000000
6270 2      13.8067433810      17.0000000000
6271 2      14.9610909095      17.0000000000
6272 2      15.8150908125      18.0000000000
6273 2      14.0195442264      16.0000000000
6274 2      12.0097468598      14.0000000000
6275 2      15.6042679924      18.0000000000
6276 2      16.2003850606      20.0000000000
6277 2      14.6541917049      17.0000000000
6278 2      12.7767348306      17.0000000000
6279 2      14.8055733097      17.0000000000
6280 2      13.8408807843      20.0000000000
6281 2      16.9432637905      18.0000000000
6282 2      15.3397831133      18.0000000000
6283 2      15.8249543755      19.0000000000
6284 2      14.7444164936      19.0000000000
6285 2      13.8806730898      18.0000000000
6286 2      13.7928918990      14.0000000000
6287 2      16.6353802012      18.0000000000
6288 2      14.5072701087      17.0000000000
6289 2      15.8269416922      16.0000000000
6290 2      14.9467380440      17.0000000000
6291 2      13.4669711893      18.0000000000
6292 2      14.3368678405      21.0000000000
6293 2      16.4402885385      18.0000000000
6294 2      17.1386462056      20.0000000000
6295 2      12.9076918191      15.0000000000
6296 2      17.0394945194      21.0000000000
6297 2      15.2849609225      21.0000000000
6298 2      12.9697310063      18.0000000000
6299 2      13.9626725299      15.0000000000
6300 2      16.2265193945      19.0000000000
6301 2      15.9717100401      17.0000000000
6302 2      16.7289981417      19.0000000000
6303 2      14.7453896695      17.0000000000
6304 2      16.0915006173      20.0000000000
6305 2      17.0619982878      21.0000000000
6306 2      15.6130191039      17.0000000000
6307 2      16.9863255903      18.0000000000
6308 2      14.9558488989      17.0000000000
6309 2      15.2253014134      17.0000000000
6310 2      17.0444369710      23.0000000000
6311 2      14.4979540291      19.0000000000
6312 2      15.5017527122      15.0000000000
6313 2      15.9847659307      19.0000000000
6314 2      14.6036886066      17.0000000000
6315 2      17.7253453477      19.0000000000
6316 2      16.0199477342      19.0000000000
6317 2      13.2856116009      15.0000000000
6318 2      15.1522629032      18.0000000000
6319 2      14.8527779182      18.0000000000
6320 2      13.0485229683      16.0000000000
6321 2      11.7368036585      16.0000000000
6322 2      13.4461887044      15.0000000000
6323 2      17.0218978165      22.0000000000
6324 2      12.0702384764      13.0000000000
6325 2      14.1960986542      18.0000000000
6326 2      17.0489619441      19.0000000000
6327 2      13.7798728201      13.0000000000
6328 2      15.8009140823      19.0000000000
6329 2      14.6774747944      14.0000000000
6330 2      12.6732701819      14.0000000000
6331 2      14.0711047717      15.0000000000
6332 2      17.7511064972      19.0000000000
6333 2      12.7904427178      13.0000000000
6334 2      16.6179652178      24.0000000000
6335 2      16.7677746740      20.0000000000
6336 2      16.3135296159      19.0000000000
6337 2      15.1843517796      17.0000000000
6338 2      14.2536501626      18.0000000000
6339 2      18.4020548378      23.0000000000
6340 2      13.1629189650      17.0000000000
6341 2      14.6887841626      16.0000000000
6342 2      17.9146773538      17.0000000000
6343 2      18.4176063002      22.0000000000
6344 2      14.2121690197      16.0000000000
6345 2      16.2961565719      20.0000000000
6346 2      14.8484743454      16.0000000000
6347 2      14.4444712896      15.0000000000
6348 2      14.0571560721      15.0000000000
6349 2      12.7197170646      17.0000000000
6350 2      15.1923260776      16.0000000000
6351 2      17.1232341309      21.0000000000
6352 2      13.9294005585      20.0000000000
6353 2      13.8562390406      17.0000000000
6354 2      12.6122974454      18.0000000000
6355 2      13.8600081863      16.0000000000
6356 2      17.4579480291      21.0000000000
6357 2      15.6272495713      19.0000000000
6358 2      15.5193118245      18.0000000000
6359 2      16.9395587858      22.0000000000
6360 2      18.9177460064      22.0000000000
6361 2      18.6693970386      21.0000000000
6362 2      14.2278346759      17.0000000000
6363 2      14.3118780310      17.0000000000
6364 2      16.4911051062      19.0000000000
6365 2      16.1307378306      19.0000000000
6366 2      16.5139478590      22.0000000000
6367 2      12.6655620045      15.0000000000
6368 2      15.6560561283      16.0000000000
6369 2      14.4974702275      15.0000000000
6370 2      14.7457836637      16.0000000000
6371 2      14.1531581743      17.0000000000
6372 2      12.4827887638      16.0000000000
6373 2      13.1042025070      19.0000000000
6374 2      15.0921208460      18.0000000000
6375 2      14.4879909538      17.0000000000
6376 2      14.8738216272      18.0000000000
6377 2      12.7144295770      16.0000000000
6378 2      16.3492768121      19.0000000000
6379 2      13.8377081833      18.0000000000
6380 2      13.5045358564      20.0000000000
6381 2      14.7663697469      18.0000000000
6382 2      15.0457307706      19.0000000000
6383 2      15.2927279078      18.0000000000
6384 2      14.9709625619      21.0000000000
6385 2      14.0806716486      18.0000000000
6386 2      15.0746196739      17.0000000000
6387 2      17.2879428763      19.0000000000
6388 2      13.6485401706      21.0000000000
6389 2      16.0033238078      19.0000000000
6390 2      15.2786768453      19.0000000000
6391 2      14.2349483552      14.0000000000
6392 2      15.1136205735      19.0000000000
6393 2      13.9138988111      19.0000000000
6394 2      16.7268785363      20.0000000000
6395 2      12.8995990785      16.0000000000
6396 2      15.2666690908      13.0000000000
6397 2      14.7282020421      19.0000000000
6398 2      11.6256417110      15.0000000000
6399 2      14.5942760871      19.0000000000
6400 2      14.6940618805      18.0000000000
6401 2      14.4341584216      19.0000000000
6402 2      16.5065544900      18.0000000000
6403 2      13.5261487862      18.0000000000
6404 2      14.7456950187      16.0000000000
6405 2      15.7691508327      18.0000000000
6406 2      17.4896919637      18.0000000000
6407 2      14.2648969501      18.0000000000
6408 2      16.7752085919      18.0000000000
6409 2      15.0400057664      21.0000000000
6410 2      17.2875819555      17.0000000000
6411 2      15.1711480117      17.0000000000
6412 2      17.3828590101      21.0000000000
6413 2      14.9243563206      18.0000000000
6414 2      15.8691903046      23.0000000000
6415 2      13.3044289864      15.0000000000
6416 2      12.8510950097      15.0000000000
6417 2      16.8696188314      22.0000000000
6418 2      16.5818625370      19.0000000000
6419 2      12.0478202794      15.0000000000
6420 2      12.0496980041      14.0000000000
6421 2      14.4181364198      18.0000000000
6422 2      15.4277468817      15.0000000000
6423 2      12.9171099180      17.0000000000
6424 2      18.8000007949      22.0000000000
6425 2      13.7006125794      16.0000000000
6426 2      15.1692033393      14.0000000000
6427 2      18.2867390080      22.0000000000
6428 2      15.2793312715      17.0000000000
6429 2      13.9778129339      18.0000000000
6430 2      13.0206094798      19.0000000000
6431 2      12.9336308279      15.0000000000
6432 2      14.1010258431      17.0000000000
6433 2      15.8105940871      18.0000000000
6434 2      15.4314394859      20.0000000000
6435 2      13.2721387898      14.0000000000
6436 2      11.6999060863      16.0000000000
6437 2      14.9149715949      21.0000000000
6438 2      13.5755265804      18.0000000000
6439 2      16.0439234270      18.0000000000
6440 2      13.9052036230      17.0000000000
6441 2      13.2391780773      16.0000000000
6442 2      15.4779829985      19.0000000000
6443 2      14.9884638174      17.0000000000
6444 2      12.3304690387      16.0000000000
6445 2      15.1036335004      19.0000000000
6446 2      13.4052296134      17.0000000000
6447 2      15.3512738625      16.0000000000
6448 2      20.1029134907      28.0000000000
6449 2      10.7141396865      13.0000000000
6450 2      15.8235986240      19.0000000000
6451 2      16.4771321911      24.0000000000
6452 2      13.8731076832      17.0000000000
6453 2      13.2637508301      16.0000000000
6454 2      13.7656726712      15.0000000000
6455 2      14.4940247345      15.0000000000
6456 2      12.5555653058      15.0000000000
6457 2      15.2344883933      20.0000000000
6458 2      14.5711893457      15.0000000000
6459 2      14.4457424783      18.0000000000
6460 2      14.3571532919      17.0000000000
6461 2      14.4440215069      19.0000000000
6462 2      14.5541897754      17.0000000000
6463 2      14.4398792431      16.0000000000
6464 2      15.1352224340      17.0000000000
6465 2      16.2510432106      21.0000000000
6466 2      14.2486556513      19.0000000000
6467 2      12.3534644439      17.0000000000
6468 2      15.4447387623      20.0000000000
6469 2      19.5804973427      20.0000000000
6470 2      14.9128236689      17.0000000000
6471 2      14.1240094824      18.0000000000
6472 2      14.6160951538      19.0000000000
6473 2      14.2918435382      17.0000000000
6474 2      14.4908040249      20.0000000000
6475 2      17.9501230500      20.0000000000
6476 2      12.7508570404      14.0000000000
6477 2      15.9876816687      19.0000000000
6478 2      12.7778102886      15.0000000000
6479 2      13.0968797131      19.0000000000
6480 2      16.8663543879      20.0000000000
6481 2      16.1197998811      19.0000000000
6482 2      16.8267736186      18.0000000000
6483 2      13.5240588613      19.0000000000
6484 2      13.2146761483      17.0000000000
6485 2      13.9347969469      18.0000000000
6486 2      14.8790299399      18.0000000000
6487 2      13.6245025529      15.0000000000
6488 2      13.2552268871      15.0000000000
6489 2      16.6783235651      16.0000000000
6490 2      15.4550037114      20.0000000000
6491 2      14.1703906510      20.0000000000
6492 2      14.2920109880      13.0000000000
6493 2      15.4842155668      18.0000000000
6494 2      13.7979367393      14.0000000000
6495 2      19.9366709989      20.0000000000
6496 2      17.1342360554      24.0000000000
6497 2      14.1128424696      14.0000000000
6498 2      14.4595059528      14.0000000000
6499 2      16.0090932929      19.0000000000
6500 2      15.9481450624      21.0000000000
6501 2      15.4805728735      18.0000000000
6502 2      16.9305967842      21.0000000000
6503 2      13.6689254413      18.0000000000
6504 2      14.9541408418      18.0000000000
6505 2      12.9668784872      16.0000000000
6506 2      14.6539925638      18.0000000000
6507 2      16.9253106377      19.0000000000
6508 2      16.2556448817      15.0000000000
6509 2      15.6354643146      19.0000000000
6510 2      14.8909444102      19.0000000000
6511 2      14.1648592564      17.0000000000
6512 2      14.3169407799      15.0000000000
6513 2      14.3421415503      17.0000000000
6514 2      14.4998888911      13.0000000000
6515 2      14.4032851713      19.0000000000
6516 2      14.1425179007      17.0000000000
6517 2      14.0514166294      14.0000000000
6518 2      15.6988334851      19.0000000000
6519 2      14.3853906408      16.0000000000
6520 2      12.5342624498      17.0000000000
6521 2      11.9054663650      15.0000000000
6522 2      17.3661594268      22.0000000000
6523 2      13.4376026734      15.0000000000
6524 2      14.8019280399      19.0000000000
6525 2      11.3266927364      15.0000000000
6526 2      15.5234201460      17.0000000000
6527 2      13.7352267014      18.0000000000
6528 2      13.6930665433      18.0000000000
6529 2      13.9891520632      17.0000000000
6530 2      12.7714931620      16.0000000000
6531 2      14.0710822971      18.0000000000
6532 2      15.0596779091      15.0000000000
6533 2      12.5320916118      14.0000000000
6534 2      15.0066610003      16.0000000000
6535 2      11.7252752467      14.0000000000
6536 2      13.7294042251      16.0000000000
6537 2      13.8363748333      18.0000000000
6538 2      16.7906426046      19.0000000000
6539 2      17.7331242344      20.0000000000
6540 2      14.1039121714      19.0000000000
6541 2      14.4890376610      18.0000000000
6542 2      15.1178379683      22.0000000000
6543 2      14.8922976624      21.0000000000
6544 2      17.2370838686      18.0000000000
6545 2      13.8333389826      15.0000000000
6546 2      12.2536297769      14.0000000000
6547 2      16.4607921620      20.0000000000
6548 2      16.6622942766      17.0000000000
6549 2      13.3788588682      16.0000000000
6550 2      14.7133201048      18.0000000000
6551 2      16.5961117697      23.0000000000
6552 2      14.5910148879      17.0000000000
6553 2      14.7038377754      20.0000000000
6554 2      14.1467682739      18.0000000000
6555 2      14.3816101508      21.0000000000
6556 2      12.9200273478      15.0000000000
6557 2      13.1188517416      15.0000000000
6558 2      16.2813903114      22.0000000000
6559 2      13.9654344832      17.0000000000
6560 2      15.2562478628      18.0000000000
6561 2      14.6449799239      21.0000000000
6562 2      13.9391669674      17.0000000000
6563 2      14.3748219437      15.0000000000
6564 2      12.8381409983      15.0000000000
6565 2      13.7283446164      17.0000000000
6566 2      15.5249048863      15.0000000000
6567 2      13.9765978195      17.0000000000
6568 2      18.4109174872      21.0000000000
6569 2      14.0131757296      18.0000000000
6570 2      14.6899981259      21.0000000000
6571 2      11.1759735700      15.0000000000
6572 2      15.3938385858      23.0000000000
6573 2      14.9566946100      18.0000000000
6574 2      13.1969797064      15.0000000000
6575 2      13.4351374275      17.0000000000
6576 2      16.4785579595      22.0000000000
6577 2      13.4947728806      19.0000000000
6578 2      15.3522807676      18.0000000000
6579 2      14.0771844766      18.0000000000
6580 2      15.6711218969      19.0000000000
6581 2      13.4996587097      19.0000000000
6582 2      14.2321692998      16.0000000000
6583 2      14.0937211342      19.0000000000
6584 2      12.7656870206      16.0000000000
6585 2      14.8362550178      18.0000000000
6586 2      13.1199937810      19.0000000000
6587 2      18.0441531769      14.0000000000
6588 2      11.9022505874      16.0000000000
6589 2      15.3854319175      20.0000000000
6590 2      15.5421237659      16.0000000000
6591 2      14.2667680512      18.0000000000
6592 2      16.0633705290      19.0000000000
6593 2      14.4250116387      15.0000000000
6594 2      16.0955840199      17.0000000000
6595 2      18.2164955080      21.0000000000
6596 2      12.8248388709      15.0000000000
6597 2      12.7996304016      16.0000000000
6598 2      14.1405777295      18.0000000000
6599 2      16.0380271903      18.0000000000
6600 2      12.6412804458      16.0000000000
6601 2      13.1760647860      19.0000000000
6602 2      13.5999374002      14.0000000000
6603 2      14.2167776099      17.0000000000
6604 2      18.5219103622      20.0000000000
6605 2      14.4904073579      17.0000000000
6606 2      17.2032309066      22.0000000000
6607 2      16.3295909869      18.0000000000
6608 2      13.9982089890      17.0000000000
6609 2      14.8326708707      19.0000000000
6610 2      13.9685214598      18.0000000000
6611 2      14.5230166000      18.0000000000
6612 2      13.3667286683      18.0000000000
6613 2      11.4975047376      16.0000000000
6614 2      16.1862325525      16.0000000000
6615 2      14.5813148699      18.0000000000
6616 2      11.7969703353      16.0000000000
6617 2      12.1823727188      15.0000000000
6618 2      15.5004073096      19.0000000000
6619 2      15.4719151006      24.0000000000
6620 2      17.2125820471      12.0000000000
6621 2      15.8497715908      19.0000000000
6622 2      14.6176470649      16.0000000000
6623 2      13.4207064410      15.0000000000
6624 2      16.0500578420      19.0000000000
6625 2      16.0827907543      19.0000000000
6626 2      13.0529531301      17.0000000000
6627 2      15.9983656050      18.0000000000
6628 2      16.6476976840      19.0000000000
6629 2      15.7167803890      17.0000000000
6630 2      17.2391729244      18.0000000000
6631 2      19.0707345794      22.0000000000
6632 2      16.9991532374      17.0000000000
6633 2      12.8472254494      16.0000000000
6634 2      14.9324364910      17.0000000000
6635 2      14.9555694573      18.0000000000
6636 2      18.4727120523      23.0000000000
6637 2      14.6259184490      19.0000000000
6638 2      14.8692583918      20.0000000000
6639 2      15.4670424514      19.0000000000
6640 2      13.6467765850      16.0000000000
6641 2      15.6733417412      24.0000000000
6642 2      14.8808707421      19.0000000000
6643 2      14.4374411094      17.0000000000
6644 2      16.3912423246      19.0000000000
6645 2      14.9397484314      20.0000000000
6646 2      13.8035542968      16.0000000000
6647 2      14.0453738074      16.0000000000
6648 2      14.8958584627      18.0000000000
6649 2      15.9877981060      20.0000000000
6650 2      15.3948885820      17.0000000000
6651 2      10.8301099211      16.0000000000
6652 2      15.3000279065      22.0000000000
6653 2      14.9189720843      14.0000000000
6654 2      15.4395878133      23.0000000000
6655 2      14.2194200812      15.0000000000
6656 2      14.4804454707      19.0000000000
6657 2      18.5574674466      23.0000000000
6658 2      18.2960877246      21.0000000000
6659 2      17.4318779617      20.0000000000
6660 2      15.4513839050      21.0000000000
6661 2      13.9358517813      15.0000000000
6662 2      16.7337184510      20.0000000000
6663 2      14.0777360701      20.0000000000
6664 2      13.9345882342      18.0000000000
6665 2      14.0227326746      17.0000000000
6666 2      14.0968802428      15.0000000000
6667 2      15.1981243524      21.0000000000
6668 2      13.9458287558      18.0000000000
6669 2      14.6869176355      19.0000000000
6670 2      13.3424198337      20.0000000000
6671 2      16.1866906586      15.0000000000
6672 2      12.4365565705      14.0000000000
6673 2      15.5238996236      18.0000000000
6674 2      14.4859332448      20.0000000000
6675 2      14.2722285999      19.0000000000
6676 2      14.7338337928      14.0000000000
6677 2      16.3651649650      14.0000000000
6678 2      14.8248994914      15.0000000000
6679 2      15.5804948555      19.0000000000
6680 2      14.7933379953      17.0000000000
6681 2      14.6576511059      18.0000000000
6682 2      15.2748196107      16.0000000000
6683 2      16.5607786328      19.0000000000
6684 2      13.0439998470      14.0000000000
6685 2      14.5601546131      19.0000000000
6686 2      14.3545182490      16.0000000000
6687 2      14.3560346039      18.0000000000
6688 2      17.2216678764      23.0000000000
6689 2      14.7075893529      18.0000000000
6690 2      16.2264148419      15.0000000000
6691 2      12.7792296957      16.0000000000
6692 2      14.9000732740      16.0000000000
6693 2      13.5181654533      17.0000000000
6694 2      14.7245973391      19.0000000000
6695 2      14.6665615907      19.0000000000
6696 2      13.5593456122      19.0000000000
6697 2      15.7445067360      19.0000000000
6698 2      15.5805156359      17.0000000000
6699 2      15.4667253574      20.0000000000
6700 2      14.9339349300      22.0000000000
6701 2      17.3135664645      18.0000000000
6702 2      15.3372408658      19.0000000000
6703 2      13.5300023528      19.0000000000
6704 2      17.2579976224      22.0000000000
6705 2      13.4205651202      17.0000000000
6706 2      14.8426430691      20.0000000000
6707 2      12.3723263171      15.0000000000
6708 2      12.2074977717      14.0000000000
6709 2      12.9871497026      14.0000000000
6710 2      14.1890832358      18.0000000000
6711 2      14.9950985666      16.0000000000
6712 2      12.5611117032      15.0000000000
6713 2      15.6868613211      18.0000000000
6714 2      13.5427883159      16.0000000000
6715 2      13.6103430287      15.0000000000
6716 2      12.0836982518      14.0000000000
6717 2      15.9762358650      21.0000000000
6718 2      15.9853310879      19.0000000000
6719 2      13.4797321306      16.0000000000
6720 2      15.3830967863      21.0000000000
6721 2      15.0130396815      17.0000000000
6722 2      15.1895407353      17.0000000000
6723 2      12.1724884825      16.0000000000
6724 2      12.3553271570      14.0000000000
6725 2      12.4177871072      14.0000000000
6726 2      12.8758621748      17.0000000000
6727 2      16.5929441847      17.0000000000
6728 2      14.6376300426      17.0000000000
6729 2      15.0565147534      16.0000000000
6730 2      14.0637972064      15.0000000000
6731 2      14.9876876402      19.0000000000
6732 2      15.7657612467      17.0000000000
6733 2      13.8919672547      16.0000000000
6734 2      15.0166248683      21.0000000000
6735 2      14.0972419903      20.0000000000
6736 2      16.4258735658      21.0000000000
6737 2      16.3934291250      19.0000000000
6738 2      13.9117853531      17.0000000000
6739 2      12.0835604200      15.0000000000
6740 2      15.1326211090      17.0000000000
6741 2      13.8710445051      18.0000000000
6742 2      16.3980028457      16.0000000000
6743 2      13.2845787408      17.0000000000
6744 2      15.5086205166      17.0000000000
6745 2      17.0927995986      22.0000000000
6746 2      15.6059323337      16.0000000000
6747 2      13.1570619585      14.0000000000
6748 2      16.3418752948      19.0000000000
6749 2      14.0800891026      17.0000000000
6750 2      14.3370536291      16.0000000000
6751 2      17.1653486098      15.0000000000
6752 2      15.9850694805      23.0000000000
6753 2      12.9304017982      17.0000000000
6754 2      15.9784750235      21.0000000000
6755 2      13.1573942314      17.0000000000
6756 2      13.5600962178      16.0000000000
6757 2      14.7064103560      17.0000000000
6758 2      15.4297675178      24.0000000000
6759 2      13.7806409243      20.0000000000
6760 2      13.4651483324      19.0000000000
6761 2      15.2630871123      19.0000000000
6762 2      13.7849798285      17.0000000000
6763 2      16.2552280100      19.0000000000
6764 2      14.7806632657      17.0000000000
6765 2      14.6613433787      19.0000000000
6766 2      12.0964098417      18.0000000000
6767 2      15.2103698438      19.0000000000
6768 2      13.1872858601      16.0000000000
6769 2      15.8083454533      22.0000000000
6770 2      15.4348465946      19.0000000000
6771 2      15.5098627999      17.0000000000
6772 2      16.4694612972      19.0000000000
6773 2      17.2992687770      19.0000000000
6774 2      16.7647376242      17.0000000000
6775 2      12.4067403058      13.0000000000
6776 2      14.6629549813      18.0000000000
6777 2      17.1104995018      21.0000000000
6778 2      15.2824948909      17.0000000000
6779 2      14.2929001448      15.0000000000
6780 2      13.8730088107      17.0000000000
6781 2      13.1332101737      17.0000000000
6782 2      14.4337634375      19.0000000000
6783 2      14.8659904735      17.0000000000
6784 2      14.7922074903      19.0000000000
6785 2      12.2263555337      17.0000000000
6786 2      15.9725938061      17.0000000000
6787 2      17.3531544906      19.0000000000
6788 2      17.0095808188      22.0000000000
6789 2      12.1427096581      19.0000000000
6790 2      16.8729751135      21.0000000000
6791 2      12.4806072270      15.0000000000
6792 2      13.8860945261      18.0000000000
6793 2      13.1161309882      15.0000000000
6794 2      14.3752082096      18.0000000000
6795 2      15.7144393106      17.0000000000
6796 2      13.9176875466      18.0000000000
6797 2      14.2170164380      18.0000000000
6798 2      13.9263804792      18.0000000000
6799 2      16.1029300370      20.0000000000
6800 2      16.6421635531      18.0000000000
6801 2      13.3793947191      15.0000000000
6802 2      14.0816501757      18.0000000000
6803 2      13.5871917201      13.0000000000
6804 2      12.6509390586      15.0000000000
6805 2      13.8809999888      18.0000000000
6806 2      14.9945122952      17.0000000000
6807 2      17.3800834982      23.0000000000
6808 2      15.9316146492      21.0000000000
6809 2      14.7404026133      21.0000000000
6810 2      13.3766460681      14.0000000000
6811 2      13.6244982992      14.0000000000
6812 2      16.1924399269      17.0000000000
6813 2      13.5313822869      15.0000000000
6814 2      13.9885984130      16.0000000000
6815 2      14.7321861043      17.0000000000
6816 2      13.7842326237      15.0000000000
6817 2      13.9068721078      17.0000000000
6818 2      14.4519677440      15.0000000000
6819 2      12.5460628626      18.0000000000
6820 2      17.5750494689      18.0000000000
6821 2      13.4180434144      17.0000000000
6822 2      17.7012947934      19.0000000000
6823 2      15.9277148433      18.0000000000
6824 2      16.0536714516      23.0000000000
6825 2      13.6677474806      16.0000000000
6826 2      13.3789871126      17.0000000000
6827 2      17.3630402145      22.0000000000
6828 2      15.3644192568      18.0000000000
6829 2      16.6358511442      16.0000000000
6830 2      14.7121024314      17.0000000000
6831 2      15.7852024809      20.0000000000
6832 2      14.9040237656      16.0000000000
6833 2      13.9649021185      19.0000000000
6834 2      14.0058930101      15.0000000000
6835 2      13.9536196700      17.0000000000
6836 2      15.7374215566      18.0000000000
6837 2      13.6608800477      17.0000000000
6838 2      14.2295976568      20.0000000000
6839 2      14.9551907208      19.0000000000
6840 2      16.1115315127      19.0000000000
6841 2      13.0852527518      18.0000000000
6842 2      14.2595648733      16.0000000000
6843 2      15.8701730504      19.0000000000
6844 2      13.2051949160      20.0000000000
6845 2      12.7836566247      17.0000000000
6846 2      14.8411112629      17.0000000000
6847 2      13.3979698502      18.0000000000
6848 2      15.4592225537      17.0000000000
6849 2      15.8894457369      19.0000000000
6850 2      13.3897450356      15.0000000000
6851 2      16.5719023910      20.0000000000
6852 2      15.2056237096      19.0000000000
6853 2      14.1271415947      17.0000000000
6854 2      12.2226326000      15.0000000000
6855 2      12.7930544373      16.0000000000
6856 2      15.1468780882      20.0000000000
6857 2      13.4267733058      17.0000000000
6858 2      13.1890685393      15.0000000000
6859 2      16.9667818899      18.0000000000
6860 2      14.2661136915      19.0000000000
6861 2      14.9001769581      20.0000000000
6862 2      14.2674117104      16.0000000000
6863 2      13.2549372873      16.0000000000
6864 2      12.4899763954      16.0000000000
6865 2      13.3023467155      20.0000000000
6866 2      15.7399989304      21.0000000000
6867 2      14.3986824043      18.0000000000
6868 2      13.9852994194      15.0000000000
6869 2      16.3699081699      22.0000000000
6870 2      15.5029488254      16.0000000000
6871 2      14.3606769167      17.0000000000
6872 2      15.6168804101      19.0000000000
6873 2      17.4821909344      23.0000000000
6874 2      14.7707377377      19.0000000000
6875 2      15.2705949721      19.0000000000
6876 2      13.5388270076      18.0000000000
6877 2      12.5677566935      16.0000000000
6878 2      13.5161746830      17.0000000000
6879 2      14.0949997692      18.0000000000
6880 2      15.5734990588      21.0000000000
6881 2      14.5043663181      15.0000000000
6882 2      16.9858161580      18.0000000000
6883 2      13.9380221227      16.0000000000
6884 2      15.8997726313      17.0000000000
6885 2      13.6235103535      16.0000000000
6886 2      13.4332159690      17.0000000000
6887 2      17.0570933909      19.0000000000
6888 2      14.4547236522      20.0000000000
6889 2      15.2183405440      18.0000000000
6890 2      12.8112636003      16.0000000000
6891 2      14.0590334340      18.0000000000
6892 2      15.1175934745      22.0000000000
6893 2      14.9458906959      18.0000000000
6894 2      14.6312244011      23.0000000000
6895 2      14.7595530911      16.0000000000
6896 2      17.3460203783      24.0000000000
6897 2      15.5526437774      22.0000000000
6898 2      14.7607469242      20.0000000000
6899 2      13.7015980969      18.0000000000
6900 2      15.8612361714      18.0000000000
6901 2      15.1282333475      20.0000000000
6902 2      13.6871896506      15.0000000000
6903 2      13.5340028721      16.0000000000
6904 2      16.4169297158      20.0000000000
6905 2      12.1974632616      16.0000000000
6906 2      17.1063780698      22.0000000000
6907 2      14.9564074459      16.0000000000
6908 2      13.2485565190      17.0000000000
6909 2      15.5223737716      22.0000000000
6910 2      14.8296571662      19.0000000000
6911 2      13.5148323026      14.0000000000
6912 2      15.9832875284      21.0000000000
6913 2      13.1910927229      15.0000000000
6914 2      15.6273791173      20.0000000000
6915 2      14.1007073379      15.0000000000
6916 2      14.7609082030      16.0000000000
6917 2      13.0661609700      20.0000000000
6918 2      16.1149067166      17.0000000000
6919 2      15.5385908330      21.0000000000
6920 2      13.7537915926      14.0000000000
6921 2      14.3450063819      18.0000000000
6922 2      15.8057922166      20.0000000000
6923 2      15.7417675564      18.0000000000
6924 2      15.5023644156      16.0000000000
6925 2      14.7908277027      18.0000000000
6926 2      16.8593384984      18.0000000000
6927 2      16.2142133241      17.0000000000
6928 2      13.6533495550      16.0000000000
6929 2      15.3978554181      21.0000000000
6930 2      13.4285541076      19.0000000000
6931 2      14.0770333129      19.0000000000
6932 2      15.8155438612      17.0000000000
6933 2      15.3567392748      19.0000000000
6934 2      14.2233212710      20.0000000000
6935 2      14.2608230933      14.0000000000
6936 2      13.6532326882      13.0000000000
6937 2      15.2762105413      20.0000000000
6938 2      13.4571312453      15.0000000000
6939 2      14.7277920982      18.0000000000
6940 2      16.0098497557      23.0000000000
6941 2      14.8509972973      18.0000000000
6942 2      13.0569356214      18.0000000000
6943 2      14.3877625959      16.0000000000
6944 2      16.2000152607      18.0000000000
6945 2      13.4307324493      16.0000000000
6946 2      15.8022587106      20.0000000000
6947 2      14.3058018889      17.0000000000
6948 2      14.3338905244      20.0000000000
6949 2      15.6935237424      20.0000000000
6950 2      16.6494360303      17.0000000000
6951 2      17.3285204567      17.0000000000
6952 2      18.6941577893      23.0000000000
6953 2      15.4477395414      22.0000000000
6954 2      14.6032569943      14.0000000000
6955 2      15.1970466858      20.0000000000
6956 2      14.0932159152      19.0000000000
6957 2      12.7858018242      14.0000000000
6958 2      13.2268531226      16.0000000000
6959 2      15.2146188245      16.0000000000
6960 2      12.4037242469      16.0000000000
6961 2      14.0258923797      13.0000000000
6962 2      13.6857576610      15.0000000000
6963 2      16.8304609869      21.0000000000
6964 2      14.4131077246      15.0000000000
6965 2      15.6687240497      19.0000000000
6966 2      14.4907611050      20.0000000000
6967 2      16.5342256917      19.0000000000
6968 2      14.8293198798      17.0000000000
6969 2      12.5697248367      17.0000000000
6970 2      13.2356304803      18.0000000000
6971 2      13.5695285575      17.0000000000
6972 2      17.5576276069      18.0000000000
6973 2      15.3566992778      16.0000000000
6974 2      12.4300080642      15.0000000000
6975 2      13.3881923229      19.0000000000
6976 2      15.1225385308      15.0000000000
6977 2      15.2375557842      19.0000000000
6978 2      14.8392537048      21.0000000000
6979 2      13.5354441449      16.0000000000
6980 2      14.3674526369      17.0000000000
6981 2      13.3784260661      17.0000000000
6982 2      18.4436865548      21.0000000000
6983 2      16.3369923788      16.0000000000
6984 2      14.2904346009      21.0000000000
6985 2      15.1551138059      18.0000000000
6986 2      15.3060620745      17.0000000000
6987 2      16.0091151351      21.0000000000
6988 2      14.7588571063      18.0000000000
6989 2      17.0413574227      17.0000000000
6990 2      13.3688126980      17.0000000000
6991 2      16.9410086200      18.0000000000
6992 2      12.7895128682      16.0000000000
6993 2      13.5308056009      18.0000000000
6994 2      13.2069228010      18.0000000000
6995 2      15.9198109756      18.0000000000
6996 2      12.8726655148      18.0000000000
6997 2      17.6319374733      19.0000000000
6998 2      13.4758065419      19.0000000000
6999 2      13.4389402737      16.0000000000
7000 2      12.1001511938      16.0000000000
7001 2      15.8144586796      18.0000000000
7002 2      16.7737418858      18.0000000000
7003 2      13.5516378661      19.0000000000
7004 2      12.9059008829      18.0000000000
7005 2      12.6778913151      17.0000000000
7006 2      13.6755845051      20.0000000000
7007 2      16.3114595536      18.0000000000
7008 2      14.1584672612      18.0000000000
7009 2      13.6747352416      15.0000000000
7010 2      15.7266665475      17.0000000000
7011 2      17.6595331218      19.0000000000
7012 2      18.1426397951      21.0000000000
7013 2      13.8914555185      16.0000000000
7014 2      15.6832409353      19.0000000000
7015 2      13.3963686724      14.0000000000
7016 2      13.5998338682      14.0000000000
7017 2      14.1247048925      16.0000000000
7018 2      13.1289306714      16.0000000000
7019 2      17.7400403921      16.0000000000
7020 2      16.9622749531      22.0000000000
7021 2      14.6993972005      19.0000000000
7022 2      13.4420192416      18.0000000000
7023 2      14.2224973712      18.0000000000
7024 2      13.0406353886      14.0000000000
7025 2      14.6122711172      19.0000000000
7026 2      14.0053271442      16.0000000000
7027 2      16.2101624517      19.0000000000
7028 2      13.8020552853      21.0000000000
7029 2      15.8770488229      19.0000000000
7030 2      15.5006059184      18.0000000000
7031 2      17.6230623814      19.0000000000
7032 2      16.6174474151      19.0000000000
7033 2      15.0346181155      22.0000000000
7034 2      14.6434483378      15.0000000000
7035 2      16.4586550618      18.0000000000
7036 2      13.1310794592      17.0000000000
7037 2      15.3806878802      19.0000000000
7038 2      16.4076643564      21.0000000000
7039 2      14.2170970363      17.0000000000
7040 2      15.2940339536      20.0000000000
7041 2      14.2453364766      17.0000000000
7042 2      13.9627341837      18.0000000000
7043 2      14.4056998324      18.0000000000
7044 2      13.5459380087      18.0000000000
7045 2      13.4746195050      14.0000000000
7046 2      13.1687729450      17.0000000000
7047 2      14.0094124507      18.0000000000
7048 2      17.9436673084      20.0000000000
7049 2      16.5319103964      18.0000000000
7050 2      14.5277102008      18.0000000000
7051 2      15.9026460081      19.0000000000
7052 2      13.9230444268      18.0000000000
7053 2      14.9722451563      19.0000000000
7054 2      16.3083581700      18.0000000000
7055 2      15.4996471560      14.0000000000
7056 2      15.2562907777      19.0000000000
7057 2      12.4969738237      13.0000000000
7058 2      15.8759613528      16.0000000000
7059 2      15.0412820147      15.0000000000
7060 2      13.9936988552      18.0000000000
7061 2      15.0476918420      17.0000000000
7062 2      15.6662349097      14.0000000000
7063 2      15.1782515998      20.0000000000
7064 2      14.2253341284      20.0000000000
7065 2      15.1516738908      16.0000000000
7066 2      15.7431274702      18.0000000000
7067 2      12.8687733835      15.0000000000
7068 2      14.0647890140      15.0000000000
7069 2      12.7089730797      19.0000000000
7070 2      14.4599739884      19.0000000000
7071 2      17.3744504480      17.0000000000
7072 2      14.6036690735      16.0000000000
7073 2      13.3817228136      17.0000000000
7074 2      12.7087202929      15.0000000000
7075 2      16.4728100566      20.0000000000
7076 2      15.2913547903      17.0000000000
7077 2      15.8653866747      16.0000000000
7078 2      13.9990235899      15.0000000000
7079 2      15.6464471015      19.0000000000
7080 2      17.3426501105      23.0000000000
7081 2      14.1443294067      17.0000000000
7082 2      14.9408132197      15.0000000000
7083 2      12.5308804049      18.0000000000
7084 2      14.6534123316      18.0000000000
7085 2      15.4889538939      18.0000000000
7086 2      16.0216504058      15.0000000000
7087 2      13.8237017686      19.0000000000
7088 2      15.7076172440      22.0000000000
7089 2      14.9665511274      13.0000000000
7090 2      14.9482789978      19.0000000000
7091 2      13.3363866363      19.0000000000
7092 2      16.6323412054      20.0000000000
7093 2      16.7087681914      18.0000000000
7094 2      16.3869881817      16.0000000000
7095 2      14.2674411494      16.0000000000
7096 2      14.2588904452      14.0000000000
7097 2      17.7406732038      18.0000000000
7098 2      16.7201658951      20.0000000000
7099 2      11.5073583802      14.0000000000
7100 2      13.7679486199      15.0000000000
7101 2      14.2818936677      16.0000000000
7102 2      15.4361561536      18.0000000000
7103 2      17.5009426635      18.0000000000
7104 2      15.6847305696      17.0000000000
7105 2      14.2430260422      18.0000000000
7106 2      17.5055598463      23.0000000000
7107 2      15.0099311873      20.0000000000
7108 2      16.5662188019      19.0000000000
7109 2      12.2316864537      15.0000000000
7110 2      13.0937450701      18.0000000000
7111 2      16.1202278924      16.0000000000
7112 2      15.3679703945      19.0000000000
7113 2      16.4411997417      19.0000000000
7114 2      14.9666489170      18.0000000000
7115 2      16.2672664672      20.0000000000
7116 2      16.5740603577      14.0000000000
7117 2      15.6600150785      18.0000000000
7118 2      13.8714032446      19.0000000000
7119 2      13.7644062800      17.0000000000
7120 2      17.0828639055      16.0000000000
7121 2      14.7752600934      18.0000000000
7122 2      17.4394175605      17.0000000000
7123 2      15.7702050298      21.0000000000
7124 2      17.1170106834      19.0000000000
7125 2      16.6555519261      18.0000000000
7126 2      14.8072923737      18.0000000000
7127 2      13.2686212797      16.0000000000
7128 2      13.7344917848      14.0000000000
7129 2      16.0082033799      20.0000000000
7130 2      16.6673719678      20.0000000000
7131 2      14.9755730763      16.0000000000
7132 2      13.5737318065      18.0000000000
7133 2      15.6221327095      18.0000000000
7134 2      14.5065907380      18.0000000000
7135 2      14.9071033084      21.0000000000
7136 2      12.4818440677      19.0000000000
7137 2      14.7709250392      17.0000000000
7138 2      12.1915514872      15.0000000000
7139 2      16.7353054089      19.0000000000
7140 2      13.0189751509      13.0000000000
7141 2      12.4804206653      17.0000000000
7142 2      15.1731191798      19.0000000000
7143 2      14.8726645833      18.0000000000
7144 2      13.7839979353      18.0000000000
7145 2      13.4625972656      17.0000000000
7146 2      14.4614962427      17.0000000000
7147 2      15.1016782861      19.0000000000
7148 2      12.3231790700      18.0000000000
7149 2      13.6874070119      15.0000000000
7150 2      13.2915502906      17.0000000000
7151 2      12.5570173698      17.0000000000
7152 2      15.5224773562      19.0000000000
7153 2      16.1310512524      18.0000000000
7154 2      13.6819021162      18.0000000000
7155 2      14.7833719708      18.0000000000
7156 2      15.0189377328      16.0000000000
7157 2      14.6273940358      15.0000000000
7158 2      14.2239361207      14.0000000000
7159 2      15.1635950775      18.0000000000
7160 2      16.5076037066      17.0000000000
7161 2      14.6168271821      17.0000000000
7162 2      13.8258712658      19.0000000000
7163 2      11.5281145451      16.0000000000
7164 2      15.4519958650      17.0000000000
7165 2      14.7962610856      17.0000000000
7166 2      17.4671586041      20.0000000000
7167 2      14.9421433726      19.0000000000
7168 2      16.9556357902      17.0000000000
7169 2      15.4385161621      19.0000000000
7170 2      12.8321163585      16.0000000000
7171 2      13.6346047893      17.0000000000
7172 2      18.6563159679      20.0000000000
7173 2      15.6388103731      17.0000000000
7174 2      14.1895442300      19.0000000000
7175 2      12.2143130971      17.0000000000
7176 2      14.2715946791      20.0000000000
7177 2      14.0227870402      19.0000000000
7178 2      14.9902742743      20.0000000000
7179 2      16.4123122179      17.0000000000
7180 2      12.4321887137      15.0000000000
7181 2      15.0809997730      20.0000000000
7182 2      14.5362591560      14.0000000000
7183 2      15.1817802731      17.0000000000
7184 2      14.5026596579      17.0000000000
7185 2      14.7228607460      18.0000000000
7186 2      15.2038419473      15.0000000000
7187 2      13.5571554077      16.0000000000
7188 2      15.5527496437      18.0000000000
7189 2      14.2352311788      15.0000000000
7190 2      17.2557505228      20.0000000000
7191 2      15.1490462758      18.0000000000
7192 2      15.0777298027      16.0000000000
7193 2      15.1788681466      18.0000000000
7194 2      15.7517874722      19.0000000000
7195 2      15.1576231357      17.0000000000
7196 2      16.3363139528      16.0000000000
7197 2      12.7340023631      17.0000000000
7198 2      15.5298546179      18.0000000000
7199 2      14.7784169790      18.0000000000
7200 2      14.1062958372      22.0000000000
7201 2      13.1397057847      17.0000000000
7202 2      14.2203802114      20.0000000000
7203 2      14.9316713630      16.0000000000
7204 2      15.3894447946      22.0000000000
7205 2      19.1292705622      22.0000000000
7206 2      13.5787892956      15.0000000000
7207 2      15.8446766290      20.0000000000
7208 2      13.4996163423      17.0000000000
7209 2      12.5912208369      16.0000000000
7210 2      13.1461015905      14.0000000000
7211 2      13.7001838325      16.0000000000
7212 2      15.8594276064      16.0000000000
7213 2      13.4517573225      15.0000000000
7214 2      14.6879235471      18.0000000000
7215 2      19.4505039624      17.0000000000
7216 2      18.6697748645      19.0000000000
7217 2      15.6379100729      17.0000000000
7218 2      11.3728543671      17.0000000000
7219 2      14.7099784158      16.0000000000
7220 2      13.6453238896      17.0000000000
7221 2      14.9877630849      18.0000000000
7222 2      16.3030298209      16.0000000000
7223 2      14.6156239073      19.0000000000
7224 2      15.2702261114      20.0000000000
7225 2      11.9857522868      15.0000000000
7226 2      12.0103439600      14.0000000000
7227 2      14.9748682678      17.0000000000
7228 2      15.4543319525      19.0000000000
7229 2      14.4605666684      19.0000000000
7230 2      14.7922498004      19.0000000000
7231 2      12.1673445577      18.0000000000
7232 2      14.7012151490      15.0000000000
7233 2      16.8582573805      20.0000000000
7234 2      12.4228681565      19.0000000000
7235 2      15.2697193374      19.0000000000
7236 2      15.2774496775      18.0000000000
7237 2      15.5912418007      18.0000000000
7238 2      15.2789663554      20.0000000000
7239 2      13.3054133684      14.0000000000
7240 2      16.0823695498      21.0000000000
7241 2      12.5402227199      15.0000000000
7242 2      16.0745238296      17.0000000000
7243 2      14.6064581738      18.0000000000
7244 2      14.5022712545      17.0000000000
7245 2      17.5239038857      22.0000000000
7246 2      14.3688235440      16.0000000000
7247 2      16.8235294193      20.0000000000
7248 2      16.0437785961      19.0000000000
7249 2      15.4026658022      18.0000000000
7250 2      16.7105225459      19.0000000000
7251 2      14.5887387041      18.0000000000
7252 2      14.3079524209      20.0000000000
7253 2      17.0809346379      17.0000000000
7254 2      14.6086510282      17.0000000000
7255 2      16.5364013905      18.0000000000
7256 2      13.8206260769      15.0000000000
7257 2      14.6782765455      22.0000000000
7258 2      14.8528556507      16.0000000000
7259 2      14.9205798753      17.0000000000
7260 2      14.1565748463      17.0000000000
7261 2      15.8208680164      16.0000000000
7262 2      14.4205056136      18.0000000000
7263 2      13.8926726601      20.0000000000
7264 2      15.4026765575      18.0000000000
7265 2      14.4319503465      20.0000000000
7266 2      16.0171558162      21.0000000000
7267 2      15.0550310934      17.0000000000
7268 2      15.5537653823      16.0000000000
7269 2      14.6177723751      20.0000000000
7270 2      15.3062815553      18.0000000000
7271 2      13.8079123681      14.0000000000
7272 2      16.6069030548      19.0000000000
7273 2      15.3415261276      20.0000000000
7274 2      13.7260781837      15.0000000000
7275 2      13.8209860621      15.0000000000
7276 2      14.4675870595      14.0000000000
7277 2      12.3121711587      16.0000000000
7278 2      15.5665644448      20.0000000000
7279 2      13.4981127755      17.0000000000
7280 2      14.8797359920      20.0000000000
7281 2      14.5604086666      18.0000000000
7282 2      14.8048417202      20.0000000000
7283 2      14.9138515692      17.0000000000
7284 2      15.1589895765      17.0000000000
7285 2      14.3624349597      19.0000000000
7286 2      19.3651447822      20.0000000000
7287 2      16.2077777947      20.0000000000
7288 2      15.3714111069      21.0000000000
7289 2      13.9788573814      16.0000000000
7290 2      12.3855924317      16.0000000000
7291 2      15.7126416924      17.0000000000
7292 2      15.8880716710      18.0000000000
7293 2      14.9099494315      18.0000000000
7294 2      11.7712314159      14.0000000000
7295 2      12.3702918795      15.0000000000
7296 2      14.6357420441      15.0000000000
7297 2      17.5111386932      20.0000000000
7298 2      15.1449327481      18.0000000000
7299 2      14.0543437828      14.0000000000
7300 2      13.1751768227      15.0000000000
7301 2      15.0517452535      17.0000000000
7302 2      14.1049767731      18.0000000000
7303 2      14.9939789917      19.0000000000
7304 2      14.1336252178      21.0000000000
7305 2      14.3343418999      16.0000000000
7306 2      14.4382503744      18.0000000000
7307 2      15.5121832273      14.0000000000
7308 2      16.3469925808      17.0000000000
7309 2      15.0215257420      22.0000000000
7310 2      11.9511931658      19.0000000000
7311 2      14.7415486963      19.0000000000
7312 2      13.7495236593      16.0000000000
7313 2      15.8558994028      14.0000000000
7314 2      13.9751242872      17.0000000000
7315 2      18.6667484413      23.0000000000
7316 2      14.5659092481      13.0000000000
7317 2      15.2637858903      16.0000000000
7318 2      14.8232429225      17.0000000000
7319 2      14.0938844289      14.0000000000
7320 2      14.3182917119      17.0000000000
7321 2      14.0790734795      17.0000000000
7322 2      16.0826585910      17.0000000000
7323 2      14.8138082861      18.0000000000
7324 2      17.0500702363      19.0000000000
7325 2      15.0779960569      17.0000000000
7326 2      14.2097571187      20.0000000000
7327 2      12.8043950992      16.0000000000
7328 2      15.5900112645      18.0000000000
7329 2      16.8254650280      14.0000000000
7330 2      16.3901032933      20.0000000000
7331 2      14.6680639535      19.0000000000
7332 2      16.5295147302      20.0000000000
7333 2      13.4503473924      18.0000000000
7334 2      14.3877056838      16.0000000000
7335 2      14.6579304967      16.0000000000
7336 2      16.4546055103      22.0000000000
7337 2      16.7388412724      16.0000000000
7338 2      12.4513196030      17.0000000000
7339 2      16.3024529229      19.0000000000
7340 2      14.4988057629      16.0000000000
7341 2      17.3239494590      20.0000000000
7342 2      13.1600582435      15.0000000000
7343 2      14.8696739280      15.0000000000
7344 2      15.5291244743      22.0000000000
7345 2      14.2320938026      17.0000000000
7346 2      13.0565001786      20.0000000000
7347 2      14.9755764033      19.0000000000
7348 2      18.0413447629      19.0000000000
7349 2      15.7967030809      23.0000000000
7350 2      14.4376011397      21.0000000000
7351 2      14.1175092543      15.0000000000
7352 2      15.5161140702      19.0000000000
7353 2      14.9144129132      18.0000000000
7354 2      13.8411187706      14.0000000000
7355 2      15.8006413649      19.0000000000
7356 2      15.3653270057      18.0000000000
7357 2      15.1548810275      18.0000000000
7358 2      15.2161891370      18.0000000000
7359 2      14.2134965700      18.0000000000
7360 2      14.6663960290      16.0000000000
7361 2      15.2434125942      16.0000000000
7362 2      17.5937123298      21.0000000000
7363 2      15.5295950873      18.0000000000
7364 2      13.1113536630      19.0000000000
7365 2      13.4206107341      17.0000000000
7366 2      17.1460050519      23.0000000000
7367 2      14.5353261443      16.0000000000
7368 2      13.7665171858      17.0000000000
7369 2      14.7282687333      19.0000000000
7370 2      13.9658846572      17.0000000000
7371 2      15.8700155357      18.0000000000
7372 2      17.7271408545      22.0000000000
7373 2      13.7343168236      16.0000000000
7374 2      15.7638670916      16.0000000000
7375 2      16.6027047920      21.0000000000
7376 2      19.9787057148      24.0000000000
7377 2      15.0234725273      23.0000000000
7378 2      15.6395595622      22.0000000000
7379 2      16.8115998423      20.0000000000
7380 2      15.7032210712      20.0000000000
7381 2      11.6157866239      16.0000000000
7382 2      15.6291902923      22.0000000000
7383 2      14.3369209100      17.0000000000
7384 2      12.0722316220      16.0000000000
7385 2      12.7395627804      14.0000000000
7386 2      13.6133409251      18.0000000000
7387 2      13.2609761217      18.0000000000
7388 2      12.8055369787      14.0000000000
7389 2      13.4817683416      16.0000000000
7390 2      14.5482432347      18.0000000000
7391 2      15.3123655537      17.0000000000
7392 2      14.5023076667      17.0000000000
7393 2      16.0148123933      13.0000000000
7394 2      14.7063493277      16.0000000000
7395 2      14.0820864817      15.0000000000
7396 2      16.0796315512      19.0000000000
7397 2      15.8303720524      17.0000000000
7398 2      12.6086351170      19.0000000000
7399 2      15.0986401753      16.0000000000
7400 2      13.6092947027      15.0000000000
7401 2      13.8254744192      17.0000000000
7402 2      13.2785030993      15.0000000000
7403 2      19.9412454662      20.0000000000
7404 2      14.7205712293      20.0000000000
7405 2      13.2876648332      16.0000000000
7406 2      16.3784265751      21.0000000000
7407 2      17.2041279101      22.0000000000
7408 2      18.5324039003      22.0000000000
7409 2      15.6785558495      19.0000000000
7410 2      12.8112207729      15.0000000000
7411 2      15.3023512244      14.0000000000
7412 2      14.3237599605      16.0000000000
7413 2      16.0728488971      15.0000000000
7414 2      14.5881641575      17.0000000000
7415 2      15.4351866896      16.0000000000
7416 2      17.9099107053      20.0000000000
7417 2      14.8398660053      17.0000000000
7418 2      14.1085856227      15.0000000000
7419 2      13.4359147260      16.0000000000
7420 2      12.5983019374      15.0000000000
7421 2      12.6430655218      18.0000000000
7422 2      16.0728636854      20.0000000000
7423 2      16.0446709941      17.0000000000
7424 2      17.4463419183      17.0000000000
7425 2      13.6249001953      18.0000000000
7426 2      13.1432648205      16.0000000000
7427 2      13.4172583959      16.0000000000
7428 2      14.5246296194      19.0000000000
7429 2      14.5763004253      18.0000000000
7430 2      12.2829866326      14.0000000000
7431 2      15.2770091871      17.0000000000
7432 2      16.6462154571      18.0000000000
7433 2      14.6434030243      15.0000000000
7434 2      11.4274424931      16.0000000000
7435 2      13.5172231739      16.0000000000
7436 2      17.5964835540      21.0000000000
7437 2      13.7979221392      17.0000000000
7438 2      14.7636102257      19.0000000000
7439 2      16.3594941914      21.0000000000
7440 2      15.6622086697      15.0000000000
7441 2      14.8327371910      20.0000000000
7442 2      14.0253629091      20.0000000000
7443 2      15.9892790140      18.0000000000
7444 2      15.3805229617      17.0000000000
7445 2      14.9595303882      18.0000000000
7446 2      13.8042957085      21.0000000000
7447 2      12.9063736677      15.0000000000
7448 2      12.8002649825      17.0000000000
7449 2      12.0393897216      17.0000000000
7450 2      13.3318330691      17.0000000000
7451 2      14.1914460295      15.0000000000
7452 2      12.8717286620      18.0000000000
7453 2      12.6338025556      14.0000000000
7454 2      12.6485651582      17.0000000000
7455 2      16.6756086688      21.0000000000
7456 2      17.7491655085      19.0000000000
7457 2      13.1210591313      17.0000000000
7458 2      14.9311957216      16.0000000000
7459 2      13.2723168106      14.0000000000
7460 2      12.7877253720      16.0000000000
7461 2      15.2213151659      20.0000000000
7462 2      14.1745861297      15.0000000000
7463 2      12.8563841901      14.0000000000
7464 2      13.9897097430      16.0000000000
7465 2      13.3606800077      21.0000000000
7466 2      14.4815877509      17.0000000000
7467 2      14.2410854599      16.0000000000
7468 2      15.1371554603      18.0000000000
7469 2      13.4931297509      15.0000000000
7470 2      16.1562399718      18.0000000000
7471 2      13.9235605437      17.0000000000
7472 2      14.3538111370      19.0000000000
7473 2      13.4251225289      22.0000000000
7474 2      13.4472817891      13.0000000000
7475 2      14.2420803635      19.0000000000
7476 2      15.9881109695      20.0000000000
7477 2      15.9027198839      22.0000000000
7478 2      14.1937934670      16.0000000000
7479 2      13.1303701250      18.0000000000
7480 2      15.5404522866      21.0000000000
7481 2      15.1068357572      16.0000000000
7482 2      14.4325910390      20.0000000000
7483 2      12.9297421867      16.0000000000
7484 2      12.9655355607      17.0000000000
7485 2      16.0463161299      18.0000000000
7486 2      14.9584269184      22.0000000000
7487 2      16.7765871534      17.0000000000
7488 2      13.6457985125      17.0000000000
7489 2      13.4700734036      15.0000000000
7490 2      15.1729224832      17.0000000000
7491 2      15.2308249657      18.0000000000
7492 2      15.5654551864      16.0000000000
7493 2      17.5960697637      24.0000000000
7494 2      15.5068809609      18.0000000000
7495 2      12.9788687644      16.0000000000
7496 2      14.2490123729      17.0000000000
7497 2      13.9568631823      18.0000000000
7498 2      16.7193689403      20.0000000000
7499 2      14.9753337820      22.0000000000
7500 2      13.2314636220      15.0000000000
7501 2      13.6212334368      17.0000000000
7502 2      14.7335290766      19.0000000000
7503 2      13.6833802490      17.0000000000
7504 2      19.0613822304      24.0000000000
7505 2      12.4128932438      17.0000000000
7506 2      13.9381393908      18.0000000000
7507 2      14.6401460714      19.0000000000
7508 2      18.5528382833      23.0000000000
7509 2      13.0480476032      19.0000000000
7510 2      13.6481664015      16.0000000000
7511 2      15.2131965138      17.0000000000
7512 2      15.0145306676      20.0000000000
7513 2      17.1396534272      21.0000000000
7514 2      13.0748825811      17.0000000000
7515 2      14.3485312969      19.0000000000
7516 2      16.5786652341      20.0000000000
7517 2      12.8066382110      16.0000000000
7518 2      16.1679722869      20.0000000000
7519 2      12.1209494268      16.0000000000
7520 2      15.1095891029      20.0000000000
7521 2      13.0952817452      18.0000000000
7522 2      13.8174254585      18.0000000000
7523 2      15.1149364100      18.0000000000
7524 2      11.7390424959      17.0000000000
7525 2      13.5376241194      16.0000000000
7526 2      12.7627309380      16.0000000000
7527 2      13.2274160894      16.0000000000
7528 2      18.4506066389      19.0000000000
7529 2      15.0545889743      21.0000000000
7530 2      13.4616422696      15.0000000000
7531 2      15.2878968787      23.0000000000
7532 2      17.0209268553      17.0000000000
7533 2      13.6358431063      18.0000000000
7534 2      13.7474471029      17.0000000000
7535 2      15.5345859967      18.0000000000
7536 2      14.4989280785      17.0000000000
7537 2      10.9611216034      15.0000000000
7538 2      14.0158522517      20.0000000000
7539 2      16.1758248913      17.0000000000
7540 2      12.7118439701      19.0000000000
7541 2      13.0699815139      17.0000000000
7542 2      16.0014652950      17.0000000000
7543 2      15.7667014592      18.0000000000
7544 2      15.6007039092      21.0000000000
7545 2      19.9919370680      22.0000000000
7546 2      16.1915256452      18.0000000000
7547 2      14.1792248630      15.0000000000
7548 2      15.6321941015      21.0000000000
7549 2      15.5834453025      17.0000000000
7550 2      12.7746359524      15.0000000000
7551 2      12.2862851853      13.0000000000
7552 2      13.6705777636      17.0000000000
7553 2      14.0763913119      18.0000000000
7554 2      15.9100969393      20.0000000000
7555 2      14.4359897512      16.0000000000
7556 2      15.4213603467      22.0000000000
7557 2      16.4272860021      19.0000000000
7558 2      12.3884771623      17.0000000000
7559 2      13.7891500445      15.0000000000
7560 2      17.0213378933      20.0000000000
7561 2      13.5645008204      16.0000000000
7562 2      14.3665627687      16.0000000000
7563 2      14.7625614741      17.0000000000
7564 2      15.7353968330      18.0000000000
7565 2      12.0852350372      15.0000000000
7566 2      14.0227826842      17.0000000000
7567 2      12.9897630881      17.0000000000
7568 2      12.5495265972      16.0000000000
7569 2      12.7999673421      18.0000000000
7570 2      15.0145725003      19.0000000000
7571 2      15.1370896960      18.0000000000
7572 2      13.4228948673      18.0000000000
7573 2      16.2436534641      20.0000000000
7574 2      14.4345198637      15.0000000000
7575 2      14.1886762067      19.0000000000
7576 2      13.9109867937      19.0000000000
7577 2      15.6058285347      24.0000000000
7578 2      15.7556544509      17.0000000000
7579 2      14.9592991495      15.0000000000
7580 2      13.1706647568      18.0000000000
7581 2      15.1324374970      20.0000000000
7582 2      14.4106926934      18.0000000000
7583 2      15.1386856450      17.0000000000
7584 2      19.1784427272      19.0000000000
7585 2      14.6194817904      18.0000000000
7586 2      15.0178183783      16.0000000000
7587 2      14.2310642988      18.0000000000
7588 2      15.4569528076      18.0000000000
7589 2      14.1407391668      21.0000000000
7590 2      11.3549620709      16.0000000000
7591 2      16.1591225254      18.0000000000
7592 2      14.5754760061      16.0000000000
7593 2      13.1764694009      15.0000000000
7594 2      12.7586591546      16.0000000000
7595 2      14.7544760123      18.0000000000
7596 2      12.7752564840      15.0000000000
7597 2      12.9232671837      17.0000000000
7598 2      13.9222068213      17.0000000000
7599 2      15.5487290746      19.0000000000
7600 2      11.2608215532      14.0000000000
7601 2      14.5926500962      17.0000000000
7602 2      15.7083555508      20.0000000000
7603 2      13.7850319186      18.0000000000
7604 2      14.7317354097      18.0000000000
7605 2      16.0917374840      17.0000000000
7606 2      12.2999711589      19.0000000000
7607 2      17.6399391285      21.0000000000
7608 2      15.5815466394      18.0000000000
7609 2      12.9102576230      14.0000000000
7610 2      15.2856383344      17.0000000000
7611 2      12.2334268197      15.0000000000
7612 2      14.2186485305      14.0000000000
7613 2      14.7632631979      17.0000000000
7614 2      14.5946789385      17.0000000000
7615 2      17.1813313061      23.0000000000
7616 2      12.9907135002      16.0000000000
7617 2      16.5729387601      20.0000000000
7618 2      14.9080877272      21.0000000000
7619 2      13.3620544566      16.0000000000
7620 2      12.9139863037      15.0000000000
7621 2      16.5930131030      21.0000000000
7622 2      15.5424616676      21.0000000000
7623 2      12.9982216118      18.0000000000
7624 2      15.4240979641      15.0000000000
7625 2      14.5106464908      15.0000000000
7626 2      15.3727900769      16.0000000000
7627 2      13.0556382371      18.0000000000
7628 2      17.6977094021      16.0000000000
7629 2      14.0663981551      19.0000000000
7630 2      14.2551361092      20.0000000000
7631 2      14.6691564197      16.0000000000
7632 2      15.6279048162      21.0000000000
7633 2      14.4842028694      18.0000000000
7634 2      15.9469297823      18.0000000000
7635 2      14.4617375470      17.0000000000
7636 2      13.0728900270      16.0000000000
7637 2      13.6930958125      19.0000000000
7638 2      15.6391080431      25.0000000000
7639 2      15.0916814645      19.0000000000
7640 2      14.3438497268      22.0000000000
7641 2      13.4709380049      17.0000000000
7642 2      13.2131571551      15.0000000000
7643 2      14.4587641714      16.0000000000
7644 2      14.4748555041      16.0000000000
7645 2      13.8994111922      20.0000000000
7646 2      14.6251811598      23.0000000000
7647 2      17.1583227628      15.0000000000
7648 2      17.7014693574      21.0000000000
7649 2      17.0221849819      18.0000000000
7650 2      15.3286635599      17.0000000000
7651 2      13.1120727937      17.0000000000
7652 2      15.7134166904      17.0000000000
7653 2      13.3947393251      19.0000000000
7654 2      15.2569041576      18.0000000000
7655 2      15.1081155853      21.0000000000
7656 2      14.9677110488      17.0000000000
7657 2      17.8478720392      21.0000000000
7658 2      15.2429287421      19.0000000000
7659 2      17.9587759938      23.0000000000
7660 2      15.2318586600      16.0000000000
7661 2      17.9948266453      19.0000000000
7662 2      13.4219721122      17.0000000000
7663 2      17.1388796457      20.0000000000
7664 2      14.7864143481      17.0000000000
7665 2      14.8169294266      17.0000000000
7666 2      15.6824619050      19.0000000000
7667 2      15.6181827542      14.0000000000
7668 2      16.8501895418      23.0000000000
7669 2      13.3950388165      17.0000000000
7670 2      12.2100624700      17.0000000000
7671 2      11.6164688566      12.0000000000
7672 2      13.3378134469      15.0000000000
7673 2      16.5445154669      17.0000000000
7674 2      15.4545560635      21.0000000000
7675 2      14.2947505297      21.0000000000
7676 2      14.4630577342      14.0000000000
7677 2      12.0447443556      14.0000000000
7678 2      14.3825348677      18.0000000000
7679 2      18.0775357905      21.0000000000
7680 2      17.0897263958      21.0000000000
7681 2      13.6847512510      17.0000000000
7682 2      14.3567689587      20.0000000000
7683 2      13.8505482450      18.0000000000
7684 2      15.2866819959      23.0000000000
7685 2      20.1693380237      15.0000000000
7686 2      16.8282924519      18.0000000000
7687 2      15.5897927553      17.0000000000
7688 2      13.8416913693      16.0000000000
7689 2      13.0108969216      18.0000000000
7690 2      12.1801057588      15.0000000000
7691 2      12.9102210406      15.0000000000
7692 2      13.2280965104      15.0000000000
7693 2      18.3260867919      16.0000000000
7694 2      15.9089170844      17.0000000000
7695 2      16.4477356363      20.0000000000
7696 2      14.1297487226      20.0000000000
7697 2      13.6411455644      17.0000000000
7698 2      16.6265609974      20.0000000000
7699 2      17.4130709600      20.0000000000
7700 2      14.5435714786      22.0000000000
7701 2      12.4898424166      14.0000000000
7702 2      13.5390268512      15.0000000000
7703 2      14.8013565613      19.0000000000
7704 2      14.0681251871      19.0000000000
7705 2      14.5595139250      16.0000000000
7706 2      12.3379687895      15.0000000000
7707 2      16.8663340971      16.0000000000
7708 2      17.3949590499      14.0000000000
7709 2      14.4308570186      16.0000000000
7710 2      13.8176670794      13.0000000000
7711 2      14.9561400632      18.0000000000
7712 2      14.5837469535      22.0000000000
7713 2      13.3265193157      16.0000000000
7714 2      14.5084613665      15.0000000000
7715 2      14.8034393437      18.0000000000
7716 2      14.1376885882      18.0000000000
7717 2      14.8757632543      13.0000000000
7718 2      16.6032196266      19.0000000000
7719 2      14.8879516960      20.0000000000
7720 2      12.3261869084      15.0000000000
7721 2      14.3414621970      17.0000000000
7722 2      14.0326250344      16.0000000000
7723 2      15.8026005251      17.0000000000
7724 2      13.1046115579      15.0000000000
7725 2      14.6012549696      19.0000000000
7726 2      13.3532184627      16.0000000000
7727 2      13.8303319285      15.0000000000
7728 2      13.9118496840      16.0000000000
7729 2      13.3512428327      20.0000000000
7730 2      12.8161375829      18.0000000000
7731 2      15.0285910961      17.0000000000
7732 2      15.8199697878      17.0000000000
7733 2      17.5075271061      19.0000000000
7734 2      17.4592317542      21.0000000000
7735 2      17.2399359870      21.0000000000
7736 2      13.8961227634      18.0000000000
7737 2      17.2458271006      17.0000000000
7738 2      15.3652146048      18.0000000000
7739 2      16.0375759022      20.0000000000
7740 2      14.1858699468      18.0000000000
7741 2      15.9723323281      22.0000000000
7742 2      13.5992221128      20.0000000000
7743 2      14.8198166328      18.0000000000
7744 2      14.0064745499      15.0000000000
7745 2      14.6478794842      16.0000000000
7746 2      13.1877696413      14.0000000000
7747 2      15.5936643658      17.0000000000
7748 2      15.9216063038      16.0000000000
7749 2      12.8584452578      19.0000000000
7750 2      15.0310119848      19.0000000000
7751 2      14.6948297496      20.0000000000
7752 2      14.8584271952      18.0000000000
7753 2      12.5405435453      15.0000000000
7754 2      15.7771532592      14.0000000000
7755 2      17.8058704105      23.0000000000
7756 2      13.9651471462      15.0000000000
7757 2      14.1770253821      19.0000000000
7758 2      14.6038286978      17.0000000000
7759 2      12.8272159800      16.0000000000
7760 2      13.7984064193      16.0000000000
7761 2      14.8645264287      17.0000000000
7762 2      15.2114343341      19.0000000000
7763 2      14.5646889004      18.0000000000
7764 2      17.6578055139      22.0000000000
7765 2      13.9442849213      19.0000000000
7766 2      14.7310090759      21.0000000000
7767 2      14.0632111212      19.0000000000
7768 2      19.7692782457      20.0000000000
7769 2      15.8983356798      21.0000000000
7770 2      13.2006811138      15.0000000000
7771 2      15.4525013882      17.0000000000
7772 2      16.3732785926      22.0000000000
7773 2      14.8622088819      17.0000000000
7774 2      13.0994255346      13.0000000000
7775 2      14.8524909429      16.0000000000
7776 2      14.9215079558      19.0000000000
7777 2      15.2790849233      21.0000000000
7778 2      16.8673194259      18.0000000000
7779 2      16.0502270947      21.0000000000
7780 2      14.1716658396      15.0000000000
7781 2      13.9919182766      17.0000000000
7782 2      15.2322287481      20.0000000000
7783 2      13.2938341151      18.0000000000
7784 2      12.7543549811      17.0000000000
7785 2      13.4348182358      20.0000000000
7786 2      15.5576606641      20.0000000000
7787 2      16.2830824479      18.0000000000
7788 2      15.1412160675      19.0000000000
7789 2      13.1302904779      17.0000000000
7790 2      13.6510084678      16.0000000000
7791 2      14.7060230307      17.0000000000
7792 2      14.0778016849      16.0000000000
7793 2      14.6829173385      17.0000000000
7794 2      12.4913218056      16.0000000000
7795 2      14.0166911072      15.0000000000
7796 2      13.4989759736      15.0000000000
7797 2      14.4894283684      17.0000000000
7798 2      13.8971538873      17.0000000000
7799 2      14.6837711814      19.0000000000
7800 2      15.4589787794      21.0000000000
7801 2      17.8106275325      24.0000000000
7802 2      17.6268098365      23.0000000000
7803 2      13.8623766401      17.0000000000
7804 2      18.1346476780      20.0000000000
7805 2      13.0569260291      18.0000000000
7806 2      16.1319588591      18.0000000000
7807 2      13.6677121907      14.0000000000
7808 2      16.9471484531      20.0000000000
7809 2      16.7715818816      16.0000000000
7810 2      13.7830528297      17.0000000000
7811 2      13.5459848070      15.0000000000
7812 2      14.9648803964      20.0000000000
7813 2      13.8265484222      16.0000000000
7814 2      14.8280767119      15.0000000000
7815 2      13.9926033030      18.0000000000
7816 2      16.0738994455      19.0000000000
7817 2      17.2891052443      16.0000000000
7818 2      14.9143235455      18.0000000000
7819 2      14.0151316593      19.0000000000
7820 2      14.1846662478      20.0000000000
7821 2      13.2919272592      16.0000000000
7822 2      15.7264142671      18.0000000000
7823 2      13.6239837850      16.0000000000
7824 2      16.6767736044      20.0000000000
7825 2      14.1340068045      16.0000000000
7826 2      14.4302594711      20.0000000000
7827 2      14.8132546477      19.0000000000
7828 2      19.4382572831      21.0000000000
7829 2      12.6211315661      15.0000000000
7830 2      12.7757998126      18.0000000000
7831 2      13.6747464797      16.0000000000
7832 2      15.2598905208      17.0000000000
7833 2      14.0304350978      17.0000000000
7834 2      17.5719294901      21.0000000000
7835 2      16.6388003598      15.0000000000
7836 2      15.1353286971      16.0000000000
7837 2      17.0648559712      20.0000000000
7838 2      14.3742007210      16.0000000000
7839 2      13.4879906054      17.0000000000
7840 2      15.7948987199      18.0000000000
7841 2      18.1062434132      22.0000000000
7842 2      14.2418281145      18.0000000000
7843 2      17.8286656335      18.0000000000
7844 2      12.7962083658      14.0000000000
7845 2      13.3885658592      16.0000000000
7846 2      14.7957323273      19.0000000000
7847 2      14.5466627937      20.0000000000
7848 2      12.5514146743      15.0000000000
7849 2      13.6786094564      19.0000000000
7850 2      16.8511892873      23.0000000000
7851 2      14.2689251861      16.0000000000
7852 2      14.5918071709      15.0000000000
7853 2      16.0971237495      13.0000000000
7854 2      13.5049207793      16.0000000000
7855 2      15.9831837155      17.0000000000
7856 2      17.1088888856      21.0000000000
7857 2      14.3266221786      18.0000000000
7858 2      11.8484858535      15.0000000000
7859 2      15.1921925923      20.0000000000
7860 2      18.0899832011      16.0000000000
7861 2      13.2333516610      18.0000000000
7862 2      15.0340451796      18.0000000000
7863 2      15.5077804806      17.0000000000
7864 2      13.9441098676      16.0000000000
7865 2      15.6681014166      18.0000000000
7866 2      14.9816966897      20.0000000000
7867 2      16.2916693335      19.0000000000
7868 2      13.2834387572      16.0000000000
7869 2      14.8929670750      18.0000000000
7870 2      18.0003458992      24.0000000000
7871 2      13.2196411911      15.0000000000
7872 2      17.4427950233      22.0000000000
7873 2      16.8521042897      13.0000000000
7874 2      17.5383131586      20.0000000000
7875 2      14.0717634516      19.0000000000
7876 2      13.8505069384      17.0000000000
7877 2      15.2250156242      21.0000000000
7878 2      14.3985930347      18.0000000000
7879 2      14.3304501277      18.0000000000
7880 2      16.6144236693      18.0000000000
7881 2      17.8289038207      21.0000000000
7882 2      15.3264633510      20.0000000000
7883 2      14.1789326628      16.0000000000
7884 2      12.8163298311      12.0000000000
7885 2      14.5195903201      15.0000000000
7886 2      17.2109676780      22.0000000000
7887 2      11.8957931779      16.0000000000
7888 2      13.8753117234      15.0000000000
7889 2      14.7005338236      17.0000000000
7890 2      17.3356643621      21.0000000000
7891 2      13.0825325453      15.0000000000
7892 2      15.3745210351      16.0000000000
7893 2      14.5635886636      14.0000000000
7894 2      13.1793335227      18.0000000000
7895 2      12.7726180294      16.0000000000
7896 2      15.0590960258      17.0000000000
7897 2      12.4299669669      16.0000000000
7898 2      14.5366282632      22.0000000000
7899 2      15.9255340887      17.0000000000
7900 2      10.6307435660      14.0000000000
7901 2      12.6826813997      17.0000000000
7902 2      16.4805356118      14.0000000000
7903 2      15.3848297739      20.0000000000
7904 2      14.9179919124      15.0000000000
7905 2      14.9876311769      18.0000000000
7906 2      13.1560123760      16.0000000000
7907 2      16.0574291099      21.0000000000
7908 2      15.1760642357      21.0000000000
7909 2      13.3273179901      17.0000000000
7910 2      15.0239352769      15.0000000000
7911 2      13.5420019362      18.0000000000
7912 2      15.7292059542      20.0000000000
7913 2      18.8553589232      18.0000000000
7914 2      14.7388767852      20.0000000000
7915 2      13.2087964853      20.0000000000
7916 2      15.6072996368      20.0000000000
7917 2      14.6468579580      17.0000000000
7918 2      17.8350666010      19.0000000000
7919 2      12.9684928200      15.0000000000
7920 2      14.4790553721      19.0000000000
7921 2      17.4217495734      17.0000000000
7922 2      14.2731435475      20.0000000000
7923 2      14.9076999868      20.0000000000
7924 2      13.1417938069      15.0000000000
7925 2      16.8657685847      18.0000000000
7926 2      15.9139933622      16.0000000000
7927 2      13.7926475853      18.0000000000
7928 2      13.5411808362      17.0000000000
7929 2      15.6508130430      20.0000000000
7930 2      12.4426364577      15.0000000000
7931 2      15.1911021554      19.0000000000
7932 2      16.1665742981      17.0000000000
7933 2      16.0842803303      19.0000000000
7934 2      13.4461230632      18.0000000000
7935 2      15.3565395969      17.0000000000
7936 2      15.4246758936      20.0000000000
7937 2      13.9243039497      15.0000000000
7938 2      16.3262171406      19.0000000000
7939 2      16.0871861769      21.0000000000
7940 2      15.5476230037      18.0000000000
7941 2      16.7905572222      21.0000000000
7942 2      14.1871319731      18.0000000000
7943 2      14.0133160314      18.0000000000
7944 2      16.6727608962      19.0000000000
7945 2      14.6952744824      19.0000000000
7946 2      14.4539914988      20.0000000000
7947 2      16.4302101750      19.0000000000
7948 2      13.7012041366      14.0000000000
7949 2      15.5386519514      20.0000000000
7950 2      15.3486109663      18.0000000000
7951 2      14.3134481529      16.0000000000
7952 2      15.5160018779      19.0000000000
7953 2      14.4973232749      16.0000000000
7954 2      13.5157477912      14.0000000000
7955 2      15.1988457293      17.0000000000
7956 2      13.3663632749      16.0000000000
7957 2      12.8732114806      19.0000000000
7958 2      14.4706096515      15.0000000000
7959 2      12.2828209197      14.0000000000
7960 2      13.4709914142      16.0000000000
7961 2      16.2185018296      21.0000000000
7962 2      16.7684239041      19.0000000000
7963 2      15.7671818295      16.0000000000
7964 2      14.3874774659      18.0000000000
7965 2      14.1788814734      16.0000000000
7966 2      14.7437573170      20.0000000000
7967 2      12.7743208890      18.0000000000
7968 2      14.2646198035      17.0000000000
7969 2      14.8187224210      14.0000000000
7970 2      13.2273836818      16.0000000000
7971 2      13.5946585475      21.0000000000
7972 2      14.7936985075      18.0000000000
7973 2      14.6145099082      18.0000000000
7974 2      13.4554696076      14.0000000000
7975 2      17.6949524992      19.0000000000
7976 2      14.0901358831      19.0000000000
7977 2      15.3689906083      18.0000000000
7978 2      13.6903876125      18.0000000000
7979 2      15.9648618411      17.0000000000
7980 2      14.4555880571      19.0000000000
7981 2      14.9104531173      17.0000000000
7982 2      14.8261014971      17.0000000000
7983 2      17.0862692233      22.0000000000
7984 2      13.0990137811      17.0000000000
7985 2      13.6409645962      18.0000000000
7986 2      13.2407468716      18.0000000000
7987 2      14.2427410739      18.0000000000
7988 2      13.7048427440      17.0000000000
7989 2      15.9324172594      17.0000000000
7990 2      15.2985847217      20.0000000000
7991 2      14.1139367768      20.0000000000
7992 2      14.8630660811      16.0000000000
7993 2      14.0750158594      15.0000000000
7994 2      13.9337806046      19.0000000000
7995 2      17.1542418869      19.0000000000
7996 2      12.7001206109      15.0000000000
7997 2      16.9076592828      19.0000000000
7998 2      16.2041648433      19.0000000000
7999 2      15.2187983027      20.0000000000
8000 2      14.5515914815      19.0000000000
8001 2      13.1096833789      15.0000000000
8002 2      16.4219698810      19.0000000000
8003 2      14.2033154178      18.0000000000
8004 2      15.1362954133      17.0000000000
8005 2      14.4241678135      18.0000000000
8006 2      15.0020752515      19.0000000000
8007 2      15.1767123553      16.0000000000
8008 2      14.0287476228      17.0000000000
8009 2      14.9021168754      20.0000000000
8010 2      15.8630953489      17.0000000000
8011 2      14.2909248566      21.0000000000
8012 2      16.5630283326      17.0000000000
8013 2      13.0832559946      18.0000000000
8014 2      15.8640561965      19.0000000000
8015 2      16.0372631372      19.0000000000
8016 2      16.4622768403      17.0000000000
8017 2      15.2265824768      18.0000000000
8018 2      16.4924685924      17.0000000000
8019 2      14.0312549991      20.0000000000
8020 2      14.7350386077      17.0000000000
8021 2      14.4571164661      18.0000000000
8022 2      18.0189996653      20.0000000000
8023 2      15.4491921431      18.0000000000
8024 2      15.6487623130      20.0000000000
8025 2      15.8265910919      20.0000000000
8026 2      15.9599825741      18.0000000000
8027 2      14.5096895775      18.0000000000
8028 2      15.8181697294      14.0000000000
8029 2      15.9888525112      20.0000000000
8030 2      14.7202022578      19.0000000000
8031 2      18.9600487006      19.0000000000
8032 2      16.5622124119      20.0000000000
8033 2      12.5118688918      16.0000000000
8034 2      15.3059682818      18.0000000000
8035 2      13.8092868473      17.0000000000
8036 2      18.1330775706      22.0000000000
8037 2      15.2523673712      18.0000000000
8038 2      16.4763521653      23.0000000000
8039 2      14.6570040747      17.0000000000
8040 2      13.2123261101      19.0000000000
8041 2      15.2332122324      20.0000000000
8042 2      16.7490305617      19.0000000000
8043 2      17.0735621692      18.0000000000
8044 2      14.7478166404      18.0000000000
8045 2      19.3394914639      20.0000000000
8046 2      14.4871555721      13.0000000000
8047 2      18.6970938777      20.0000000000
8048 2      14.8485771046      20.0000000000
8049 2      15.2901775297      19.0000000000
8050 2      13.7113297843      16.0000000000
8051 2      13.6097081891      19.0000000000
8052 2      13.5005575576      17.0000000000
8053 2      16.9303585160      15.0000000000
8054 2      14.7097367918      16.0000000000
8055 2      13.3212925218      16.0000000000
8056 2      11.9096518064      12.0000000000
8057 2      14.5370243746      18.0000000000
8058 2      13.0828424625      18.0000000000
8059 2      14.7823152205      18.0000000000
8060 2      15.7463445159      19.0000000000
8061 2      14.4257294577      19.0000000000
8062 2      13.6330812098      18.0000000000
8063 2      16.2619660252      20.0000000000
8064 2      13.4365446450      15.0000000000
8065 2      14.5661831163      20.0000000000
8066 2      16.1985718905      18.0000000000
8067 2      12.4327890172      16.0000000000
8068 2      14.6873489592      19.0000000000
8069 2      15.4216158596      19.0000000000
8070 2      15.8890743287      17.0000000000
8071 2      13.4129686153      20.0000000000
8072 2      14.4103138584      17.0000000000
8073 2      18.5407262202      20.0000000000
8074 2      16.7248761110      15.0000000000
8075 2      13.5860164817      15.0000000000
8076 2      17.3387802385      17.0000000000
8077 2      16.3517849731      17.0000000000
8078 2      16.3769770917      18.0000000000
8079 2      12.7633476405      16.0000000000
8080 2      14.3949647880      20.0000000000
8081 2      12.0667624484      13.0000000000
8082 2      15.4053879920      15.0000000000
8083 2      13.8765381452      16.0000000000
8084 2      13.8168726345      16.0000000000
8085 2      15.0957171686      15.0000000000
8086 2      16.1031079822      23.0000000000
8087 2      16.0915960248      18.0000000000
8088 2      15.6967725059      15.0000000000
8089 2      12.8890709184      15.0000000000
8090 2      15.7060915570      17.0000000000
8091 2      10.3743468074      14.0000000000
8092 2      16.1244691816      21.0000000000
8093 2      13.2264255321      17.0000000000
8094 2      12.6766193978      18.0000000000
8095 2      13.0056177310      16.0000000000
8096 2      13.4738837534      18.0000000000
8097 2      15.1311398175      19.0000000000
8098 2      13.9954688839      17.0000000000
8099 2      14.4999196916      18.0000000000
8100 2      14.0741224227      19.0000000000
8101 2      13.4667217495      20.0000000000
8102 2      14.5106569746      13.0000000000
8103 2      15.6118547658      18.0000000000
8104 2      13.9783824168      19.0000000000
8105 2      14.2640207515      16.0000000000
8106 2      15.7780452332      18.0000000000
8107 2      14.4276815308      14.0000000000
8108 2      14.0342031634      16.0000000000
8109 2      13.1883285724      17.0000000000
8110 2      17.1909477392      19.0000000000
8111 2      13.3573675003      15.0000000000
8112 2      14.7701126303      19.0000000000
8113 2      13.2771887299      17.0000000000
8114 2      17.0003612309      22.0000000000
8115 2      12.2009413315      13.0000000000
8116 2      15.0199287221      21.0000000000
8117 2      13.9957206428      16.0000000000
8118 2      12.5254618903      16.0000000000
8119 2      14.3104386286      14.0000000000
8120 2      13.1768317586      17.0000000000
8121 2      15.3927932204      20.0000000000
8122 2      13.3536783888      18.0000000000
8123 2      15.5085869969      20.0000000000
8124 2      14.0620131040      17.0000000000
8125 2      15.4403469791      20.0000000000
8126 2      16.4172377690      18.0000000000
8127 2      15.3290272703      22.0000000000
8128 2      14.1521964085      17.0000000000
8129 2      15.8541923047      19.0000000000
8130 2      15.0902400179      16.0000000000
8131 2      14.1310207662      19.0000000000
8132 2      12.2367113807      14.0000000000
8133 2      14.2074696979      16.0000000000
8134 2      12.5565002669      16.0000000000
8135 2      13.9378429599      18.0000000000
8136 2      14.6080701920      20.0000000000
8137 2      12.5296801999      18.0000000000
8138 2      14.8524819487      20.0000000000
8139 2      14.8998717322      21.0000000000
8140 2      12.2580195088      17.0000000000
8141 2      14.5240989606      16.0000000000
8142 2      15.0627207262      18.0000000000
8143 2      13.7734765731      18.0000000000
8144 2      17.7013654901      21.0000000000
8145 2      13.6919023493      15.0000000000
8146 2      16.8999913066      20.0000000000
8147 2      14.1078161444      18.0000000000
8148 2      13.8656965759      16.0000000000
8149 2      16.6558939830      16.0000000000
8150 2      13.6579766231      20.0000000000
8151 2      15.0684967137      21.0000000000
8152 2      13.3876756746      16.0000000000
8153 2      15.2836390199      18.0000000000
8154 2      15.2040751275      19.0000000000
8155 2      13.5793975764      15.0000000000
8156 2      15.4006974941      16.0000000000
8157 2      16.4962850117      19.0000000000
8158 2      12.2047745827      16.0000000000
8159 2      13.2610758143      17.0000000000
8160 2      16.3181667660      18.0000000000
8161 2      14.0977105837      17.0000000000
8162 2      14.2270943887      19.0000000000
8163 2      14.5740017450      19.0000000000
8164 2      12.5233199195      16.0000000000
8165 2      13.8552394799      12.0000000000
8166 2      12.9879470243      14.0000000000
8167 2      13.1162667490      15.0000000000
8168 2      14.1040472924      20.0000000000
8169 2      14.7973996665      17.0000000000
8170 2      15.0869543578      18.0000000000
8171 2      14.6757385044      16.0000000000
8172 2      14.0804107300      18.0000000000
8173 2      13.9887024438      16.0000000000
8174 2      16.1603231492      18.0000000000
8175 2      15.0365768706      20.0000000000
8176 2      15.5855972669      14.0000000000
8177 2      14.4744697066      15.0000000000
8178 2      17.5709039419      22.0000000000
8179 2      13.4365826152      18.0000000000
8180 2      15.2728563913      18.0000000000
8181 2      14.8353055560      21.0000000000
8182 2      14.5589604786      19.0000000000
8183 2      14.8726000274      18.0000000000
8184 2      13.6740854731      18.0000000000
8185 2      15.9558035332      18.0000000000
8186 2      14.7746894595      19.0000000000
8187 2      16.4259174765      22.0000000000
8188 2      17.9308051921      22.0000000000
8189 2      18.1519172508      21.0000000000
8190 2      17.0106333721      19.0000000000
8191 2      13.9500034700      16.0000000000
8192 2      16.5412630385      19.0000000000
8193 2      13.1597391225      17.0000000000
8194 2      16.8182354084      17.0000000000
8195 2      15.1114906981      15.0000000000
8196 2      13.5849524325      17.0000000000
8197 2      15.7776701453      19.0000000000
8198 2      14.4618170258      18.0000000000
8199 2      14.6680391117      18.0000000000
8200 2      16.1268554198      16.0000000000
8201 2      14.1492875326      16.0000000000
8202 2      15.3772102801      22.0000000000
8203 2      15.1261177018      17.0000000000
8204 2      15.1056393650      17.0000000000
8205 2      15.2828413886      20.0000000000
8206 2      14.8569599063      15.0000000000
8207 2      14.2439659289      17.0000000000
8208 2      12.7542038729      19.0000000000
8209 2      14.4229930013      20.0000000000
8210 2      14.0178200315      17.0000000000
8211 2      12.9378813719      16.0000000000
8212 2      12.9836551024      15.0000000000
8213 2      17.7664737530      20.0000000000
8214 2      16.5056212698      17.0000000000
8215 2      12.9921964049      14.0000000000
8216 2      15.0158341974      17.0000000000
8217 2      12.1037787410      16.0000000000
8218 2      16.1087838892      18.0000000000
8219 2      16.2493639148      18.0000000000
8220 2      14.2303975257      20.0000000000
8221 2      14.1034081018      16.0000000000
8222 2      14.7316837479      19.0000000000
8223 2      14.8519845207      16.0000000000
8224 2      15.2467088411      17.0000000000
8225 2      12.0893290470      16.0000000000
8226 2      14.6612223089      19.0000000000
8227 2      15.1280920154      19.0000000000
8228 2      15.5135303043      19.0000000000
8229 2      14.8017188568      19.0000000000
8230 2      13.9246904601      16.0000000000
8231 2      13.5578192511      13.0000000000
8232 2      12.9793220605      18.0000000000
8233 2      16.2317266621      21.0000000000
8234 2      13.0258927550      13.0000000000
8235 2      14.4619629360      18.0000000000
8236 2      12.7605211314      14.0000000000
8237 2      14.9666632228      15.0000000000
8238 2      14.6932957017      16.0000000000
8239 2      15.7569462452      17.0000000000
8240 2      14.7949552056      20.0000000000
8241 2      15.9305553555      17.0000000000
8242 2      12.0768025828      14.0000000000
8243 2      12.6864473768      17.0000000000
8244 2      13.6426201956      16.0000000000
8245 2      13.1042695671      18.0000000000
8246 2      13.4951188242      17.0000000000
8247 2      14.8280572628      19.0000000000
8248 2      14.8608077578      21.0000000000
8249 2      16.1287614122      22.0000000000
8250 2      14.9370069148      18.0000000000
8251 2      14.2659951486      19.0000000000
8252 2      18.4360776595      21.0000000000
8253 2      14.0595891801      15.0000000000
8254 2      13.2075102506      11.0000000000
8255 2      15.4777677031      20.0000000000
8256 2      16.4493588456      20.0000000000
8257 2      13.6273351096      15.0000000000
8258 2      15.0447743776      18.0000000000
8259 2      16.6633901504      15.0000000000
8260 2      13.0915567897      16.0000000000
8261 2      15.7232399854      18.0000000000
8262 2      14.5591270365      17.0000000000
8263 2      13.7776597386      15.0000000000
8264 2      15.2936623862      17.0000000000
8265 2      15.7669721271      19.0000000000
8266 2      14.0984008352      20.0000000000
8267 2      13.7824838791      18.0000000000
8268 2      16.9859755308      20.0000000000
8269 2      15.1320877930      18.0000000000
8270 2      17.2753008692      22.0000000000
8271 2      13.5723547194      16.0000000000
8272 2      14.1340184339      17.0000000000
8273 2      13.7090022943      17.0000000000
8274 2      16.8584849216      18.0000000000
8275 2      16.3626222385      18.0000000000
8276 2      15.3221020616      16.0000000000
8277 2      17.7284820948      19.0000000000
8278 2      14.7803899591      17.0000000000
8279 2      16.2912866854      19.0000000000
8280 2      14.5376060492      19.0000000000
8281 2      14.2159935028      17.0000000000
8282 2      13.9443771859      15.0000000000
8283 2      15.6970998122      15.0000000000
8284 2      13.9798595472      17.0000000000
8285 2      15.8403666933      22.0000000000
8286 2      13.2691875651      16.0000000000
8287 2      13.2107650887      17.0000000000
8288 2      13.8394106456      18.0000000000
8289 2      13.7744272765      16.0000000000
8290 2      14.5752390292      16.0000000000
8291 2      13.0777438388      15.0000000000
8292 2      14.1834226959      19.0000000000
8293 2      15.4423617442      17.0000000000
8294 2      13.6985335164      17.0000000000
8295 2      16.7802045354      20.0000000000
8296 2      12.6937702354      15.0000000000
8297 2      15.7557455857      19.0000000000
8298 2      12.6595275886      16.0000000000
8299 2      14.2212818098      15.0000000000
8300 2      13.8750768841      17.0000000000
8301 2      13.2810874311      14.0000000000
8302 2      13.8920446857      15.0000000000
8303 2      15.0214581822      18.0000000000
8304 2      13.7586585912      16.0000000000
8305 2      12.4465521062      18.0000000000
8306 2      13.8775716474      18.0000000000
8307 2      14.0049996530      17.0000000000
8308 2      15.7681623321      22.0000000000
8309 2      14.2091640992      17.0000000000
8310 2      14.3261653069      15.0000000000
8311 2      16.8187075075      18.0000000000
8312 2      18.4535455441      19.0000000000
8313 2      13.9642121632      14.0000000000
8314 2      14.6456922159      18.0000000000
8315 2      15.4437990587      20.0000000000
8316 2      15.0614425077      17.0000000000
8317 2      16.2295896902      19.0000000000
8318 2      14.0152950292      17.0000000000
8319 2      15.8991030070      16.0000000000
8320 2      14.3913422781      15.0000000000
8321 2      14.3064960139      21.0000000000
8322 2      13.6918814890      17.0000000000
8323 2      14.4456833512      17.0000000000
8324 2      14.0047182858      16.0000000000
8325 2      17.3801802558      16.0000000000
8326 2      14.8292117989      17.0000000000
8327 2      16.9908286431      18.0000000000
8328 2      13.2295849378      17.0000000000
8329 2      13.5440908849      19.0000000000
8330 2      14.2862744262      21.0000000000
8331 2      16.5557867885      22.0000000000
8332 2      14.0872086336      17.0000000000
8333 2      16.1484242422      17.0000000000
8334 2      14.2252975400      16.0000000000
8335 2      13.2585422554      19.0000000000
8336 2      15.1464269967      20.0000000000
8337 2      13.3841257921      18.0000000000
8338 2      12.9462806418      18.0000000000
8339 2      16.8144932814      21.0000000000
8340 2      15.4511865372      18.0000000000
8341 2      15.5457773666      20.0000000000
8342 2      14.0293099669      19.0000000000
8343 2      14.3988765748      18.0000000000
8344 2      15.7652358212      19.0000000000
8345 2      17.2053188742      20.0000000000
8346 2      15.7259004670      15.0000000000
8347 2      16.0713864521      21.0000000000
8348 2      13.5244335574      15.0000000000
8349 2      16.1339864646      18.0000000000
8350 2      16.0249622388      19.0000000000
8351 2      14.3273453212      16.0000000000
8352 2      12.9771689161      16.0000000000
8353 2      11.9000103205      15.0000000000
8354 2      14.0636712490      20.0000000000
8355 2      14.7222032319      18.0000000000
8356 2      15.8399477561      20.0000000000
8357 2      13.6665705177      16.0000000000
8358 2      16.7427270193      14.0000000000
8359 2      15.4929032132      17.0000000000
8360 2      13.1738369952      19.0000000000
8361 2      13.7355348470      19.0000000000
8362 2      14.3133515648      15.0000000000
8363 2      15.5323444568      17.0000000000
8364 2      15.4408540426      19.0000000000
8365 2      16.8876790948      18.0000000000
8366 2      12.9708355344      17.0000000000
8367 2      14.5122477646      16.0000000000
8368 2      15.0888087540      18.0000000000
8369 2      18.6338344512      24.0000000000
8370 2      14.1221492387      16.0000000000
8371 2      18.2980310777      20.0000000000
8372 2      12.6036309867      16.0000000000
8373 2      13.8699506545      14.0000000000
8374 2      14.9079001470      19.0000000000
8375 2      15.8024134802      14.0000000000
8376 2      14.4753362064      14.0000000000
8377 2      14.6406919663      19.0000000000
8378 2      17.0760856513      19.0000000000
8379 2      14.1472967834      21.0000000000
8380 2      12.7310267163      19.0000000000
8381 2      14.7947858399      16.0000000000
8382 2      14.9863546601      19.0000000000
8383 2      14.5724693990      18.0000000000
8384 2      13.4359356175      17.0000000000
8385 2      13.3595774359      15.0000000000
8386 2      16.8271581784      23.0000000000
8387 2      15.7446453300      19.0000000000
8388 2      12.8974862144      16.0000000000
8389 2      13.0406527303      18.0000000000
8390 2      16.5025788321      21.0000000000
8391 2      13.6330312050      17.0000000000
8392 2      15.7990095134      19.0000000000
8393 2      17.8314618835      23.0000000000
8394 2      13.8121281594      17.0000000000
8395 2      15.0672889901      16.0000000000
8396 2      14.0196638887      19.0000000000
8397 2      14.1724762045      18.0000000000
8398 2      17.1438444455      19.0000000000
8399 2      14.4328217482      21.0000000000
8400 2      13.0288615529      16.0000000000
8401 2      14.8761841157      14.0000000000
8402 2      15.1327360495      18.0000000000
8403 2      14.5033517831      16.0000000000
8404 2      15.1065811564      17.0000000000
8405 2      17.3644499189      19.0000000000
8406 2      14.9162365617      21.0000000000
8407 2      16.7793468846      21.0000000000
8408 2      13.7354141418      20.0000000000
8409 2      16.8712093331      19.0000000000
8410 2      15.4752658228      20.0000000000
8411 2      13.9517407836      18.0000000000
8412 2      12.9602060425      16.0000000000
8413 2      17.0012359668      20.0000000000
8414 2      15.2071418984      20.0000000000
8415 2      13.2723869306      14.0000000000
8416 2      14.0933523145      18.0000000000
8417 2      14.6327459349      16.0000000000
8418 2      15.4593648587      17.0000000000
8419 2      13.9143798692      19.0000000000
8420 2      15.1978611433      21.0000000000
8421 2      15.2024192708      18.0000000000
8422 2      15.3324606383      17.0000000000
8423 2      14.5681188113      18.0000000000
8424 2      14.4656722815      17.0000000000
8425 2      14.6351138079      18.0000000000
8426 2      12.9542438872      16.0000000000
8427 2      15.8396296192      23.0000000000
8428 2      13.9975518562      15.0000000000
8429 2      13.5969712619      19.0000000000
8430 2      12.9279516462      15.0000000000
8431 2      15.2591173389      15.0000000000
8432 2      14.9859281020      16.0000000000
8433 2      14.0929947758      14.0000000000
8434 2      14.2491835453      18.0000000000
8435 2      13.6697810812      15.0000000000
8436 2      13.1021347008      18.0000000000
8437 2      16.7127877778      19.0000000000
8438 2      14.2562411324      18.0000000000
8439 2      13.0243511705      17.0000000000
8440 2      17.4212713678      22.0000000000
8441 2      15.3317936570      14.0000000000
8442 2      15.7369303028      15.0000000000
8443 2      17.7082973962      18.0000000000
8444 2      17.0612879115      20.0000000000
8445 2      13.3195288656      17.0000000000
8446 2      13.2983758129      16.0000000000
8447 2      12.9939702455      15.0000000000
8448 2      13.8092933508      17.0000000000
8449 2      15.9601077563      17.0000000000
8450 2      12.0875780569      16.0000000000
8451 2      13.8886715305      17.0000000000
8452 2      11.8757485231      13.0000000000
8453 2      13.2527230831      21.0000000000
8454 2      11.6899840446      15.0000000000
8455 2      16.7966484029      19.0000000000
8456 2      14.0659247547      19.0000000000
8457 2      14.8995120290      20.0000000000
8458 2      13.5262416574      14.0000000000
8459 2      14.2084550263      18.0000000000
8460 2      16.0542776048      16.0000000000
8461 2      14.4545839039      19.0000000000
8462 2      14.4495965725      15.0000000000
8463 2      12.5253093409      15.0000000000
8464 2      16.0734163041      18.0000000000
8465 2      13.4467189381      15.0000000000
8466 2      17.7700541843      24.0000000000
8467 2      16.5257480741      21.0000000000
8468 2      14.9386422735      20.0000000000
8469 2      15.6888845784      20.0000000000
8470 2      13.6545945513      18.0000000000
8471 2      16.8528605549      20.0000000000
8472 2      13.0474737448      18.0000000000
8473 2      15.8523491741      16.0000000000
8474 2      16.1694102722      22.0000000000
8475 2      13.4192498344      17.0000000000
8476 2      12.7727870257      14.0000000000
8477 2      15.3551203896      18.0000000000
8478 2      13.9360963344      17.0000000000
8479 2      18.6510097661      25.0000000000
8480 2      13.7875220218      19.0000000000
8481 2      14.6669027204      16.0000000000
8482 2      15.1408918121      18.0000000000
8483 2      14.2079072893      16.0000000000
8484 2      11.9530360465      15.0000000000
8485 2      13.9504843240      20.0000000000
8486 2      13.8146667730      16.0000000000
8487 2      12.3763790576      17.0000000000
8488 2      17.7798414526      17.0000000000
8489 2      14.0545741882      24.0000000000
8490 2      16.9259157864      19.0000000000
8491 2      11.9105262718      17.0000000000
8492 2      13.2701498582      16.0000000000
8493 2      17.5732048468      23.0000000000
8494 2      15.7086823314      20.0000000000
8495 2      16.1117045214      20.0000000000
8496 2      11.8605171768      13.0000000000
8497 2      13.1641615152      20.0000000000
8498 2      15.0146469823      17.0000000000
8499 2      13.4956711128      17.0000000000
8500 2      13.6626116397      22.0000000000
8501 2      16.1239025013      18.0000000000
8502 2      15.4441528171      18.0000000000
8503 2      15.3134725729      21.0000000000
8504 2      14.7704037861      19.0000000000
8505 2      13.1867748207      17.0000000000
8506 2      17.3723997147      22.0000000000
8507 2      14.2836111511      17.0000000000
8508 2      12.8526401074      20.0000000000
8509 2      13.3740705529      19.0000000000
8510 2      14.9377609876      20.0000000000
8511 2      12.0760303561      17.0000000000
8512 2      14.0559676705      17.0000000000
8513 2      15.8622425910      16.0000000000
8514 2      16.2349759148      17.0000000000
8515 2      16.6197573043      24.0000000000
8516 2      14.7187462141      20.0000000000
8517 2      15.8524318068      19.0000000000
8518 2      17.0691019447      19.0000000000
8519 2      14.6550653321      18.0000000000
8520 2      14.1015150138      17.0000000000
8521 2      18.0369237030      22.0000000000
8522 2      13.2395309942      16.0000000000
8523 2      14.6245798181      18.0000000000
8524 2      15.5763119058      17.0000000000
8525 2      12.9841080159      13.0000000000
8526 2      13.3798335283      17.0000000000
8527 2      13.1920097567      19.0000000000
8528 2      16.1146600869      20.0000000000
8529 2      17.7533650111      19.0000000000
8530 2      12.3471305852      17.0000000000
8531 2      13.8594969934      18.0000000000
8532 2      16.3001093602      18.0000000000
8533 2      15.9950424913      17.0000000000
8534 2      12.3345530967      16.0000000000
8535 2      13.0518640247      16.0000000000
8536 2      12.4157691617      15.0000000000
8537 2      14.6669110477      16.0000000000
8538 2      14.4671172319      17.0000000000
8539 2      14.6196591140      18.0000000000
8540 2      15.9979429982      18.0000000000
8541 2      17.2768136371      20.0000000000
8542 2      14.6834837860      18.0000000000
8543 2      11.9280252802      19.0000000000
8544 2      13.8457254497      16.0000000000
8545 2      15.4911433367      18.0000000000
8546 2      14.1605458308      18.0000000000
8547 2      17.0824657741      20.0000000000
8548 2      14.6136708478      16.0000000000
8549 2      13.8076870340      16.0000000000
8550 2      14.6140061104      20.0000000000
8551 2      13.9232535839      18.0000000000
8552 2      14.3795924511      19.0000000000
8553 2      15.1958259662      19.0000000000
8554 2      15.6825398881      19.0000000000
8555 2      15.0734658536      18.0000000000
8556 2      14.6453512127      19.0000000000
8557 2      15.7239246708      19.0000000000
8558 2      15.2279846532      17.0000000000
8559 2      16.2695803802      17.0000000000
8560 2      13.0091761643      18.0000000000
8561 2      16.6518214993      15.0000000000
8562 2      14.3925300849      12.0000000000
8563 2      12.8210907134      16.0000000000
8564 2      13.1699186198      18.0000000000
8565 2      13.8802295176      19.0000000000
8566 2      14.8896349927      17.0000000000
8567 2      16.5236924916      19.0000000000
8568 2      15.2220674294      20.0000000000
8569 2      16.1044983753      22.0000000000
8570 2      14.8410315033      18.0000000000
8571 2      16.2992343501      19.0000000000
8572 2      14.3826500610      19.0000000000
8573 2      14.6525521068      17.0000000000
8574 2      16.0595190502      18.0000000000
8575 2      13.3981614889      17.0000000000
8576 2      14.2987304287      17.0000000000
8577 2      13.4121821623      17.0000000000
8578 2      15.2023516282      20.0000000000
8579 2      14.4802397599      17.0000000000
8580 2      15.5121852054      19.0000000000
8581 2      13.4594607247      14.0000000000
8582 2      13.6910585328      16.0000000000
8583 2      15.1258446072      16.0000000000
8584 2      14.5687297469      19.0000000000
8585 2      13.2651847337      16.0000000000
8586 2      14.7810047763      19.0000000000
8587 2      12.8664017823      16.0000000000
8588 2      16.5837819877      21.0000000000
8589 2      15.2990674889      20.0000000000
8590 2      17.4989722209      19.0000000000
8591 2      14.8956091427      18.0000000000
8592 2      15.3015761022      18.0000000000
8593 2      13.4472782622      19.0000000000
8594 2      12.2467947909      17.0000000000
8595 2      12.7671006075      18.0000000000
8596 2      17.9073901014      21.0000000000
8597 2      12.4484530927      14.0000000000
8598 2      14.6146455354      18.0000000000
8599 2      13.4460671525      15.0000000000
8600 2      16.6444454980      18.0000000000
8601 2      15.3527967899      18.0000000000
8602 2      14.6559952330      18.0000000000
8603 2      17.1341839350      21.0000000000
8604 2      14.9406297203      17.0000000000
8605 2      15.6809989670      20.0000000000
8606 2      13.9977797370      15.0000000000
8607 2      14.1243494290      14.0000000000
8608 2      14.8303132369      18.0000000000
8609 2      13.2612393877      16.0000000000
8610 2      13.9359910435      18.0000000000
8611 2      14.1686553971      14.0000000000
8612 2      13.6275476530      18.0000000000
8613 2      13.8128127574      16.0000000000
8614 2      14.8663154711      19.0000000000
8615 2      13.8183050417      17.0000000000
8616 2      15.1867160643      21.0000000000
8617 2      14.7082971173      19.0000000000
8618 2      17.7553151973      21.0000000000
8619 2      15.2728579878      19.0000000000
8620 2      13.6355730699      13.0000000000
8621 2      17.0547057911      20.0000000000
8622 2      16.1976058893      18.0000000000
8623 2      14.8870696250      18.0000000000
8624 2      15.1790108643      23.0000000000
8625 2      14.0913010019      17.0000000000
8626 2      12.9018137206      15.0000000000
8627 2      14.4845929112      17.0000000000
8628 2      13.8486349260      16.0000000000
8629 2      15.0807925751      19.0000000000
8630 2      15.0781484230      17.0000000000
8631 2      12.8521683809      14.0000000000
8632 2      16.6710827140      19.0000000000
8633 2      15.7667075335      23.0000000000
8634 2      16.4264373695      21.0000000000
8635 2      14.5283050140      18.0000000000
8636 2      13.4736591998      19.0000000000
8637 2      15.0261413515      17.0000000000
8638 2      15.6334528060      16.0000000000
8639 2      15.9142699976      19.0000000000
8640 2      13.5739525073      14.0000000000
8641 2      17.9962668700      18.0000000000
8642 2      16.6149661670      16.0000000000
8643 2      14.2205033285      16.0000000000
8644 2      16.6875240880      20.0000000000
8645 2      13.3217591235      16.0000000000
8646 2      13.5224837449      14.0000000000
8647 2      15.2674694804      19.0000000000
8648 2      13.6545483400      19.0000000000
8649 2      13.5416696559      16.0000000000
8650 2      13.3238786161      17.0000000000
8651 2      13.8419659563      17.0000000000
8652 2      14.0737068874      21.0000000000
8653 2      16.5034345878      22.0000000000
8654 2      16.3644024501      20.0000000000
8655 2      17.0651369086      20.0000000000
8656 2      17.0796536190      20.0000000000
8657 2      12.8256299436      13.0000000000
8658 2      15.8241027592      16.0000000000
8659 2      14.5981658105      20.0000000000
8660 2      15.4280922291      21.0000000000
8661 2      14.5600223863      18.0000000000
8662 2      18.3291409352      23.0000000000
8663 2      13.8104789027      17.0000000000
8664 2      13.0922870237      17.0000000000
8665 2      16.6867452156      19.0000000000
8666 2      12.9868978292      16.0000000000
8667 2      13.8223246571      16.0000000000
8668 2      15.2998291633      18.0000000000
8669 2      15.8760836715      19.0000000000
8670 2      12.5286894798      16.0000000000
8671 2      14.0421222781      15.0000000000
8672 2      14.4601743579      18.0000000000
8673 2      14.4765113857      22.0000000000
8674 2      13.7285161359      18.0000000000
8675 2      13.9800396621      17.0000000000
8676 2      14.8819538586      17.0000000000
8677 2      15.7529917807      21.0000000000
8678 2      15.7166891567      18.0000000000
8679 2      13.7234425333      14.0000000000
8680 2      13.3710193331      16.0000000000
8681 2      14.0421264308      17.0000000000
8682 2      13.8685046976      16.0000000000
8683 2      16.1400284617      20.0000000000
8684 2      13.5029678255      20.0000000000
8685 2      13.0558189308      17.0000000000
8686 2      17.3275865829      20.0000000000
8687 2      11.4738344792      13.0000000000
8688 2      17.0445297187      20.0000000000
8689 2      14.8321509899      16.0000000000
8690 2      17.0930807259      19.0000000000
8691 2      14.2621832962      14.0000000000
8692 2      14.7690481424      19.0000000000
8693 2      15.4706217894      20.0000000000
8694 2      17.8886006412      19.0000000000
8695 2      13.9833233424      16.0000000000
8696 2      14.6870074381      18.0000000000
8697 2      14.1131607200      19.0000000000
8698 2      14.1319732657      20.0000000000
8699 2      13.0448749863      14.0000000000
8700 2      13.5381805869      18.0000000000
8701 2      14.0354639798      19.0000000000
8702 2      15.1411100032      18.0000000000
8703 2      15.7308830139      16.0000000000
8704 2      13.4379992486      17.0000000000
8705 2      14.7694142434      18.0000000000
8706 2      16.6331383231      19.0000000000
8707 2      15.8880126097      21.0000000000
8708 2      14.7460035783      20.0000000000
8709 2      16.0525008422      17.0000000000
8710 2      14.4530422142      15.0000000000
8711 2      15.3795048128      19.0000000000
8712 2      14.8860026578      19.0000000000
8713 2      14.5062617351      20.0000000000
8714 2      12.7829429180      15.0000000000
8715 2      15.5356128934      14.0000000000
8716 2      13.9061159813      16.0000000000
8717 2      14.8981148430      18.0000000000
8718 2      13.6646343732      15.0000000000
8719 2      16.4207362087      21.0000000000
8720 2      15.7261230342      23.0000000000
8721 2      13.7950197275      15.0000000000
8722 2      16.4048419494      18.0000000000
8723 2      15.7471770464      22.0000000000
8724 2      17.6632978221      23.0000000000
8725 2      16.1313096477      18.0000000000
8726 2      16.7620673712      18.0000000000
8727 2      14.3251574190      19.0000000000
8728 2      15.7793460116      18.0000000000
8729 2      14.7284893669      17.0000000000
8730 2      15.4807756225      17.0000000000
8731 2      13.5310802312      15.0000000000
8732 2      13.0356775139      14.0000000000
8733 2      13.6117497724      17.0000000000
8734 2      14.0059645412      20.0000000000
8735 2      15.2138685897      20.0000000000
8736 2      15.3408147003      17.0000000000
8737 2      15.4638432503      18.0000000000
8738 2      12.9784133223      18.0000000000
8739 2      16.4476802628      20.0000000000
8740 2      12.6827646774      18.0000000000
8741 2      15.3142002584      17.0000000000
8742 2      14.8227947399      18.0000000000
8743 2      16.0618493237      16.0000000000
8744 2      14.8257055626      17.0000000000
8745 2      15.8805223833      21.0000000000
8746 2      15.1591859138      19.0000000000
8747 2      14.4313006954      14.0000000000
8748 2      13.5203472786      17.0000000000
8749 2      14.2850178642      21.0000000000
8750 2      14.1700959768      18.0000000000
8751 2      16.1428081267      18.0000000000
8752 2      11.8837207158      13.0000000000
8753 2      14.6660059206      17.0000000000
8754 2      16.5507098470      23.0000000000
8755 2      15.0583679437      19.0000000000
8756 2      14.6124837749      17.0000000000
8757 2      15.7234199180      21.0000000000
8758 2      15.2411177607      21.0000000000
8759 2      14.5513008635      19.0000000000
8760 2      13.0367537984      16.0000000000
8761 2      15.5597984624      20.0000000000
8762 2      13.3565879521      20.0000000000
8763 2      13.8687998094      17.0000000000
8764 2      14.2234406198      18.0000000000
8765 2      17.0522734852      19.0000000000
8766 2      14.1751170815      19.0000000000
8767 2      13.5880855552      14.0000000000
8768 2      17.4584349421      19.0000000000
8769 2      12.7267143749      13.0000000000
8770 2      14.8543173217      19.0000000000
8771 2      15.4944377159      20.0000000000
8772 2      16.8444971738      19.0000000000
8773 2      13.8738959726      18.0000000000
8774 2      13.9009914743      18.0000000000
8775 2      15.7181691581      16.0000000000
8776 2      14.2092151566      20.0000000000
8777 2      14.8245588525      16.0000000000
8778 2      12.7750949612      15.0000000000
8779 2      13.8794364599      17.0000000000
8780 2      14.8199196925      16.0000000000
8781 2      14.2795432573      17.0000000000
8782 2      14.9384896522      19.0000000000
8783 2      13.7940731517      15.0000000000
8784 2      13.5239520929      14.0000000000
8785 2      12.2739146913      14.0000000000
8786 2      13.9074545517      19.0000000000
8787 2      15.3705331616      19.0000000000
8788 2      15.2491911599      18.0000000000
8789 2      13.7301332087      19.0000000000
8790 2      16.1260195427      17.0000000000
8791 2      14.0186597162      15.0000000000
8792 2      14.4833816517      19.0000000000
8793 2      15.4970459124      21.0000000000
8794 2      14.4152056552      16.0000000000
8795 2      18.4579710336      20.0000000000
8796 2      13.7266420015      15.0000000000
8797 2      15.5992971196      20.0000000000
8798 2      12.5615258660      17.0000000000
8799 2      14.9785886214      18.0000000000
8800 2      15.2505403556      18.0000000000
8801 2      15.2966104630      15.0000000000
8802 2      14.3163068974      20.0000000000
8803 2      12.7351345988      14.0000000000
8804 2      15.9988998140      19.0000000000
8805 2      14.1897930407      14.0000000000
8806 2      14.2416931875      16.0000000000
8807 2      13.4256230877      18.0000000000
8808 2      15.4401271635      20.0000000000
8809 2      13.1959287388      15.0000000000
8810 2      18.4089271406      18.0000000000
8811 2      13.9410976521      13.0000000000
8812 2      15.2883440499      17.0000000000
8813 2      13.4143712845      16.0000000000
8814 2      15.9391880050      18.0000000000
8815 2      11.9024043583      15.0000000000
8816 2      12.9399090350      14.0000000000
8817 2      15.5390958780      19.0000000000
8818 2      14.9804090332      20.0000000000
8819 2      16.7304255034      15.0000000000
8820 2      14.3522463761      17.0000000000
8821 2      15.9792510596      18.0000000000
8822 2      19.4317625525      24.0000000000
8823 2      14.8295156739      18.0000000000
8824 2      16.0943354291      20.0000000000
8825 2      13.7697423853      17.0000000000
8826 2      14.2116507792      16.0000000000
8827 2      15.7870021531      23.0000000000
8828 2      16.7835495865      20.0000000000
8829 2      15.9908367112      20.0000000000
8830 2      13.3516488503      16.0000000000
8831 2      11.3022017663      15.0000000000
8832 2      17.2782513290      19.0000000000
8833 2      15.5224796405      20.0000000000
8834 2      13.2230226081      14.0000000000
8835 2      16.0852496106      18.0000000000
8836 2      11.4506060413      18.0000000000
8837 2      14.0112439833      18.0000000000
8838 2      15.9066750814      18.0000000000
8839 2      14.2153031765      17.0000000000
8840 2      17.9733368321      19.0000000000
8841 2      17.7102393886      19.0000000000
8842 2      16.4558794405      20.0000000000
8843 2      13.5088711518      19.0000000000
8844 2      19.7542124132      23.0000000000
8845 2      17.2617237517      20.0000000000
8846 2      12.6299708636      16.0000000000
8847 2      13.1387992292      14.0000000000
8848 2      15.2898712992      18.0000000000
8849 2      17.1849891162      22.0000000000
8850 2      14.7396811827      21.0000000000
8851 2      13.5251517725      17.0000000000
8852 2      14.4940890311      20.0000000000
8853 2      12.1010366673      17.0000000000
8854 2      14.6015886642      16.0000000000
8855 2      13.3135770510      20.0000000000
8856 2      17.1822603120      21.0000000000
8857 2      14.9454097016      16.0000000000
8858 2      16.0392314483      20.0000000000
8859 2      17.4179145979      20.0000000000
8860 2      14.9034245662      18.0000000000
8861 2      15.3909428285      18.0000000000
8862 2      15.7331944249      18.0000000000
8863 2      15.1823765692      17.0000000000
8864 2      13.2174221355      17.0000000000
8865 2      13.8801233473      15.0000000000
8866 2      15.9087488610      14.0000000000
8867 2      17.6199962838      24.0000000000
8868 2      14.8487239260      19.0000000000
8869 2      17.2451506887      19.0000000000
8870 2      15.2939920733      22.0000000000
8871 2      15.3353553827      15.0000000000
8872 2      13.9966526692      13.0000000000
8873 2      13.1196232951      15.0000000000
8874 2      13.1707945728      19.0000000000
8875 2      14.1600102127      21.0000000000
8876 2      14.2866552050      17.0000000000
8877 2      12.6292644286      18.0000000000
8878 2      17.4190642745      21.0000000000
8879 2      14.7840011600      18.0000000000
8880 2      14.9113123982      18.0000000000
8881 2      14.5717874757      17.0000000000
8882 2      17.0291241156      19.0000000000
8883 2      13.6215612321      17.0000000000
8884 2      12.4569209909      16.0000000000
8885 2      13.5745472906      18.0000000000
8886 2      12.9804044279      16.0000000000
8887 2      19.0178634007      19.0000000000
8888 2      15.4596297206      19.0000000000
8889 2      16.3578820305      17.0000000000
8890 2      15.2251888147      19.0000000000
8891 2      17.5163792305      21.0000000000
8892 2      15.3556234239      17.0000000000
8893 2      14.5058871471      21.0000000000
8894 2      13.5155030892      15.0000000000
8895 2      13.7664518260      15.0000000000
8896 2      15.3917257004      24.0000000000
8897 2      13.6687442744      15.0000000000
8898 2      13.8668945093      18.0000000000
8899 2      14.9559403391      21.0000000000
8900 2      15.3052904389      19.0000000000
8901 2      16.2850752481      21.0000000000
8902 2      13.1767542977      17.0000000000
8903 2      14.0267090167      16.0000000000
8904 2      12.9484011174      17.0000000000
8905 2      14.6941381951      20.0000000000
8906 2      14.4226274102      20.0000000000
8907 2      16.8116948870      18.0000000000
8908 2      13.5492668491      16.0000000000
8909 2      13.2747670920      20.0000000000
8910 2      14.3845937404      17.0000000000
8911 2      16.8805888885      18.0000000000
8912 2      14.2864921862      18.0000000000
8913 2      16.1501326307      18.0000000000
8914 2      11.9080954181      16.0000000000
8915 2      15.0419142123      17.0000000000
8916 2      12.6079123623      16.0000000000
8917 2      16.4176898086      21.0000000000
8918 2      16.3042031910      16.0000000000
8919 2      15.2262733231      20.0000000000
8920 2      13.4993515620      18.0000000000
8921 2      15.0041720159      20.0000000000
8922 2      14.2472106732      18.0000000000
8923 2      16.9723439415      20.0000000000
8924 2      12.8233167565      16.0000000000
8925 2      14.9907637085      17.0000000000
8926 2      15.9829045941      21.0000000000
8927 2      16.2802323071      16.0000000000
8928 2      16.7955096601      22.0000000000
8929 2      14.4194778932      17.0000000000
8930 2      14.9381422498      17.0000000000
8931 2      17.1351297512      17.0000000000
8932 2      13.4510191792      18.0000000000
8933 2      14.3645953693      18.0000000000
8934 2      13.8318885476      19.0000000000
8935 2      12.1163287110      13.0000000000
8936 2      13.8115843658      18.0000000000
8937 2      15.2103306027      20.0000000000
8938 2      14.8196582872      18.0000000000
8939 2      14.8519563550      15.0000000000
8940 2      14.6940260654      14.0000000000
8941 2      16.4856082162      17.0000000000
8942 2      16.4729517591      18.0000000000
8943 2      15.0178704061      18.0000000000
8944 2      15.1573503766      19.0000000000
8945 2      12.7735315316      16.0000000000
8946 2      13.5742904219      16.0000000000
8947 2      16.0529244339      16.0000000000
8948 2      15.8967087203      18.0000000000
8949 2      13.4722393874      17.0000000000
8950 2      16.4295805187      17.0000000000
8951 2      17.1520790404      24.0000000000
8952 2      14.4934245430      18.0000000000
8953 2      14.0396830037      16.0000000000
8954 2      14.5696471049      17.0000000000
8955 2      12.6971154784      19.0000000000
8956 2      14.2570512226      20.0000000000
8957 2      12.5430323790      16.0000000000
8958 2      14.9752401730      17.0000000000
8959 2      17.6528605638      20.0000000000
8960 2      13.8818784587      17.0000000000
8961 2      16.0403467381      20.0000000000
8962 2      13.5123179051      16.0000000000
8963 2      14.7588486893      20.0000000000
8964 2      15.1715076966      17.0000000000
8965 2      14.4617172942      15.0000000000
8966 2      14.6501630084      19.0000000000
8967 2      14.0204438216      20.0000000000
8968 2      13.9798327159      17.0000000000
8969 2      16.3161184714      19.0000000000
8970 2      16.1965807089      19.0000000000
8971 2      17.9866573667      20.0000000000
8972 2      14.4660293351      19.0000000000
8973 2      15.3013020803      21.0000000000
8974 2      16.7277736032      21.0000000000
8975 2      15.8649471149      19.0000000000
8976 2      14.6915809025      18.0000000000
8977 2      13.9275995639      15.0000000000
8978 2      15.4895213866      22.0000000000
8979 2      16.4026769443      18.0000000000
8980 2      11.2204991519      13.0000000000
8981 2      14.7342809006      20.0000000000
8982 2      13.6594856592      17.0000000000
8983 2      14.3559690159      15.0000000000
8984 2      15.5705646080      19.0000000000
8985 2      14.6477413132      20.0000000000
8986 2      14.9695115519      20.0000000000
8987 2      11.0880576868      16.0000000000
8988 2      15.4623821932      22.0000000000
8989 2      14.6984921459      19.0000000000
8990 2      17.2689920568      22.0000000000
8991 2      15.0367546564      18.0000000000
8992 2      16.6368424261      19.0000000000
8993 2      12.8324982489      18.0000000000
8994 2      16.2626600709      18.0000000000
8995 2      16.3789032260      20.0000000000
8996 2      15.6010697102      17.0000000000
8997 2      13.6275433827      16.0000000000
8998 2      14.8778520735      15.0000000000
8999 2      15.2784362345      22.0000000000
9000 2      15.4827586264      17.0000000000
9001 2      15.1301588539      20.0000000000
9002 2      15.5095613232      17.0000000000
9003 2      15.5698196675      20.0000000000
9004 2      15.2863430767      20.0000000000
9005 2      15.5036036514      20.0000000000
9006 2      15.7773658869      19.0000000000
9007 2      15.8563871111      20.0000000000
9008 2      15.1253113327      17.0000000000
9009 2      11.4313812275      17.0000000000
9010 2      15.7984309784      14.0000000000
9011 2      13.2753686221      19.0000000000
9012 2      16.4304816758      16.0000000000
9013 2      14.2984515318      18.0000000000
9014 2      11.8227526606      13.0000000000
9015 2      17.1895559396      17.0000000000
9016 2      16.4272534260      18.0000000000
9017 2      15.7101040902      18.0000000000
9018 2      14.8587663866      19.0000000000
9019 2      14.7066247883      14.0000000000
9020 2      13.7044875200      17.0000000000
9021 2      16.8440598529      18.0000000000
9022 2      16.2717726948      22.0000000000
9023 2      13.9973769272      19.0000000000
9024 2      15.2815672848      23.0000000000
9025 2      14.8907548621      22.0000000000
9026 2      14.3795722491      18.0000000000
9027 2      12.3796049265      15.0000000000
9028 2      15.7957450056      21.0000000000
9029 2      13.6175801738      20.0000000000
9030 2      14.4142366808      18.0000000000
9031 2      13.4256968924      18.0000000000
9032 2      14.1553733508      18.0000000000
9033 2      13.4495290567      16.0000000000
9034 2      16.0276301740      20.0000000000
9035 2      13.8289579404      20.0000000000
9036 2      13.5670588410      14.0000000000
9037 2      16.0099692068      19.0000000000
9038 2      14.7263762559      17.0000000000
9039 2      13.6800002411      18.0000000000
9040 2      13.4776240324      16.0000000000
9041 2      13.5801775071      15.0000000000
9042 2      13.9651940862      15.0000000000
9043 2      15.5986089776      19.0000000000
9044 2      15.5680931893      24.0000000000
9045 2      15.4011731150      17.0000000000
9046 2      13.5906293704      16.0000000000
9047 2      16.2405896872      20.0000000000
9048 2      15.4720908255      16.0000000000
9049 2      15.5321898623      20.0000000000
9050 2      14.5254493239      19.0000000000
9051 2      14.6493204113      17.0000000000
9052 2      16.1024981732      19.0000000000
9053 2      13.8265437943      19.0000000000
9054 2      15.9925309473      18.0000000000
9055 2      20.3007372371      22.0000000000
9056 2      13.1812061521      16.0000000000
9057 2      12.3136896881      17.0000000000
9058 2      14.2841829530      16.0000000000
9059 2      15.3667948741      21.0000000000
9060 2      12.5809780303      15.0000000000
9061 2      14.4899509571      17.0000000000
9062 2      16.9244392821      22.0000000000
9063 2      12.4031296071      14.0000000000
9064 2      15.3068158205      19.0000000000
9065 2      14.7961537177      18.0000000000
9066 2      13.3848197494      18.0000000000
9067 2      14.3344943381      17.0000000000
9068 2      14.6324923058      17.0000000000
9069 2      16.5465964810      17.0000000000
9070 2      11.9857474043      14.0000000000
9071 2      16.3812752150      18.0000000000
9072 2      15.7362797024      16.0000000000
9073 2      12.2888562143      13.0000000000
9074 2      16.1602749576      24.0000000000
9075 2      13.9735423163      17.0000000000
9076 2      13.4089661497      16.0000000000
9077 2      13.4103483802      15.0000000000
9078 2      16.7493052812      22.0000000000
9079 2      18.5528505486      20.0000000000
9080 2      13.5469899533      14.0000000000
9081 2      15.1347522763      16.0000000000
9082 2      14.6185788673      18.0000000000
9083 2      14.4032244643      16.0000000000
9084 2      16.3140046357      18.0000000000
9085 2      12.7898324538      20.0000000000
9086 2      16.2041818352      16.0000000000
9087 2      12.8294597218      15.0000000000
9088 2      15.9664162059      19.0000000000
9089 2      14.1938692360      19.0000000000
9090 2      13.5221473274      19.0000000000
9091 2      16.3796409179      19.0000000000
9092 2      17.3229136016      20.0000000000
9093 2      13.8939525296      19.0000000000
9094 2      15.6126814244      19.0000000000
9095 2      15.0769541801      20.0000000000
9096 2      13.3494362669      15.0000000000
9097 2      14.8549067513      16.0000000000
9098 2      16.6334709247      20.0000000000
9099 2      18.2448867783      21.0000000000
9100 2      13.9923743741      15.0000000000
9101 2      14.9968241295      19.0000000000
9102 2      14.9946452785      20.0000000000
9103 2      12.2310552667      16.0000000000
9104 2      14.8410914206      17.0000000000
9105 2      15.4759193112      22.0000000000
9106 2      14.2926555899      17.0000000000
9107 2      13.9771384140      20.0000000000
9108 2      17.6461821165      17.0000000000
9109 2      15.5312016783      18.0000000000
9110 2      13.6566417945      16.0000000000
9111 2      12.8255852625      19.0000000000
9112 2      16.2762518667      16.0000000000
9113 2      14.0210589366      19.0000000000
9114 2      13.4934222035      17.0000000000
9115 2      16.3583337411      22.0000000000
9116 2      14.9926369343      20.0000000000
9117 2      15.0421195521      18.0000000000
9118 2      14.5416763406      16.0000000000
9119 2      15.5462202392      19.0000000000
9120 2      15.1183374954      19.0000000000
9121 2      15.0583526833      17.0000000000
9122 2      12.8378646338      18.0000000000
9123 2      15.3035046892      20.0000000000
9124 2      13.7841106856      19.0000000000
9125 2      13.0486530974      14.0000000000
9126 2      11.5277648698      16.0000000000
9127 2      13.2841497234      19.0000000000
9128 2      14.1403432029      19.0000000000
9129 2      13.6954394886      13.0000000000
9130 2      12.9324014363      14.0000000000
9131 2      16.6850495998      20.0000000000
9132 2      16.1600429649      19.0000000000
9133 2      16.6126848518      19.0000000000
9134 2      14.6140499606      17.0000000000
9135 2      16.1125507778      19.0000000000
9136 2      13.8540876928      19.0000000000
9137 2      16.2867238913      18.0000000000
9138 2      14.8605585240      21.0000000000
9139 2      12.9596605142      17.0000000000
9140 2      14.9318414250      16.0000000000
9141 2      12.9851511862      13.0000000000
9142 2      17.8131788245      24.0000000000
9143 2      16.1329289914      17.0000000000
9144 2      15.1207511240      18.0000000000
9145 2      18.8273157934      17.0000000000
9146 2      12.8783543237      19.0000000000
9147 2      16.2065475958      21.0000000000
9148 2      13.8232776496      15.0000000000
9149 2      13.6228709439      17.0000000000
9150 2      17.7887806989      23.0000000000
9151 2      12.3758397335      16.0000000000
9152 2      15.1405634861      18.0000000000
9153 2      13.9522594816      18.0000000000
9154 2      14.2577810912      17.0000000000
9155 2      17.1444538680      18.0000000000
9156 2      14.6817469056      19.0000000000
9157 2      13.2469091232      20.0000000000
9158 2      13.3951203424      16.0000000000
9159 2      14.1360893823      18.0000000000
9160 2      13.0867658979      18.0000000000
9161 2      13.9025934721      14.0000000000
9162 2      14.8426557240      17.0000000000
9163 2      12.8427421583      15.0000000000
9164 2      14.3641278399      20.0000000000
9165 2      14.5587326244      18.0000000000
9166 2      14.0964086213      15.0000000000
9167 2      11.9241728223      17.0000000000
9168 2      15.8347723722      17.0000000000
9169 2      16.2508189702      21.0000000000
9170 2      14.6185865903      15.0000000000
9171 2      15.1318260104      18.0000000000
9172 2      13.5147772283      17.0000000000
9173 2      15.2603467878      17.0000000000
9174 2      14.3216809730      16.0000000000
9175 2      20.8813012518      20.0000000000
9176 2      14.7092452277      22.0000000000
9177 2      17.7671963291      22.0000000000
9178 2      13.5930017987      16.0000000000
9179 2      15.2467661947      19.0000000000
9180 2      15.1762598077      20.0000000000
9181 2      15.4649843772      22.0000000000
9182 2      12.9668864391      20.0000000000
9183 2      17.5124345306      20.0000000000
9184 2      12.4587170650      16.0000000000
9185 2      15.7085900337      18.0000000000
9186 2      14.1659006441      19.0000000000
9187 2      14.6399945395      19.0000000000
9188 2      13.9686250158      17.0000000000
9189 2      15.3244105375      20.0000000000
9190 2      14.2139870311      15.0000000000
9191 2      14.8319254881      17.0000000000
9192 2      16.5378458943      21.0000000000
9193 2      14.5868947327      20.0000000000
9194 2      16.2913811347      18.0000000000
9195 2      15.8601668317      20.0000000000
9196 2      14.1321064571      17.0000000000
9197 2      13.1632580052      17.0000000000
9198 2      15.0149103469      18.0000000000
9199 2      14.3638748667      17.0000000000
9200 2      14.7905610478      15.0000000000
9201 2      14.4438724447      18.0000000000
9202 2      12.8367092191      16.0000000000
9203 2      13.7156250626      17.0000000000
9204 2      14.6011648589      16.0000000000
9205 2      11.8288663101      13.0000000000
9206 2      13.8389817810      17.0000000000
9207 2      14.2420029534      16.0000000000
9208 2      16.0586072479      23.0000000000
9209 2      12.6645562180      19.0000000000
9210 2      18.0692038292      20.0000000000
9211 2      16.9075444682      19.0000000000
9212 2      15.6908893860      16.0000000000
9213 2      12.4651695885      14.0000000000
9214 2      13.3277788632      15.0000000000
9215 2      14.8384051900      16.0000000000
9216 2      14.9466560340      17.0000000000
9217 2      14.1820264692      18.0000000000
9218 2      14.3623627175      17.0000000000
9219 2      14.5559138141      19.0000000000
9220 2      14.4314533291      15.0000000000
9221 2      14.2978184869      18.0000000000
9222 2      14.2327078742      20.0000000000
9223 2      13.0753824549      16.0000000000
9224 2      14.3714270247      20.0000000000
9225 2      15.5107650302      17.0000000000
9226 2      14.7856317892      18.0000000000
9227 2      15.4216115310      16.0000000000
9228 2      14.2375235707      18.0000000000
9229 2      14.0112037300      20.0000000000
9230 2      15.2853677609      18.0000000000
9231 2      16.3470269129      22.0000000000
9232 2      16.2748271693      19.0000000000
9233 2      16.5988044022      19.0000000000
9234 2      12.5400428182      12.0000000000
9235 2      19.1893122676      22.0000000000
9236 2      15.0240416292      19.0000000000
9237 2      14.7447987110      14.0000000000
9238 2      14.2243304601      17.0000000000
9239 2      14.5873892976      14.0000000000
9240 2      16.0906622733      21.0000000000
9241 2      15.4565334395      20.0000000000
9242 2      17.8417802933      18.0000000000
9243 2      16.7857179873      18.0000000000
9244 2      16.5824809273      19.0000000000
9245 2      15.2711241368      17.0000000000
9246 2      13.7686498774      18.0000000000
9247 2      14.4676086285      22.0000000000
9248 2      13.6554827121      17.0000000000
9249 2      16.1103266792      17.0000000000
9250 2      13.9448193910      19.0000000000
9251 2      12.9837219082      15.0000000000
9252 2      14.8423566264      18.0000000000
9253 2      16.0973888032      17.0000000000
9254 2      14.1975863784      21.0000000000
9255 2      16.5341932416      15.0000000000
9256 2      15.0227441363      17.0000000000
9257 2      18.4382844093      25.0000000000
9258 2      13.2022337262      14.0000000000
9259 2      16.6518387169      16.0000000000
9260 2      15.3214386234      21.0000000000
9261 2      16.8499538560      19.0000000000
9262 2      15.5231489724      21.0000000000
9263 2      14.4546543835      17.0000000000
9264 2      16.0306377496      16.0000000000
9265 2      16.8629547033      21.0000000000
9266 2      12.3224569160      17.0000000000
9267 2      14.8059385068      19.0000000000
9268 2      14.8719366591      17.0000000000
9269 2      14.0261992859      15.0000000000
9270 2      14.1608842417      16.0000000000
9271 2      12.7772273068      15.0000000000
9272 2      12.2819208606      15.0000000000
9273 2      12.9416193657      15.0000000000
9274 2      15.5354642339      22.0000000000
9275 2      13.7816168210      16.0000000000
9276 2      16.7610420065      20.0000000000
9277 2      15.0049575662      18.0000000000
9278 2      15.6756809623      18.0000000000
9279 2      13.6094481345      14.0000000000
9280 2      14.0624119824      17.0000000000
9281 2      18.3515574593      23.0000000000
9282 2      14.4105065332      17.0000000000
9283 2      13.4997631936      18.0000000000
9284 2      13.4303442312      18.0000000000
9285 2      15.2758318757      14.0000000000
9286 2      14.4546566376      19.0000000000
9287 2      14.3343644845      14.0000000000
9288 2      15.2822604376      18.0000000000
9289 2      15.4226584686      17.0000000000
9290 2      13.6816718561      16.0000000000
9291 2      15.2622079648      20.0000000000
9292 2      13.0439381854      14.0000000000
9293 2      14.8193008011      19.0000000000
9294 2      17.0722965594      20.0000000000
9295 2      13.6085583423      17.0000000000
9296 2      14.5388724820      14.0000000000
9297 2      12.7542465009      17.0000000000
9298 2      15.8165642203      22.0000000000
9299 2      12.8741849121      17.0000000000
9300 2      12.9718322343      15.0000000000
9301 2      13.8956953945      16.0000000000
9302 2      15.7855709739      16.0000000000
9303 2      14.6862008439      23.0000000000
9304 2      15.1268638027      18.0000000000
9305 2      14.5465194265      15.0000000000
9306 2      13.8651073985      16.0000000000
9307 2      15.5563935400      20.0000000000
9308 2      15.0671049068      18.0000000000
9309 2      14.7592638491      20.0000000000
9310 2      19.1378762419      21.0000000000
9311 2      15.2275912536      18.0000000000
9312 2      13.1867285534      14.0000000000
9313 2      13.6329709714      19.0000000000
9314 2      16.7641539118      19.0000000000
9315 2      17.0377095658      21.0000000000
9316 2      15.5115008743      23.0000000000
9317 2      18.0673789125      20.0000000000
9318 2      14.2994972988      17.0000000000
9319 2      13.4237939541      15.0000000000
9320 2      12.2486885509      15.0000000000
9321 2      15.4870354233      21.0000000000
9322 2      12.7936880200      15.0000000000
9323 2      14.8840929366      13.0000000000
9324 2      16.5825534979      18.0000000000
9325 2      14.7732447698      19.0000000000
9326 2      15.4666797814      17.0000000000
9327 2      15.2739781184      16.0000000000
9328 2      18.8493268725      21.0000000000
9329 2      13.7100437530      17.0000000000
9330 2      14.1098608976      14.0000000000
9331 2      11.1890738550      15.0000000000
9332 2      14.7616545349      16.0000000000
9333 2      13.4479125002      15.0000000000
9334 2      13.2330134057      18.0000000000
9335 2      15.2692889888      20.0000000000
9336 2      15.8246737792      22.0000000000
9337 2      14.3854856830      21.0000000000
9338 2      14.4656502720      20.0000000000
9339 2      16.2195488533      18.0000000000
9340 2      18.8320564662      18.0000000000
9341 2      13.9365011549      17.0000000000
9342 2      14.8070152379      19.0000000000
9343 2      16.9155440704      20.0000000000
9344 2      14.0197879736      22.0000000000
9345 2      15.4916622804      20.0000000000
9346 2      16.4083376708      18.0000000000
9347 2      13.4135765627      17.0000000000
9348 2      16.1333961236      23.0000000000
9349 2      16.4349620668      21.0000000000
9350 2      14.3042362698      16.0000000000
9351 2      15.6468561251      22.0000000000
9352 2      13.3617005442      18.0000000000
9353 2      15.9529406948      21.0000000000
9354 2      17.6674110775      19.0000000000
9355 2      15.8742464056      18.0000000000
9356 2      15.1115641996      20.0000000000
9357 2      15.6385705264      23.0000000000
9358 2      14.8083891824      14.0000000000
9359 2      12.7024539090      14.0000000000
9360 2      14.4514452114      15.0000000000
9361 2      16.3204773125      16.0000000000
9362 2      15.9610185597      19.0000000000
9363 2      13.9484963916      21.0000000000
9364 2      14.3420814002      15.0000000000
9365 2      13.3141657816      18.0000000000
9366 2      16.8777987260      20.0000000000
9367 2      15.8780998675      18.0000000000
9368 2      15.4716022806      21.0000000000
9369 2      12.6270435749      15.0000000000
9370 2      14.2419827845      18.0000000000
9371 2      13.4561474112      16.0000000000
9372 2      15.6589260553      18.0000000000
9373 2      14.5293393996      17.0000000000
9374 2      12.4116872974      15.0000000000
9375 2      12.2834715008      17.0000000000
9376 2      13.6297263582      15.0000000000
9377 2      13.0371744133      15.0000000000
9378 2      14.5532497350      20.0000000000
9379 2      13.9606107779      17.0000000000
9380 2      14.7130217783      15.0000000000
9381 2      14.7789640117      20.0000000000
9382 2      15.3895807226      17.0000000000
9383 2      15.2022464042      14.0000000000
9384 2      11.7902771005      15.0000000000
9385 2      12.6203760673      15.0000000000
9386 2      15.4913613126      17.0000000000
9387 2      12.4095493024      17.0000000000
9388 2      15.2954255837      18.0000000000
9389 2      13.9258266835      18.0000000000
9390 2      13.3146705683      17.0000000000
9391 2      13.4425372475      16.0000000000
9392 2      17.6507089088      23.0000000000
9393 2      13.3522098792      16.0000000000
9394 2      16.9949119160      17.0000000000
9395 2      15.2713068272      23.0000000000
9396 2      15.8383005107      16.0000000000
9397 2      13.3026688993      17.0000000000
9398 2      11.5533663985      13.0000000000
9399 2      14.7945326340      15.0000000000
9400 2      12.4630504045      16.0000000000
9401 2      18.1953137346      22.0000000000
9402 2      14.9336121115      21.0000000000
9403 2      13.3665773363      21.0000000000
9404 2      12.5437697409      16.0000000000
9405 2      11.5260689829      13.0000000000
9406 2      15.9791454119      23.0000000000
9407 2      17.7026703016      20.0000000000
9408 2      17.4953073822      20.0000000000
9409 2      17.4403146510      19.0000000000
9410 2      15.3625816488      18.0000000000
9411 2      15.5491300647      19.0000000000
9412 2      16.3827592869      20.0000000000
9413 2      15.5779013770      16.0000000000
9414 2      14.2531125675      18.0000000000
9415 2      15.5305675866      19.0000000000
9416 2      14.9965047931      17.0000000000
9417 2      15.0651467445      17.0000000000
9418 2      12.7317386089      17.0000000000
9419 2      15.5662008496      18.0000000000
9420 2      14.7282256715      19.0000000000
9421 2      14.7993185811      18.0000000000
9422 2      13.5125745919      17.0000000000
9423 2      11.5261623512      14.0000000000
9424 2      16.0006053155      19.0000000000
9425 2      12.6379773317      16.0000000000
9426 2      14.3868034927      18.0000000000
9427 2      13.1768206921      15.0000000000
9428 2      11.8710701242      16.0000000000
9429 2      13.9396331795      15.0000000000
9430 2      12.9970944680      14.0000000000
9431 2      17.2296563893      21.0000000000
9432 2      14.3463092426      19.0000000000
9433 2      13.6966597305      18.0000000000
9434 2      15.7588521067      21.0000000000
9435 2      14.8206816620      19.0000000000
9436 2      13.3318551618      14.0000000000
9437 2      17.9428808524      20.0000000000
9438 2      14.3411523796      19.0000000000
9439 2      13.6286116664      15.0000000000
9440 2      14.9114706399      16.0000000000
9441 2      14.7162947644      18.0000000000
9442 2      14.3900575633      16.0000000000
9443 2      15.8341850034      19.0000000000
9444 2      14.3680476276      18.0000000000
9445 2      18.1485231202      21.0000000000
9446 2      15.1328238339      20.0000000000
9447 2      16.5413863070      21.0000000000
9448 2      12.4788792319      16.0000000000
9449 2      12.8972070903      14.0000000000
9450 2      16.1310048464      19.0000000000
9451 2      15.6614670611      20.0000000000
9452 2      16.1202168312      19.0000000000
9453 2      14.4314675112      19.0000000000
9454 2      13.1100588451      17.0000000000
9455 2      15.2187704115      16.0000000000
9456 2      14.3792096995      15.0000000000
9457 2      15.6204211190      16.0000000000
9458 2      12.6705410987      16.0000000000
9459 2      15.5215600828      20.0000000000
9460 2      16.8036203467      22.0000000000
9461 2      14.0965576775      17.0000000000
9462 2      14.4847811939      22.0000000000
9463 2      13.1758267543      19.0000000000
9464 2      12.4255642135      12.0000000000
9465 2      14.7790516381      15.0000000000
9466 2      14.6557116065      17.0000000000
9467 2      15.2568591586      17.0000000000
9468 2      16.7361880107      16.0000000000
9469 2      15.0956403206      16.0000000000
9470 2      16.4367934785      21.0000000000
9471 2      13.4036640546      16.0000000000
9472 2      15.4542539068      21.0000000000
9473 2      16.9235833345      23.0000000000
9474 2      13.4730447819      18.0000000000
9475 2      16.0938395306      20.0000000000
9476 2      13.5609257017      17.0000000000
9477 2      11.9557905750      19.0000000000
9478 2      14.2093374458      19.0000000000
9479 2      14.2631815839      20.0000000000
9480 2      16.3548753657      17.0000000000
9481 2      14.2023596704      16.0000000000
9482 2      14.4663512300      15.0000000000
9483 2      15.8542199292      19.0000000000
9484 2      16.3487187456      19.0000000000
9485 2      13.5299447961      17.0000000000
9486 2      14.5074021268      18.0000000000
9487 2      13.6636127957      18.0000000000
9488 2      16.3181506403      20.0000000000
9489 2      16.1948323451      19.0000000000
9490 2      15.0114122967      20.0000000000
9491 2      11.8502443078      15.0000000000
9492 2      14.9016914017      18.0000000000
9493 2      15.7447166185      21.0000000000
9494 2      15.5458659302      17.0000000000
9495 2      16.3662251761      23.0000000000
9496 2      15.2834146424      19.0000000000
9497 2      15.6304219074      20.0000000000
9498 2      17.5206108613      22.0000000000
9499 2      15.3168916859      19.0000000000
9500 2      13.4547526731      17.0000000000
9501 2      14.6983099730      18.0000000000
9502 2      14.4137291856      17.0000000000
9503 2      14.0457700534      18.0000000000
9504 2      14.9190368820      21.0000000000
9505 2      13.8104888493      17.0000000000
9506 2      13.4303328152      18.0000000000
9507 2      13.3071416753      15.0000000000
9508 2      16.7389199210      20.0000000000
9509 2      13.5302953513      16.0000000000
9510 2      13.8853448781      21.0000000000
9511 2      17.6969381601      18.0000000000
9512 2      13.8123985360      18.0000000000
9513 2      16.9361427671      20.0000000000
9514 2      13.5498785944      16.0000000000
9515 2      15.5476020200      22.0000000000
9516 2      15.0940907883      18.0000000000
9517 2      14.5665490883      13.0000000000
9518 2      13.9864889240      16.0000000000
9519 2      18.3310458028      19.0000000000
9520 2      15.8897096953      21.0000000000
9521 2      15.1018762060      19.0000000000
9522 2      16.0719095968      19.0000000000
9523 2      14.1947533335      17.0000000000
9524 2      15.6353424252      15.0000000000
9525 2      15.7775600174      20.0000000000
9526 2      12.5745267783      15.0000000000
9527 2      13.2000081226      17.0000000000
9528 2      14.6405473798      17.0000000000
9529 2      16.7721534403      21.0000000000
9530 2      11.7436790556      14.0000000000
9531 2      15.0181034568      18.0000000000
9532 2      14.9404925820      18.0000000000
9533 2      15.4752825574      18.0000000000
9534 2      14.8866901278      15.0000000000
9535 2      16.0801200169      16.0000000000
9536 2      15.5481309270      17.0000000000
9537 2      16.6459768853      21.0000000000
9538 2      14.5607419118      19.0000000000
9539 2      16.6573207779      19.0000000000
9540 2      15.7633574922      22.0000000000
9541 2      16.3084284681      20.0000000000
9542 2      13.0851330610      15.0000000000
9543 2      12.6415685198      14.0000000000
9544 2      13.7097141926      16.0000000000
9545 2      17.1936018668      17.0000000000
9546 2      16.1476154643      24.0000000000
9547 2      13.3587568797      13.0000000000
9548 2      15.9640439652      20.0000000000
9549 2      16.5281295025      16.0000000000
9550 2      12.4564796472      17.0000000000
9551 2      17.3190003509      25.0000000000
9552 2      15.3843960053      21.0000000000
9553 2      14.1054997011      20.0000000000
9554 2      13.9170913629      16.0000000000
9555 2      18.2319953903      21.0000000000
9556 2      13.1172569975      14.0000000000
9557 2      12.9283929609      19.0000000000
9558 2      17.0870450560      18.0000000000
9559 2      13.5522078454      14.0000000000
9560 2      17.9482826786      18.0000000000
9561 2      14.4993329122      19.0000000000
9562 2      12.3962453535      14.0000000000
9563 2      15.0879307619      18.0000000000
9564 2      11.7644422363      18.0000000000
9565 2      12.4992948449      16.0000000000
9566 2      16.6586607565      23.0000000000
9567 2      14.2054002097      19.0000000000
9568 2      14.5789407804      18.0000000000
9569 2      14.3397551196      16.0000000000
9570 2      16.7642180174      18.0000000000
9571 2      15.0844541152      16.0000000000
9572 2      12.3643499498      15.0000000000
9573 2      16.4367318746      20.0000000000
9574 2      14.3585751948      15.0000000000
9575 2      12.5397879711      16.0000000000
9576 2      14.6866339204      16.0000000000
9577 2      16.5071027683      16.0000000000
9578 2      16.5759785895      16.0000000000
9579 2      15.1308194567      17.0000000000
9580 2      14.1585740748      18.0000000000
9581 2      13.1191635399      14.0000000000
9582 2      15.9679283528      19.0000000000
9583 2      13.0070936836      16.0000000000
9584 2      13.4319791764      15.0000000000
9585 2      15.2608504549      20.0000000000
9586 2      12.6476000184      16.0000000000
9587 2      13.3776820662      17.0000000000
9588 2      15.4324986468      16.0000000000
9589 2      12.3462306442      14.0000000000
9590 2      14.6666676611      18.0000000000
9591 2      15.4248551349      19.0000000000
9592 2      15.8851716695      18.0000000000
9593 2      14.9459110824      17.0000000000
9594 2      13.4206027115      18.0000000000
9595 2      17.1702858771      19.0000000000
9596 2      14.4750289451      16.0000000000
9597 2      14.2345282823      16.0000000000
9598 2      14.9647951749      17.0000000000
9599 2      14.3402955579      18.0000000000
9600 2      14.3779511900      16.0000000000
9601 2      14.5243550583      18.0000000000
9602 2      14.1604266534      17.0000000000
9603 2      13.3840586961      19.0000000000
9604 2      14.5217189728      17.0000000000
9605 2      16.0917441565      18.0000000000
9606 2      12.1432841532      19.0000000000
9607 2      14.1422063155      16.0000000000
9608 2      13.0962093606      17.0000000000
9609 2      16.5118360009      19.0000000000
9610 2      12.5623806041      15.0000000000
9611 2      14.7647402839      14.0000000000
9612 2      13.5330645806      20.0000000000
9613 2      14.9047984348      16.0000000000
9614 2      16.3674351188      21.0000000000
9615 2      15.8493923977      19.0000000000
9616 2      14.5918022441      18.0000000000
9617 2      13.1594457141      15.0000000000
9618 2      15.1438770739      18.0000000000
9619 2      14.8014831092      18.0000000000
9620 2      15.7327330860      17.0000000000
9621 2      12.8733150752      17.0000000000
9622 2      16.9702160223      18.0000000000
9623 2      15.2696044058      15.0000000000
9624 2      13.5311487395      16.0000000000
9625 2      13.8111328603      19.0000000000
9626 2      17.0176498551      22.0000000000
9627 2      15.7585992199      18.0000000000
9628 2      12.5035318979      14.0000000000
9629 2      13.7752045746      16.0000000000
9630 2      16.1793096465      16.0000000000
9631 2      16.9869096965      18.0000000000
9632 2      12.6007290239      15.0000000000
9633 2      15.9104836774      17.0000000000
9634 2      13.7938936533      20.0000000000
9635 2      15.9891612197      16.0000000000
9636 2      14.5988571380      20.0000000000
9637 2      13.8423667455      21.0000000000
9638 2      14.4503029211      15.0000000000
9639 2      14.6451248677      18.0000000000
9640 2      17.9662648658      22.0000000000
9641 2      10.9700944442      16.0000000000
9642 2      12.7260179121      15.0000000000
9643 2      16.6787094017      19.0000000000
9644 2      14.6812798281      15.0000000000
9645 2      14.8150595929      18.0000000000
9646 2      16.0415144421      21.0000000000
9647 2      13.9164320141      18.0000000000
9648 2      15.7728591394      19.0000000000
9649 2      14.2132595153      21.0000000000
9650 2      13.6541861118      14.0000000000
9651 2      13.2031250339      14.0000000000
9652 2      13.6181674649      18.0000000000
9653 2      14.1203042511      20.0000000000
9654 2      16.2681824715      21.0000000000
9655 2      12.8797684096      16.0000000000
9656 2      16.0549721394      20.0000000000
9657 2      12.9221571964      17.0000000000
9658 2      17.1169343255      18.0000000000
9659 2      14.8019683464      19.0000000000
9660 2      12.8998534325      16.0000000000
9661 2      14.4850521577      19.0000000000
9662 2      13.2140611806      15.0000000000
9663 2      15.1701116827      22.0000000000
9664 2      13.1206181282      13.0000000000
9665 2      12.9399948120      18.0000000000
9666 2      14.8141078422      18.0000000000
9667 2      15.7330319418      22.0000000000
9668 2      14.0731800710      18.0000000000
9669 2      13.2141087601      18.0000000000
9670 2      13.3656209511      17.0000000000
9671 2      16.0349461660      20.0000000000
9672 2      12.9082543891      16.0000000000
9673 2      16.5480721792      21.0000000000
9674 2      13.6377296989      14.0000000000
9675 2      16.7039255407      19.0000000000
9676 2      15.5423931530      20.0000000000
9677 2      13.6722703554      17.0000000000
9678 2      17.1365676110      28.0000000000
9679 2      11.9437958388      15.0000000000
9680 2      14.2847137410      18.0000000000
9681 2      16.6263113534      19.0000000000
9682 2      15.6292413858      21.0000000000
9683 2      14.2875865985      17.0000000000
9684 2      13.0196058827      17.0000000000
9685 2      16.9347796716      22.0000000000
9686 2      15.0113194455      15.0000000000
9687 2      15.4584557902      21.0000000000
9688 2      17.6078388868      18.0000000000
9689 2      12.9183293514      16.0000000000
9690 2      14.0589146061      18.0000000000
9691 2      14.0528079367      17.0000000000
9692 2      13.4908122262      17.0000000000
9693 2      13.4845364776      18.0000000000
9694 2      15.7840253058      19.0000000000
9695 2      14.7476989425      18.0000000000
9696 2      16.3311445576      21.0000000000
9697 2      15.1596005715      17.0000000000
9698 2      13.3264154111      15.0000000000
9699 2      14.9120557097      16.0000000000
9700 2      13.6286147850      18.0000000000
9701 2      13.4011442420      15.0000000000
9702 2      14.7143436499      21.0000000000
9703 2      14.4684097509      18.0000000000
9704 2      13.2655053884      17.0000000000
9705 2      13.2214391015      15.0000000000
9706 2      15.0987910318      16.0000000000
9707 2      13.6615852619      14.0000000000
9708 2      14.1773186001      18.0000000000
9709 2      14.3078253356      16.0000000000
9710 2      18.7665368219      18.0000000000
9711 2      16.2525691143      21.0000000000
9712 2      15.1734342553      20.0000000000
9713 2      12.9118897158      16.0000000000
9714 2      16.0277282515      18.0000000000
9715 2      11.6572463272      15.0000000000
9716 2      13.1573036081      15.0000000000
9717 2      15.3710872030      20.0000000000
9718 2      13.3266568103      14.0000000000
9719 2      12.2323252887      18.0000000000
9720 2      12.8167756738      17.0000000000
9721 2      14.2317847768      17.0000000000
9722 2      12.5962227862      18.0000000000
9723 2      11.9611993564      14.0000000000
9724 2      17.0884331165      22.0000000000
9725 2      13.9440025217      16.0000000000
9726 2      16.0890236051      15.0000000000
9727 2      13.8586491106      18.0000000000
9728 2      15.0151579351      17.0000000000
9729 2      15.1189193606      14.0000000000
9730 2      15.2888416341      19.0000000000
9731 2      13.7490162149      15.0000000000
9732 2      15.0503474333      17.0000000000
9733 2      17.1328092949      18.0000000000
9734 2      14.4630659517      19.0000000000
9735 2      16.1598887515      23.0000000000
9736 2      11.9819947761      16.0000000000
9737 2      16.4158728532      23.0000000000
9738 2      16.6811770735      16.0000000000
9739 2      15.9440829374      16.0000000000
9740 2      14.6554994839      17.0000000000
9741 2      14.1671056522      19.0000000000
9742 2      13.8980283206      17.0000000000
9743 2      14.3863152809      20.0000000000
9744 2      11.8299157388      14.0000000000
9745 2      12.5953533857      14.0000000000
9746 2      13.8064839087      17.0000000000
9747 2      13.6288779599      17.0000000000
9748 2      14.3180426992      20.0000000000
9749 2      12.3415718102      15.0000000000
9750 2      18.4037337743      20.0000000000
9751 2      17.0680445512      22.0000000000
9752 2      16.6156589093      20.0000000000
9753 2      14.9055775585      18.0000000000
9754 2      12.9818366247      15.0000000000
9755 2      14.6998565431      20.0000000000
9756 2      13.3203819611      16.0000000000
9757 2      15.2062907170      14.0000000000
9758 2      12.6300637680      15.0000000000
9759 2      15.5688775329      21.0000000000
9760 2      17.2372911025      23.0000000000
9761 2      16.2679307664      19.0000000000
9762 2      12.6225810319      14.0000000000
9763 2      16.2302864851      19.0000000000
9764 2      13.1244430045      20.0000000000
9765 2      14.7685312591      17.0000000000
9766 2      14.5980554607      20.0000000000
9767 2      12.8080571740      15.0000000000
9768 2      13.1773437391      15.0000000000
9769 2      12.8019121881      15.0000000000
9770 2      15.0586419068      22.0000000000
9771 2      16.8993150093      20.0000000000
9772 2      14.5573235349      19.0000000000
9773 2      10.5498762660      11.0000000000
9774 2      13.1617668529      16.0000000000
9775 2      15.0305256169      16.0000000000
9776 2      14.3453555000      21.0000000000
9777 2      15.8838658483      17.0000000000
9778 2      14.2627430059      21.0000000000
9779 2      14.9985268600      16.0000000000
9780 2      14.1524930539      18.0000000000
9781 2      12.0442746793      17.0000000000
9782 2      13.6961991132      18.0000000000
9783 2      16.3899787935      21.0000000000
9784 2      16.1378787280      19.0000000000
9785 2      13.2030387478      14.0000000000
9786 2      14.9249647653      17.0000000000
9787 2      13.5158174618      18.0000000000
9788 2      15.9319586099      19.0000000000
9789 2      15.5098437824      17.0000000000
9790 2      15.5764289276      17.0000000000
9791 2      13.0862624099      19.0000000000
9792 2      16.9264100483      20.0000000000
9793 2      12.8791668876      15.0000000000
9794 2      14.2777318962      18.0000000000
9795 2      15.7046436276      18.0000000000
9796 2      13.9991926718      16.0000000000
9797 2      14.1418829402      15.0000000000
9798 2      14.7886014598      20.0000000000
9799 2      13.9783012186      16.0000000000
9800 2      14.9636454900      18.0000000000
9801 2      14.0889384515      16.0000000000
9802 2      12.4024668838      17.0000000000
9803 2      15.4792133577      22.0000000000
9804 2      15.5630024937      22.0000000000
9805 2      15.2150548213      21.0000000000
9806 2      16.6645394303      17.0000000000
9807 2      13.4744698915      16.0000000000
9808 2      13.4637291591      20.0000000000
9809 2      11.6995362107      16.0000000000
9810 2      14.6443937402      17.0000000000
9811 2      13.2875273961      16.0000000000
9812 2      13.3884547447      16.0000000000
9813 2      14.6746631434      17.0000000000
9814 2      15.5378528840      20.0000000000
9815 2      15.2164788256      17.0000000000
9816 2      16.9850795777      21.0000000000
9817 2      15.5272239171      18.0000000000
9818 2      14.5887851432      15.0000000000
9819 2      15.9008460837      20.0000000000
9820 2      13.6339535845      16.0000000000
9821 2      13.4227298034      19.0000000000
9822 2      17.4713977951      18.0000000000
9823 2      16.1784593213      20.0000000000
9824 2      12.2438219713      15.0000000000
9825 2      16.0216975915      20.0000000000
9826 2      12.4643481429      14.0000000000
9827 2      15.4883211878      19.0000000000
9828 2      15.2058789904      20.0000000000
9829 2      12.3469138358      17.0000000000
9830 2      15.2028615987      18.0000000000
9831 2      14.0920084985      15.0000000000
9832 2      13.3860181374      17.0000000000
9833 2      13.3134052085      14.0000000000
9834 2      15.1803655190      20.0000000000
9835 2      17.4933368180      18.0000000000
9836 2      13.8039417968      19.0000000000
9837 2      17.5420988297      16.0000000000
9838 2      13.6103712243      17.0000000000
9839 2      13.7366125837      14.0000000000
9840 2      13.6102689561      17.0000000000
9841 2      11.8244361391      14.0000000000
9842 2      13.9967096504      21.0000000000
9843 2      19.8101580882      22.0000000000
9844 2      16.3272714026      18.0000000000
9845 2      16.2219378884      19.0000000000
9846 2      14.1877990202      18.0000000000
9847 2      12.6811413044      16.0000000000
9848 2      15.1684395384      18.0000000000
9849 2      12.8993239377      15.0000000000
9850 2      14.6127247240      15.0000000000
9851 2      14.1495873657      16.0000000000
9852 2      13.9452053892      21.0000000000
9853 2      15.0479474106      22.0000000000
9854 2      13.7471332496      15.0000000000
9855 2      15.9730759647      19.0000000000
9856 2      15.0136254584      20.0000000000
9857 2      15.1294089315      18.0000000000
9858 2      14.8968307352      16.0000000000
9859 2      15.9924439102      16.0000000000
9860 2      14.5817908894      16.0000000000
9861 2      16.1065466540      22.0000000000
9862 2      13.9637420502      19.0000000000
9863 2      14.5692140417      20.0000000000
9864 2      11.8299772255      14.0000000000
9865 2      15.4728636421      18.0000000000
9866 2      11.8491325542      16.0000000000
9867 2      14.2577229931      15.0000000000
9868 2      15.9115476992      19.0000000000
9869 2      14.7485007018      19.0000000000
9870 2      13.4879016079      16.0000000000
9871 2      15.9105270239      20.0000000000
9872 2      16.2470894987      18.0000000000
9873 2      14.8813783855      22.0000000000
9874 2      15.2108691191      20.0000000000
9875 2      13.9906588035      19.0000000000
9876 2      13.2538602091      19.0000000000
9877 2      14.8420583411      18.0000000000
9878 2      15.3657745472      19.0000000000
9879 2      13.7263675425      18.0000000000
9880 2      12.9190851173      17.0000000000
9881 2      17.0670372576      20.0000000000
9882 2      15.7367723379      16.0000000000
9883 2      13.0507667928      15.0000000000
9884 2      15.1800212638      21.0000000000
9885 2      15.3925675480      20.0000000000
9886 2      14.2528279057      17.0000000000
9887 2      17.8568233487      20.0000000000
9888 2      16.8736945152      21.0000000000
9889 2      14.9001576620      17.0000000000
9890 2      15.4541723606      18.0000000000
9891 2      15.9383618307      18.0000000000
9892 2      13.1771502779      17.0000000000
9893 2      14.5595758160      17.0000000000
9894 2      14.2726645080      18.0000000000
9895 2      14.9660227916      15.0000000000
9896 2      13.1272420212      17.0000000000
9897 2      12.4657387609      15.0000000000
9898 2      15.6173993875      17.0000000000
9899 2      13.2420115844      21.0000000000
9900 2      14.3470269258      17.0000000000
9901 2      14.1393362051      17.0000000000
9902 2      14.5646060962      18.0000000000
9903 2      16.4560228732      19.0000000000
9904 2      13.8398259489      18.0000000000
9905 2      15.2031295388      14.0000000000
9906 2      15.8628192220      17.0000000000
9907 2      16.4028261872      18.0000000000
9908 2      12.4555561178      14.0000000000
9909 2      13.0171443684      17.0000000000
9910 2      14.6777940782      20.0000000000
9911 2      15.6293772398      19.0000000000
9912 2      14.7792715811      16.0000000000
9913 2      17.7379403308      18.0000000000
9914 2      13.7331486329      15.0000000000
9915 2      15.0803454374      21.0000000000
9916 2      14.2615532638      18.0000000000
9917 2      15.2582291768      18.0000000000
9918 2      14.5184482498      19.0000000000
9919 2      17.1553754718      22.0000000000
9920 2      15.3349806679      18.0000000000
9921 2      12.2827407995      16.0000000000
9922 2      14.8008429218      20.0000000000
9923 2      14.1782862391      17.0000000000
9924 2      15.1878681359      20.0000000000
9925 2      12.5101772737      14.0000000000
9926 2      14.7047271601      18.0000000000
9927 2      19.8308387068      20.0000000000
9928 2      15.5110825980      19.0000000000
9929 2      14.7909194250      23.0000000000
9930 2      16.7395098261      21.0000000000
9931 2      15.2515953211      17.0000000000
9932 2      14.7793497702      18.0000000000
9933 2      14.0503927984      18.0000000000
9934 2      14.2596862855      18.0000000000
9935 2      14.4596118655      22.0000000000
9936 2      15.0731612542      16.0000000000
9937 2      16.2814073551      20.0000000000
9938 2      18.8100734751      18.0000000000
9939 2      15.7690424072      16.0000000000
9940 2      15.1193205172      16.0000000000
9941 2      14.1539492190      19.0000000000
9942 2      12.8883264596      17.0000000000
9943 2      12.4368422614      14.0000000000
9944 2      14.2705430050      20.0000000000
9945 2      12.8778800911      16.0000000000
9946 2      15.0092185879      18.0000000000
9947 2      14.4093827875      18.0000000000
9948 2      15.5937554456      19.0000000000
9949 2      17.0459562476      13.0000000000
9950 2      15.1368930735      16.0000000000
9951 2      16.0744909517      21.0000000000
9952 2      17.8795684320      16.0000000000
9953 2      17.5048973924      20.0000000000
9954 2      14.8532299433      16.0000000000
9955 2      14.9970982341      16.0000000000
9956 2      12.8302639634      17.0000000000
9957 2      15.1251681979      19.0000000000
9958 2      16.8766047138      17.0000000000
9959 2      14.7903049202      16.0000000000
9960 2      15.6595938721      17.0000000000
9961 2      17.5260200878      18.0000000000
9962 2      12.4649463453      15.0000000000
9963 2      15.0824966237      19.0000000000
9964 2      14.5894050581      19.0000000000
9965 2      15.6445354807      17.0000000000
9966 2      12.9761069425      13.0000000000
9967 2      17.6792877144      19.0000000000
9968 2      15.4796491253      16.0000000000
9969 2      16.8234906934      21.0000000000
9970 2      14.8907609231      17.0000000000
9971 2      17.7191368573      18.0000000000
9972 2      16.8257455074      24.0000000000
9973 2      12.9000615439      15.0000000000
9974 2      14.9376868783      18.0000000000
9975 2      16.1196085549      15.0000000000
9976 2      15.6344061809      15.0000000000
9977 2      14.4721492220      16.0000000000
9978 2      15.4233087301      19.0000000000
9979 2      16.2043389757      16.0000000000
9980 2      19.1477088195      25.0000000000
9981 2      10.7062575927      13.0000000000
9982 2      14.8738043759      16.0000000000
9983 2      17.7763034986      22.0000000000
9984 2      14.6246913984      17.0000000000
9985 2      15.7167802378      18.0000000000
9986 2      12.6512990463      17.0000000000
9987 2      15.3181331331      18.0000000000
9988 2      15.5197795068      20.0000000000
9989 2      13.6091637415      14.0000000000
9990 2      16.5416908850      18.0000000000
9991 2      11.5668794108      15.0000000000
9992 2      12.1930996764      15.0000000000
9993 2      14.0545523234      19.0000000000
9994 2      15.8330139828      21.0000000000
9995 2      14.0248942613      20.0000000000
9996 2      15.9285976408      18.0000000000
9997 2      14.7689760659      16.0000000000
9998 2      13.1033558650      18.0000000000
9999 2      14.9138988954      17.0000000000
10000 2      13.9865390653      16.0000000000
10001 2      15.8002436029      18.0000000000
10002 2      13.6477127626      18.0000000000
10003 2      16.5811484449      17.0000000000
10004 2      16.5172279287      20.0000000000
10005 2      15.0006076614      19.0000000000
10006 2      14.4692661802      19.0000000000
10007 2      16.0002607318      19.0000000000
10008 2      15.2444393816      19.0000000000
10009 2      14.7005399255      16.0000000000
10010 2      12.5541666930      17.0000000000
10011 2      15.0798878569      18.0000000000
10012 2      14.1204746338      19.0000000000
10013 2      13.5333991922      18.0000000000
10014 2      14.7826183515      18.0000000000
10015 2      15.2579933573      18.0000000000
10016 2      15.4460104850      15.0000000000
10017 2      16.6023449164      18.0000000000
10018 2      14.9597809389      17.0000000000
10019 2      15.6557705323      17.0000000000
10020 2      17.5452275013      18.0000000000
10021 2      14.6972404588      23.0000000000
10022 2      15.6861394479      20.0000000000
10023 2      14.8095160903      20.0000000000
10024 2      16.4148017703      17.0000000000
10025 2      16.6579511018      22.0000000000
10026 2      15.8965476228      22.0000000000
10027 2      15.7360619976      20.0000000000
10028 2      15.6072325106      15.0000000000
10029 2      14.4340918013      18.0000000000
10030 2      14.6665659584      17.0000000000
10031 2      15.2239815372      22.0000000000
10032 2      13.6401103888      17.0000000000
10033 2      13.6384298865      17.0000000000
10034 2      16.0359970284      24.0000000000
10035 2      16.1168654117      20.0000000000
10036 2      16.1499028904      17.0000000000
10037 2      13.1753914291      18.0000000000
10038 2      16.9890757348      22.0000000000
10039 2      14.4028419168      21.0000000000
10040 2      14.4824861482      19.0000000000
10041 2      13.5000428965      17.0000000000
10042 2      15.2226773494      19.0000000000
10043 2      14.6961830855      21.0000000000
10044 2      13.4412643194      19.0000000000
10045 2      14.4274977087      17.0000000000
10046 2      13.9149214161      18.0000000000
10047 2      16.0343120716      19.0000000000
10048 2      17.2518408878      19.0000000000
10049 2      13.3625454771      18.0000000000
10050 2      15.2911150980      18.0000000000
10051 2      13.5217044915      14.0000000000
10052 2      17.0701108558      19.0000000000
10053 2      16.2182514852      17.0000000000
10054 2      13.1339027001      15.0000000000
10055 2      13.1863132332      19.0000000000
10056 2      15.3387077877      20.0000000000
10057 2      11.5670388084      15.0000000000
10058 2      14.9527310450      18.0000000000
10059 2      12.4423697638      16.0000000000
10060 2      11.6579633418      16.0000000000
10061 2      14.4312057569      18.0000000000
10062 2      14.6216137487      21.0000000000
10063 2      15.0085407227      18.0000000000
10064 2      14.9936642780      17.0000000000
10065 2      16.1825955798      20.0000000000
10066 2      14.2824135274      16.0000000000
10067 2      16.0730995664      22.0000000000
10068 2      14.0096902481      18.0000000000
10069 2      14.8471983566      17.0000000000
10070 2      18.8535231750      23.0000000000
10071 2      13.1166244465      17.0000000000
10072 2      16.2374293008      20.0000000000
10073 2      13.9934749890      16.0000000000
10074 2      14.0931459288      18.0000000000
10075 2      14.4184100177      17.0000000000
10076 2      12.6919794004      17.0000000000
10077 2      16.0193897996      16.0000000000
10078 2      13.7454977935      21.0000000000
10079 2      15.4035188321      19.0000000000
10080 2      15.1470355928      19.0000000000
10081 2      14.3912588421      15.0000000000
10082 2      15.8305835489      18.0000000000
10083 2      15.0547125422      16.0000000000
10084 2      12.6039621562      18.0000000000
10085 2      15.6028156065      16.0000000000
10086 2      17.9772594702      20.0000000000
10087 2      14.9326165126      19.0000000000
10088 2      13.5276818957      15.0000000000
10089 2      15.1858523836      18.0000000000
10090 2      12.7466942951      14.0000000000
10091 2      16.5284078945      17.0000000000
10092 2      14.6143588703      20.0000000000
10093 2      13.8654984592      15.0000000000
10094 2      18.7380272517      19.0000000000
10095 2      13.2492911094      15.0000000000
10096 2      16.6698522115      18.0000000000
10097 2      14.7514688208      18.0000000000
10098 2      11.7545619088      15.0000000000
10099 2      17.0115286154      21.0000000000
10100 2      15.1899503102      17.0000000000
10101 2      13.6202012514      14.0000000000
10102 2      15.8427063814      18.0000000000
10103 2      13.1476461438      18.0000000000
10104 2      15.3119398442      17.0000000000
10105 2      14.3806208601      20.0000000000
10106 2      13.4389475608      18.0000000000
10107 2      15.4163947906      19.0000000000
10108 2      16.1941538978      21.0000000000
10109 2      13.6248831088      18.0000000000
10110 2      15.5201958363      21.0000000000
10111 2      11.4424458064      16.0000000000
10112 2      15.2226953794      20.0000000000
10113 2      15.0849543369      17.0000000000
10114 2      17.1250980496      20.0000000000
10115 2      15.8100916713      18.0000000000
10116 2      12.8375861344      14.0000000000
10117 2      16.9997662538      17.0000000000
10118 2      16.3541047337      19.0000000000
10119 2      13.3806805667      17.0000000000
10120 2      13.6187845341      18.0000000000
10121 2      14.8218594126      19.0000000000
10122 2      13.3987113583      16.0000000000
10123 2      13.2811216197      19.0000000000
10124 2      14.1018881824      20.0000000000
10125 2      15.0036452638      16.0000000000
10126 2      16.4466791828      17.0000000000
10127 2      13.4627766121      16.0000000000
10128 2      13.5660119482      17.0000000000
10129 2      13.7496021573      18.0000000000
10130 2      15.9916244352      19.0000000000
10131 2      15.1812998033      16.0000000000
10132 2      16.4615935340      21.0000000000
10133 2      16.3282181863      21.0000000000
10134 2      14.5250569563      18.0000000000
10135 2      14.7066844479      20.0000000000
10136 2      14.9284653955      20.0000000000
10137 2      12.6513854090      16.0000000000
10138 2      17.3354312374      18.0000000000
10139 2      14.8899257909      19.0000000000
10140 2      13.6855999028      16.0000000000
10141 2      14.7671927474      18.0000000000
10142 2      12.4799161595      16.0000000000
10143 2      17.7599616320      17.0000000000
10144 2      16.0324592953      18.0000000000
10145 2      14.7379386834      21.0000000000
10146 2      13.7897225917      15.0000000000
10147 2      13.7172074352      17.0000000000
10148 2      16.4469563364      17.0000000000
10149 2      13.6391296109      16.0000000000
10150 2      13.3415345202      16.0000000000
10151 2      15.8361552014      20.0000000000
10152 2      13.7485833087      17.0000000000
10153 2      15.6559613500      20.0000000000
10154 2      15.9617644073      17.0000000000
10155 2      15.1033468763      20.0000000000
10156 2      16.5070724590      20.0000000000
10157 2      14.3686495789      15.0000000000
10158 2      14.7932040612      24.0000000000
10159 2      16.2476530244      17.0000000000
10160 2      18.1722979266      22.0000000000
10161 2      12.9908893175      14.0000000000
10162 2      17.1141936239      21.0000000000
10163 2      13.2322666282      17.0000000000
10164 2      14.5907075356      19.0000000000
10165 2      13.5490657853      18.0000000000
10166 2      12.4612896202      16.0000000000
10167 2      12.9825559558      16.0000000000
10168 2      12.9068157389      15.0000000000
10169 2      11.2669886354      14.0000000000
10170 2      20.4848235132      21.0000000000
10171 2      14.9689872001      18.0000000000
10172 2      18.0920870582      20.0000000000
10173 2      16.1470783020      17.0000000000
10174 2      13.6656309456      16.0000000000
10175 2      14.9447003049      17.0000000000
10176 2      14.4440304807      16.0000000000
10177 2      15.9008267045      20.0000000000
10178 2      15.6481192697      17.0000000000
10179 2      18.1923083604      18.0000000000
10180 2      12.7626446612      12.0000000000
10181 2      16.8662349877      17.0000000000
10182 2      12.7099264120      16.0000000000
10183 2      15.6204076195      18.0000000000
10184 2      14.0927142583      20.0000000000
10185 2      13.8704136386      18.0000000000
10186 2      14.2467782921      15.0000000000
10187 2      16.1590151667      15.0000000000
10188 2      13.9879813292      18.0000000000
10189 2      14.5157029516      18.0000000000
10190 2      15.3967431508      17.0000000000
10191 2      14.9506827552      19.0000000000
10192 2      12.4774488576      17.0000000000
10193 2      13.9842735351      14.0000000000
10194 2      17.1108945418      17.0000000000
10195 2      16.6589425403      19.0000000000
10196 2      14.2593661921      20.0000000000
10197 2      11.3542960851      17.0000000000
10198 2      14.4824602167      15.0000000000
10199 2      13.2780006994      19.0000000000
10200 2      15.0330911715      17.0000000000
10201 2      12.6455243705      15.0000000000
10202 2      16.5277043437      19.0000000000
10203 2      14.4880752231      19.0000000000
10204 2      10.5307598804      14.0000000000
10205 2      12.6926172154      17.0000000000
10206 2      14.1573053850      17.0000000000
10207 2      13.4234588252      19.0000000000
10208 2      17.0186435994      22.0000000000
10209 2      17.7563717166      20.0000000000
10210 2      19.4755905727      22.0000000000
10211 2      15.6716979439      18.0000000000
10212 2      16.1074704633      19.0000000000
10213 2      13.9822969877      13.0000000000
10214 2      15.8290693698      16.0000000000
10215 2      15.2078162927      18.0000000000
10216 2      16.6805529329      23.0000000000
10217 2      15.7142293606      19.0000000000
10218 2      14.2912555164      17.0000000000
10219 2      15.0468147468      19.0000000000
10220 2      12.7725741406      15.0000000000
10221 2      11.9292378373      17.0000000000
10222 2      14.1127542083      19.0000000000
10223 2      14.0609376258      15.0000000000
10224 2      14.7492993920      18.0000000000
10225 2      14.1074594080      22.0000000000
10226 2      17.4522414516      20.0000000000
10227 2      12.8304092060      15.0000000000
10228 2      16.3951256800      18.0000000000
10229 2      12.5369791460      17.0000000000
10230 2      17.3445950170      22.0000000000
10231 2      15.6337783445      18.0000000000
10232 2      15.2575194743      13.0000000000
10233 2      13.3037874693      16.0000000000
10234 2      15.7067529436      17.0000000000
10235 2      12.5978514400      13.0000000000
10236 2      17.1614559974      17.0000000000
10237 2      13.4456618130      19.0000000000
10238 2      15.8084824613      21.0000000000
10239 2      15.7693780111      19.0000000000
10240 2      13.3308505308      16.0000000000
10241 2      12.4089653118      17.0000000000
10242 2      13.9076533259      15.0000000000
10243 2      16.8553450998      22.0000000000
10244 2      16.6973985750      20.0000000000
10245 2      15.9190983031      19.0000000000
10246 2      18.4558017743      20.0000000000
10247 2      12.9215444412      19.0000000000
10248 2      16.0699124126      18.0000000000
10249 2      15.1171577841      18.0000000000
10250 2      15.5948263411      21.0000000000
10251 2      13.6545946447      16.0000000000
10252 2      11.6094889693      15.0000000000
10253 2      13.5778232598      15.0000000000
10254 2      14.2363098630      15.0000000000
10255 2      14.0360972377      16.0000000000
10256 2      13.8392084364      19.0000000000
10257 2      14.9944049158      17.0000000000
10258 2      16.9579259328      18.0000000000
10259 2      14.3471837282      16.0000000000
10260 2      13.6705639238      18.0000000000
10261 2      15.5828177727      20.0000000000
10262 2      17.8743119412      20.0000000000
10263 2      17.4485352441      20.0000000000
10264 2      13.3532624290      16.0000000000
10265 2      15.4524187729      17.0000000000
10266 2      13.3833090561      16.0000000000
10267 2      12.8675712768      16.0000000000
10268 2      16.4409416164      16.0000000000
10269 2      16.7891871393      17.0000000000
10270 2      15.6510574610      18.0000000000
10271 2      15.5333277006      19.0000000000
10272 2      17.0807965396      22.0000000000
10273 2      14.6993796382      18.0000000000
10274 2      13.3754753818      17.0000000000
10275 2      14.2678925525      19.0000000000
10276 2      13.4700829397      17.0000000000
10277 2      14.8776881440      17.0000000000
10278 2      13.7929504551      16.0000000000
10279 2      14.7526281332      19.0000000000
10280 2      14.9729658357      17.0000000000
10281 2      15.9414609609      18.0000000000
10282 2      12.5819272827      15.0000000000
10283 2      15.6684061498      22.0000000000
10284 2      16.1088698974      15.0000000000
10285 2      13.7602529540      19.0000000000
10286 2      13.1859596856      17.0000000000
10287 2      14.4330201221      20.0000000000
10288 2      13.7408617117      15.0000000000
10289 2      15.8474788891      21.0000000000
10290 2      15.1982068578      16.0000000000
10291 2      11.7066382835      17.0000000000
10292 2      13.1165626805      15.0000000000
10293 2      15.8788706068      16.0000000000
10294 2      16.1511475836      20.0000000000
10295 2      12.9919534727      16.0000000000
10296 2      16.1046925899      18.0000000000
10297 2      14.5206535071      19.0000000000
10298 2      12.7643847599      16.0000000000
10299 2      13.4948062623      16.0000000000
10300 2      13.8521132351      18.0000000000
10301 2      14.0435638034      19.0000000000
10302 2      15.9748454627      19.0000000000
10303 2      12.4291053673      18.0000000000
10304 2      12.4501025788      14.0000000000
10305 2      15.8416894929      20.0000000000
10306 2      11.4240476490      14.0000000000
10307 2      13.4023578273      18.0000000000
10308 2      13.3784618670      16.0000000000
10309 2      13.0624440862      15.0000000000
10310 2      15.2968439704      16.0000000000
10311 2      15.0631895947      15.0000000000
10312 2      17.2491031290      22.0000000000
10313 2      15.8672289218      21.0000000000
10314 2      15.1646988808      20.0000000000
10315 2      14.2956002953      15.0000000000
10316 2      13.5502806381      16.0000000000
10317 2      14.3880658548      20.0000000000
10318 2      14.6527316558      18.0000000000
10319 2      16.3081078989      16.0000000000
10320 2      13.7665368016      17.0000000000
10321 2      13.5692916395      18.0000000000
10322 2      14.1984010802      16.0000000000
10323 2      17.7244302887      17.0000000000
10324 2      14.7653128549      19.0000000000
10325 2      13.3605234215      16.0000000000
10326 2      15.6582861884      21.0000000000
10327 2      12.4415589367      18.0000000000
10328 2      15.7734584912      23.0000000000
10329 2      14.6506883248      20.0000000000
10330 2      14.8541534298      18.0000000000
10331 2      14.0234818261      19.0000000000
10332 2      13.9009952472      15.0000000000
10333 2      13.7177237038      17.0000000000
10334 2      14.3392748511      20.0000000000
10335 2      17.5421200282      16.0000000000
10336 2      14.8388278309      18.0000000000
10337 2      15.7344348779      20.0000000000
10338 2      12.0841470412      14.0000000000
10339 2      13.9517434804      19.0000000000
10340 2      13.0328337687      18.0000000000
10341 2      12.7325351976      16.0000000000
10342 2      15.0302091964      17.0000000000
10343 2      16.0925047744      18.0000000000
10344 2      13.7950197151      18.0000000000
10345 2      15.3748169880      22.0000000000
10346 2      17.7075699703      19.0000000000
10347 2      15.5446768834      19.0000000000
10348 2      15.3365796291      21.0000000000
10349 2      14.7757510154      19.0000000000
10350 2      14.7225996887      13.0000000000
10351 2      14.1474642806      19.0000000000
10352 2      16.6503841344      20.0000000000
10353 2      14.9056869440      23.0000000000
10354 2      13.8274600751      18.0000000000
10355 2      13.7810792123      17.0000000000
10356 2      13.5773876100      16.0000000000
10357 2      13.3182000832      16.0000000000
10358 2      15.1396600749      17.0000000000
10359 2      12.9179941599      20.0000000000
10360 2      14.6972772004      19.0000000000
10361 2      15.1118674523      19.0000000000
10362 2      16.9996933001      18.0000000000
10363 2      11.9821642368      16.0000000000
10364 2      13.9990546508      17.0000000000
10365 2      13.2048152569      14.0000000000
10366 2      14.2686229722      16.0000000000
10367 2      13.8407726673      15.0000000000
10368 2      15.5394341576      18.0000000000
10369 2      16.1475942162      18.0000000000
10370 2      14.7228109067      14.0000000000
10371 2      16.7550472496      19.0000000000
10372 2      16.1596486929      17.0000000000
10373 2      15.0035099777      20.0000000000
10374 2      19.8705239237      22.0000000000
10375 2      16.4689842415      19.0000000000
10376 2      13.0122425131      16.0000000000
10377 2      15.0959787686      19.0000000000
10378 2      15.4728727508      20.0000000000
10379 2      14.6549849027      16.0000000000
10380 2      12.5795823026      14.0000000000
10381 2      12.3136272203      16.0000000000
10382 2      13.7757483477      17.0000000000
10383 2      13.6887186871      21.0000000000
10384 2      15.2800797918      19.0000000000
10385 2      14.7880017068      19.0000000000
10386 2      13.7573635922      18.0000000000
10387 2      15.0586236631      17.0000000000
10388 2      15.4689621638      21.0000000000
10389 2      15.6890643344      18.0000000000
10390 2      14.7315107427      17.0000000000
10391 2      11.9302841857      18.0000000000
10392 2      14.2994055859      18.0000000000
10393 2      13.2455647293      13.0000000000
10394 2      14.7649079454      19.0000000000
10395 2      15.0279021379      19.0000000000
10396 2      16.7082715028      19.0000000000
10397 2      15.7029317964      17.0000000000
10398 2      15.0102412779      19.0000000000
10399 2      13.8859308403      19.0000000000
10400 2      13.3116485364      15.0000000000
10401 2      15.1442253010      17.0000000000
10402 2      14.6443123447      19.0000000000
10403 2      15.0851945986      22.0000000000
10404 2      17.3339769864      18.0000000000
10405 2      13.8199242462      18.0000000000
10406 2      15.1190472751      23.0000000000
10407 2      15.0810505295      21.0000000000
10408 2      15.4869484590      14.0000000000
10409 2      15.5197320140      19.0000000000
10410 2      13.3206481431      19.0000000000
10411 2      12.8962066016      14.0000000000
10412 2      15.8134458799      16.0000000000
10413 2      14.9673796759      17.0000000000
10414 2      13.9243060675      16.0000000000
10415 2      12.9119019408      13.0000000000
10416 2      17.4113910243      21.0000000000
10417 2      17.0965623713      20.0000000000
10418 2      13.0565515932      18.0000000000
10419 2      13.5365302895      16.0000000000
10420 2      15.0096934532      15.0000000000
10421 2      14.4159257242      12.0000000000
10422 2      15.7937383535      15.0000000000
10423 2      15.4246644784      16.0000000000
10424 2      14.3707528418      18.0000000000
10425 2      15.5322292578      16.0000000000
10426 2      14.9199492632      19.0000000000
10427 2      12.7730513112      15.0000000000
10428 2      16.6450877864      16.0000000000
10429 2      14.4888628885      17.0000000000
10430 2      12.7595791149      15.0000000000
10431 2      17.5618089191      22.0000000000
10432 2      15.5210227108      18.0000000000
10433 2      14.8320994116      18.0000000000
10434 2      13.5105845943      17.0000000000
10435 2      13.1565343607      21.0000000000
10436 2      13.4527313044      16.0000000000
10437 2      12.3460824409      15.0000000000
10438 2      16.1095381493      20.0000000000
10439 2      14.9859203473      17.0000000000
10440 2      15.2979945787      18.0000000000
10441 2      18.1870952832      26.0000000000
10442 2      16.3838980289      24.0000000000
10443 2      14.4538521998      18.0000000000
10444 2      15.2300457291      17.0000000000
10445 2      15.4854704474      21.0000000000
10446 2      14.3864915828      20.0000000000
10447 2      13.6723412849      17.0000000000
10448 2      15.3273382861      17.0000000000
10449 2      15.9116928998      19.0000000000
10450 2      17.1621092124      18.0000000000
10451 2      15.6157663420      18.0000000000
10452 2      14.7907958136      25.0000000000
10453 2      15.8632076291      19.0000000000
10454 2      14.0231162053      15.0000000000
10455 2      13.9653855950      17.0000000000
10456 2      13.1851938648      16.0000000000
10457 2      12.8021197993      18.0000000000
10458 2      15.9142125267      16.0000000000
10459 2      13.9159459668      17.0000000000
10460 2      15.7609179397      17.0000000000
10461 2      16.3498791084      20.0000000000
10462 2      17.1374838959      22.0000000000
10463 2      15.7349217830      20.0000000000
10464 2      14.2729885457      20.0000000000
10465 2      16.9555526748      16.0000000000
10466 2      17.6352006566      18.0000000000
10467 2      13.1202615898      17.0000000000
10468 2      15.2196873233      17.0000000000
10469 2      13.8099297221      16.0000000000
10470 2      15.2408958459      18.0000000000
10471 2      14.0892223721      18.0000000000
10472 2      14.1654990249      19.0000000000
10473 2      12.7748183941      17.0000000000
10474 2      12.8353249060      18.0000000000
10475 2      15.2450959628      19.0000000000
10476 2      14.3069229475      15.0000000000
10477 2      14.2297068498      16.0000000000
10478 2      14.9856385689      19.0000000000
10479 2      16.2406604150      15.0000000000
10480 2      13.1084879199      14.0000000000
10481 2      13.5078502336      17.0000000000
10482 2      15.5245919142      19.0000000000
10483 2      13.9513808641      20.0000000000
10484 2      14.4206012045      16.0000000000
10485 2      14.3394517890      19.0000000000
10486 2      13.6254553920      16.0000000000
10487 2      16.2036970983      19.0000000000
10488 2      13.5888856712      16.0000000000
10489 2      12.8683687297      13.0000000000
10490 2      11.5055357137      15.0000000000
10491 2      12.6293660268      17.0000000000
10492 2      14.8191361839      19.0000000000
10493 2      13.6660676697      18.0000000000
10494 2      12.0311083535      16.0000000000
10495 2      15.2841672782      17.0000000000
10496 2      16.0887119670      22.0000000000
10497 2      14.8968131283      18.0000000000
10498 2      13.9356416388      16.0000000000
10499 2      15.1958987072      21.0000000000
10500 2      16.6932943303      24.0000000000
10501 2      14.8499881867      15.0000000000
10502 2      13.7188082868      19.0000000000
10503 2      15.1592528195      20.0000000000
10504 2      14.3801883621      20.0000000000
10505 2      13.1622199958      16.0000000000
10506 2      14.5364713044      17.0000000000
10507 2      16.1379314482      17.0000000000
10508 2      14.9399650769      20.0000000000
10509 2      14.5762604656      20.0000000000
10510 2      14.9942288367      20.0000000000
10511 2      14.3545189607      19.0000000000
10512 2      13.7761900265      19.0000000000
10513 2      15.3797855306      19.0000000000
10514 2      14.6631871326      17.0000000000
10515 2      13.4239428125      19.0000000000
10516 2      14.1193895753      16.0000000000
10517 2      16.2325840157      17.0000000000
10518 2      12.8028524754      16.0000000000
10519 2      16.8166668235      16.0000000000
10520 2      15.4349094128      20.0000000000
10521 2      13.6646298357      16.0000000000
10522 2      14.5204212186      17.0000000000
10523 2      14.4269579198      17.0000000000
10524 2      15.5589964516      20.0000000000
10525 2      17.9652048954      21.0000000000
10526 2      20.4730480029      19.0000000000
10527 2      13.4773645506      17.0000000000
10528 2      12.9861916423      17.0000000000
10529 2      12.7763543998      18.0000000000
10530 2      15.8679385542      16.0000000000
10531 2      12.2788220415      15.0000000000
10532 2      14.3022636374      18.0000000000
10533 2      13.1006159915      15.0000000000
10534 2      14.1603533080      21.0000000000
10535 2      17.0087544572      22.0000000000
10536 2      14.3920828154      18.0000000000
10537 2      13.9290734132      17.0000000000
10538 2      15.0655191650      18.0000000000
10539 2      13.6613178706      18.0000000000
10540 2      14.1085592149      16.0000000000
10541 2      14.2196902346      18.0000000000
10542 2      13.5557430853      17.0000000000
10543 2      11.2972236204      15.0000000000
10544 2      14.5208075683      16.0000000000
10545 2      12.7691122720      17.0000000000
10546 2      14.1888475502      16.0000000000
10547 2      14.6076755387      19.0000000000
10548 2      14.5604601786      17.0000000000
10549 2      17.2678018607      15.0000000000
10550 2      15.8946313136      19.0000000000
10551 2      15.2989695419      19.0000000000
10552 2      16.3147325252      20.0000000000
10553 2      15.4785170540      17.0000000000
10554 2      15.5868952591      22.0000000000
10555 2      14.9302025142      16.0000000000
10556 2      12.3925102378      17.0000000000
10557 2      14.2943051631      15.0000000000
10558 2      15.8270461807      21.0000000000
10559 2      14.4142080054      20.0000000000
10560 2      17.7644337929      21.0000000000
10561 2      13.9713230595      17.0000000000
10562 2      14.8071278440      18.0000000000
10563 2      14.7163697087      18.0000000000
10564 2      15.0845227357      21.0000000000
10565 2      16.8993228184      20.0000000000
10566 2      12.9234321358      16.0000000000
10567 2      14.3490333085      17.0000000000
10568 2      18.5023343799      18.0000000000
10569 2      16.6525529739      19.0000000000
10570 2      15.5947657503      18.0000000000
10571 2      15.3349882584      18.0000000000
10572 2      13.3277859089      15.0000000000
10573 2      12.8356633533      17.0000000000
10574 2      13.7689113058      18.0000000000
10575 2      15.4782500969      22.0000000000
10576 2      19.6912976553      24.0000000000
10577 2      15.4712170166      16.0000000000
10578 2      15.8221457466      17.0000000000
10579 2      12.2711533257      16.0000000000
10580 2      13.4404988014      18.0000000000
10581 2      15.1896181258      18.0000000000
10582 2      14.9680059303      17.0000000000
10583 2      12.0718009956      15.0000000000
10584 2      13.7245690223      18.0000000000
10585 2      16.9911396074      22.0000000000
10586 2      14.0427898925      18.0000000000
10587 2      15.9677908762      19.0000000000
10588 2      16.4234699723      20.0000000000
10589 2      13.9543062792      16.0000000000
10590 2      16.3546490619      18.0000000000
10591 2      15.8137203850      21.0000000000
10592 2      14.0667325089      18.0000000000
10593 2      14.3186607623      17.0000000000
10594 2      18.8026973610      17.0000000000
10595 2      14.2138569231      17.0000000000
10596 2      14.2379803015      18.0000000000
10597 2      14.1818720242      14.0000000000
10598 2      16.7723508231      18.0000000000
10599 2      13.7476393185      14.0000000000
10600 2      13.7953722498      17.0000000000
10601 2      15.8003220986      19.0000000000
10602 2      12.9386006178      16.0000000000
10603 2      13.7181190673      17.0000000000
10604 2      16.1628850025      18.0000000000
10605 2      15.1036953106      18.0000000000
10606 2      17.1489940103      16.0000000000
10607 2      15.0705339180      18.0000000000
10608 2      16.0732208209      20.0000000000
10609 2      16.1383810950      19.0000000000
10610 2      17.6141015174      17.0000000000
10611 2      13.0895243641      16.0000000000
10612 2      15.7287445455      20.0000000000
10613 2      13.6291172826      17.0000000000
10614 2      13.3012598797      18.0000000000
10615 2      16.6926180435      17.0000000000
10616 2      16.3475495804      25.0000000000
10617 2      15.0740590166      18.0000000000
10618 2      17.3993257093      17.0000000000
10619 2      13.0165080829      14.0000000000
10620 2      15.0662871120      16.0000000000
10621 2      14.2502287951      18.0000000000
10622 2      15.6757174156      23.0000000000
10623 2      14.6643382894      16.0000000000
10624 2      16.2403910671      20.0000000000
10625 2      14.6327002285      19.0000000000
10626 2      13.3930484496      17.0000000000
10627 2      13.9352703697      19.0000000000
10628 2      13.5621414701      19.0000000000
10629 2      13.1699110899      15.0000000000
10630 2      16.3060295030      18.0000000000
10631 2      13.5849485515      17.0000000000
10632 2      12.4148827418      18.0000000000
10633 2      15.1462208881      17.0000000000
10634 2      13.2657678200      15.0000000000
10635 2      14.4876780880      20.0000000000
10636 2      15.1109352326      18.0000000000
10637 2      15.7073527389      15.0000000000
10638 2      15.0550097514      17.0000000000
10639 2      17.2846713743      19.0000000000
10640 2      12.4982696584      16.0000000000
10641 2      11.7405176296      18.0000000000
10642 2      16.2305261744      17.0000000000
10643 2      13.8427192857      20.0000000000
10644 2      15.2959271186      17.0000000000
10645 2      14.0941107431      16.0000000000
10646 2      16.1155643007      17.0000000000
10647 2      16.5111676658      24.0000000000
10648 2      14.5237497431      20.0000000000
10649 2      12.2372489636      18.0000000000
10650 2      13.7495035146      16.0000000000
10651 2      15.1011873371      17.0000000000
10652 2      13.6309034724      17.0000000000
10653 2      15.1257030017      19.0000000000
10654 2      16.8752115632      19.0000000000
10655 2      15.2716443352      18.0000000000
10656 2      14.1870632517      16.0000000000
10657 2      14.4017022335      16.0000000000
10658 2      15.5180377035      19.0000000000
10659 2      17.0786387759      19.0000000000
10660 2      12.9582777284      13.0000000000
10661 2      16.8217091043      20.0000000000
10662 2      14.9400108367      20.0000000000
10663 2      14.1894882174      18.0000000000
10664 2      13.5223648119      15.0000000000
10665 2      14.8226336467      17.0000000000
10666 2      12.9943174332      17.0000000000
10667 2      14.8876213710      17.0000000000
10668 2      13.1374164951      18.0000000000
10669 2      13.1313215051      15.0000000000
10670 2      14.7634364241      16.0000000000
10671 2      16.1374298179      18.0000000000
10672 2      14.9907140397      22.0000000000
10673 2      15.0609542066      16.0000000000
10674 2      14.4215926314      17.0000000000
10675 2      13.7330832764      17.0000000000
10676 2      14.4403413719      16.0000000000
10677 2      13.3646099657      15.0000000000
10678 2      14.9106169789      18.0000000000
10679 2      13.4312449632      14.0000000000
10680 2      16.1269871895      21.0000000000
10681 2      16.7281501124      21.0000000000
10682 2      14.2028835475      19.0000000000
10683 2      14.8961293109      21.0000000000
10684 2      15.7476582105      20.0000000000
10685 2      13.8313654537      18.0000000000
10686 2      14.4948535933      17.0000000000
10687 2      13.2613782268      17.0000000000
10688 2      16.6946706384      22.0000000000
10689 2      16.4620698757      24.0000000000
10690 2      14.7228009751      18.0000000000
10691 2      15.3593522701      17.0000000000
10692 2      15.7688648220      19.0000000000
10693 2      14.5480552981      16.0000000000
10694 2      14.2383338639      16.0000000000
10695 2      12.6985215146      17.0000000000
10696 2      14.7976625425      16.0000000000
10697 2      16.8031556508      18.0000000000
10698 2      17.2271419689      18.0000000000
10699 2      15.6478823829      18.0000000000
10700 2      18.1851357929      21.0000000000
10701 2      15.6591783503      18.0000000000
10702 2      15.1326675924      18.0000000000
10703 2      13.0323963943      17.0000000000
10704 2      13.7827836089      17.0000000000
10705 2      13.5899790291      14.0000000000
10706 2      14.3843644755      20.0000000000
10707 2      13.0407869564      15.0000000000
10708 2      12.9067391451      15.0000000000
10709 2      13.4039214370      18.0000000000
10710 2      16.3932428254      18.0000000000
10711 2      15.8504800374      19.0000000000
10712 2      15.2376083389      18.0000000000
10713 2      12.9030399903      17.0000000000
10714 2      14.7934413774      13.0000000000
10715 2      16.9183085549      22.0000000000
10716 2      11.1405327940      13.0000000000
10717 2      14.9251705719      16.0000000000
10718 2      14.9194106569      17.0000000000
10719 2      14.5946037784      17.0000000000
10720 2      13.7495724533      16.0000000000
10721 2      14.5674502278      16.0000000000
10722 2      14.6797485964      18.0000000000
10723 2      15.8027280798      18.0000000000
10724 2      15.0749458274      18.0000000000
10725 2      15.1300035927      20.0000000000
10726 2      13.2944244028      17.0000000000
10727 2      11.9609597055      14.0000000000
10728 2      12.5894833734      15.0000000000
10729 2      15.7733513879      16.0000000000
10730 2      14.2800103217      17.0000000000
10731 2      14.9403108451      17.0000000000
10732 2      11.3409621995      17.0000000000
10733 2      15.3228508081      20.0000000000
10734 2      12.1250776107      16.0000000000
10735 2      13.1469331803      17.0000000000
10736 2      14.0711059199      19.0000000000
10737 2      14.3648807636      18.0000000000
10738 2      14.1838436010      20.0000000000
10739 2      14.7705656539      18.0000000000
10740 2      15.1826607691      20.0000000000
10741 2      17.3244641020      20.0000000000
10742 2      15.5490772270      20.0000000000
10743 2      15.3763624334      19.0000000000
10744 2      16.3870971653      22.0000000000
10745 2      16.0908225477      17.0000000000
10746 2      14.4489350100      18.0000000000
10747 2      14.9420004208      18.0000000000
10748 2      15.3987844131      15.0000000000
10749 2      15.6021648724      22.0000000000
10750 2      12.8272928269      16.0000000000
10751 2      16.1346791985      18.0000000000
10752 2      12.8518807553      14.0000000000
10753 2      16.4556349694      18.0000000000
10754 2      13.6969331305      16.0000000000
10755 2      14.0921799990      16.0000000000
10756 2      15.8302044771      20.0000000000
10757 2      15.7396744121      18.0000000000
10758 2      15.0095628245      16.0000000000
10759 2      17.6928749206      22.0000000000
10760 2      16.0089586956      17.0000000000
10761 2      13.4042866911      13.0000000000
10762 2      15.1934420671      20.0000000000
10763 2      15.0380442560      19.0000000000
10764 2      13.9382732392      15.0000000000
10765 2      12.7956193639      14.0000000000
10766 2      12.5145739641      13.0000000000
10767 2      15.3137044818      14.0000000000
10768 2      15.1812554773      16.0000000000
10769 2      13.2070329175      19.0000000000
10770 2      15.0146705374      17.0000000000
10771 2      11.5814769542      12.0000000000
10772 2      14.5423217518      21.0000000000
10773 2      16.1553818204      17.0000000000
10774 2      12.3879088879      15.0000000000
10775 2      17.1069164991      22.0000000000
10776 2      15.5347394278      16.0000000000
10777 2      13.7504462711      17.0000000000
10778 2      16.4136740048      20.0000000000
10779 2      17.2690969190      20.0000000000
10780 2      14.7669868840      18.0000000000
10781 2      15.6399574395      16.0000000000
10782 2      17.8436332471      18.0000000000
10783 2      14.5335485399      15.0000000000
10784 2      15.8850989350      17.0000000000
10785 2      13.4860327488      17.0000000000
10786 2      17.9804458393      21.0000000000
10787 2      14.6172729862      16.0000000000
10788 2      13.9227215775      20.0000000000
10789 2      16.6608181018      18.0000000000
10790 2      13.9841996127      17.0000000000
10791 2      16.3313540855      17.0000000000
10792 2      15.7870946885      17.0000000000
10793 2      15.8124086398      17.0000000000
10794 2      14.6364982430      19.0000000000
10795 2      15.9356730925      21.0000000000
10796 2      16.7156376545      20.0000000000
10797 2      15.9897548971      22.0000000000
10798 2      15.7016183636      16.0000000000
10799 2      15.5283011053      21.0000000000
10800 2      15.1788177965      15.0000000000
10801 2      17.8300242826      21.0000000000
10802 2      13.6201077801      16.0000000000
10803 2      12.9237788517      15.0000000000
10804 2      17.0253319234      22.0000000000
10805 2      14.5193249207      18.0000000000
10806 2      14.1867694274      17.0000000000
10807 2      14.8392190087      17.0000000000
10808 2      13.4942222901      13.0000000000
10809 2      16.7949593808      22.0000000000
10810 2      13.0270811978      16.0000000000
10811 2      14.9207663876      19.0000000000
10812 2      17.6260073565      18.0000000000
10813 2      13.4388965319      19.0000000000
10814 2      15.9383360194      18.0000000000
10815 2      14.8847238426      19.0000000000
10816 2      14.9512651478      18.0000000000
10817 2      15.9256206911      19.0000000000
10818 2      16.4298044182      18.0000000000
10819 2      16.4186903808      18.0000000000
10820 2      13.5737042177      17.0000000000
10821 2      14.2490356550      17.0000000000
10822 2      14.2202441015      20.0000000000
10823 2      18.6224963915      21.0000000000
10824 2      13.6330251027      16.0000000000
10825 2      16.4447630231      18.0000000000
10826 2      14.2833190774      14.0000000000
10827 2      13.0981210893      16.0000000000
10828 2      16.7731543572      19.0000000000
10829 2      14.6167490669      18.0000000000
10830 2      15.0763422813      21.0000000000
10831 2      17.7953134269      21.0000000000
10832 2      11.9453035560      17.0000000000
10833 2      15.3864842765      20.0000000000
10834 2      16.5412378287      18.0000000000
10835 2      13.8228590982      17.0000000000
10836 2      14.8832341107      18.0000000000
10837 2      14.3996868342      15.0000000000
10838 2      14.7344675876      20.0000000000
10839 2      16.0098711185      17.0000000000
10840 2      14.5015636325      18.0000000000
10841 2      12.8462018433      17.0000000000
10842 2      12.6687787299      16.0000000000
10843 2      15.1211364797      17.0000000000
10844 2      15.1285979097      16.0000000000
10845 2      14.3524453427      15.0000000000
10846 2      12.9709712522      15.0000000000
10847 2      14.5180050024      19.0000000000
10848 2      12.4153282176      15.0000000000
10849 2      12.9001180898      15.0000000000
10850 2      16.9223345068      20.0000000000
10851 2      15.1037220923      17.0000000000
10852 2      14.5608252884      16.0000000000
10853 2      13.6782311814      16.0000000000
10854 2      15.0858100458      20.0000000000
10855 2      15.6749415952      18.0000000000
10856 2      14.5613573919      21.0000000000
10857 2      14.5032059531      18.0000000000
10858 2      13.5673038544      17.0000000000
10859 2      13.8252857508      14.0000000000
10860 2      15.6093896951      20.0000000000
10861 2      14.6180871270      18.0000000000
10862 2      13.6884964776      18.0000000000
10863 2      13.0719494635      14.0000000000
10864 2      16.2291725852      17.0000000000
10865 2      16.2803713148      24.0000000000
10866 2      13.0713986645      14.0000000000
10867 2      14.0420498452      16.0000000000
10868 2      14.0688494939      21.0000000000
10869 2      14.9542145351      15.0000000000
10870 2      14.3780809462      19.0000000000
10871 2      16.1419327990      18.0000000000
10872 2      15.5831611639      18.0000000000
10873 2      13.9235099436      17.0000000000
10874 2      12.9378857920      15.0000000000
10875 2      13.0338151000      16.0000000000
10876 2      14.2221453999      17.0000000000
10877 2      16.6698977214      19.0000000000
10878 2      17.3952573432      19.0000000000
10879 2      15.6718142146      21.0000000000
10880 2      15.5911781118      18.0000000000
10881 2      14.8782668830      18.0000000000
10882 2      15.1536889341      17.0000000000
10883 2      14.9081534588      18.0000000000
10884 2      15.2057660088      16.0000000000
10885 2      13.8787579457      17.0000000000
10886 2      13.5384030046      18.0000000000
10887 2      15.6974726375      19.0000000000
10888 2      12.6203962079      17.0000000000
10889 2      15.1912627086      17.0000000000
10890 2      14.0525945258      20.0000000000
10891 2      14.7461542797      19.0000000000
10892 2      14.1119056172      17.0000000000
10893 2      14.4345538212      16.0000000000
10894 2      14.7189978860      19.0000000000
10895 2      15.5899565383      18.0000000000
10896 2      15.0367273917      19.0000000000
10897 2      14.8857662253      18.0000000000
10898 2      15.3247021536      17.0000000000
10899 2      16.6862411617      17.0000000000
10900 2      14.1446710398      17.0000000000
10901 2      13.6107629326      17.0000000000
10902 2      15.0814819829      16.0000000000
10903 2      16.7793463078      17.0000000000
10904 2      16.1116882723      21.0000000000
10905 2      15.8408897041      16.0000000000
10906 2      18.5801989387      24.0000000000
10907 2      15.5194752991      20.0000000000
10908 2      13.0590758009      16.0000000000
10909 2      15.1955310425      19.0000000000
10910 2      14.5115729946      13.0000000000
10911 2      15.9136940817      19.0000000000
10912 2      15.4465591671      18.0000000000
10913 2      13.9312278438      19.0000000000
10914 2      15.4555829976      21.0000000000
10915 2      13.7668355918      16.0000000000
10916 2      15.5992078423      15.0000000000
10917 2      16.0019465462      18.0000000000
10918 2      13.7292801730      16.0000000000
10919 2      17.2003738247      17.0000000000
10920 2      14.4903490333      19.0000000000
10921 2      15.4701731626      17.0000000000
10922 2      16.3717904247      19.0000000000
10923 2      14.2868159020      17.0000000000
10924 2      16.0521365063      22.0000000000
10925 2      14.1352249160      14.0000000000
10926 2      15.5693138557      21.0000000000
10927 2      14.9374068377      20.0000000000
10928 2      12.8092041180      12.0000000000
10929 2      13.9466858087      16.0000000000
10930 2      14.6308713461      22.0000000000
10931 2      14.2660069496      17.0000000000
10932 2      14.6247345744      15.0000000000
10933 2      15.1920961764      17.0000000000
10934 2      15.4331293138      14.0000000000
10935 2      14.1689940580      18.0000000000
10936 2      15.6431849023      15.0000000000
10937 2      16.4262755072      21.0000000000
10938 2      15.5870154188      19.0000000000
10939 2      14.6217058219      19.0000000000
10940 2      19.0495335297      20.0000000000
10941 2      13.8493183057      16.0000000000
10942 2      14.7345660454      18.0000000000
10943 2      18.2426200212      19.0000000000
10944 2      14.1087609786      17.0000000000
10945 2      13.7164944139      16.0000000000
10946 2      15.2305757522      17.0000000000
10947 2      15.6586741338      19.0000000000
10948 2      16.2891679183      18.0000000000
10949 2      15.7531274841      21.0000000000
10950 2      14.3987664288      17.0000000000
10951 2      12.3469121211      18.0000000000
10952 2      17.4858608907      18.0000000000
10953 2      15.6289770802      15.0000000000
10954 2      12.2619017840      15.0000000000
10955 2      13.8284258032      17.0000000000
10956 2      15.8259515081      20.0000000000
10957 2      13.1315104440      14.0000000000
10958 2      12.3666234036      14.0000000000
10959 2      13.1399015152      17.0000000000
10960 2      15.4646195205      18.0000000000
10961 2      14.9245219224      16.0000000000
10962 2      13.2039109088      16.0000000000
10963 2      13.3953167399      18.0000000000
10964 2      20.3212898709      23.0000000000
10965 2      15.1979080402      19.0000000000
10966 2      16.6403153617      20.0000000000
10967 2      14.9423513170      18.0000000000
10968 2      16.1037705484      19.0000000000
10969 2      16.1911601869      19.0000000000
10970 2      13.0671017753      17.0000000000
10971 2      13.9959939856      19.0000000000
10972 2      15.7152991716      13.0000000000
10973 2      14.9320571135      18.0000000000
10974 2      16.0588890667      17.0000000000
10975 2      13.6946262099      19.0000000000
10976 2      14.9486794201      17.0000000000
10977 2      14.2397687970      16.0000000000
10978 2      13.9071133808      16.0000000000
10979 2      13.1166755273      19.0000000000
10980 2      12.9023921694      19.0000000000
10981 2      15.1867377504      17.0000000000
10982 2      15.4627332284      18.0000000000
10983 2      17.7199690769      16.0000000000
10984 2      16.8790159778      20.0000000000
10985 2      15.4324985060      16.0000000000
10986 2      15.0809705947      14.0000000000
10987 2      15.6928276129      19.0000000000
10988 2      15.2178077691      19.0000000000
10989 2      12.9743249842      17.0000000000
10990 2      14.2689258864      17.0000000000
10991 2      14.1014434163      20.0000000000
10992 2      14.2879883372      20.0000000000
10993 2      15.6475634165      22.0000000000
10994 2      14.4631202080      20.0000000000
10995 2      14.9028333483      20.0000000000
10996 2      14.0092775269      15.0000000000
10997 2      14.3507019845      19.0000000000
10998 2      14.0212538805      21.0000000000
10999 2      14.1453145563      23.0000000000
11000 2      14.8363683572      20.0000000000
11001 2      16.1171589377      19.0000000000
11002 2      14.1748886626      17.0000000000
11003 2      12.4922009863      15.0000000000
11004 2      14.2796028058      18.0000000000
11005 2      13.5549025670      17.0000000000
11006 2      14.5868363499      17.0000000000
11007 2      13.3959966266      16.0000000000
11008 2      15.0952635732      17.0000000000
11009 2      13.4737376488      16.0000000000
11010 2      17.6669489215      18.0000000000
11011 2      15.2421819089      22.0000000000
11012 2      16.3363339357      16.0000000000
11013 2      18.1626195781      20.0000000000
11014 2      14.4202892988      21.0000000000
11015 2      16.2310425075      23.0000000000
11016 2      11.4194189910      14.0000000000
11017 2      15.9853903225      22.0000000000
11018 2      13.2622437848      19.0000000000
11019 2      15.4000839708      20.0000000000
11020 2      15.1074636023      16.0000000000
11021 2      15.3775586486      21.0000000000
11022 2      13.0901614765      18.0000000000
11023 2      14.9329075553      19.0000000000
11024 2      14.1865842672      17.0000000000
11025 2      12.4077329832      14.0000000000
11026 2      16.0008916617      20.0000000000
11027 2      14.3951634667      18.0000000000
11028 2      17.3319976427      22.0000000000
11029 2      15.5427436497      18.0000000000
11030 2      12.9972693811      14.0000000000
11031 2      15.2882640922      17.0000000000
11032 2      14.3115858610      20.0000000000
11033 2      15.1347269615      19.0000000000
11034 2      16.3468163281      21.0000000000
11035 2      13.5283281387      14.0000000000
11036 2      13.2140882344      14.0000000000
11037 2      13.3646938500      18.0000000000
11038 2      15.1276170964      21.0000000000
11039 2      14.1309842382      18.0000000000
11040 2      14.2209898559      16.0000000000
11041 2      14.6149275952      21.0000000000
11042 2      14.4053463996      23.0000000000
11043 2      13.8062880901      19.0000000000
11044 2      17.8797295865      21.0000000000
11045 2      16.0223289862      17.0000000000
11046 2      13.5464897294      14.0000000000
11047 2      15.4604518014      19.0000000000
11048 2      17.2602294386      17.0000000000
11049 2      14.1570821500      18.0000000000
11050 2      14.7560917447      17.0000000000
11051 2      16.6401590407      18.0000000000
11052 2      15.7303694804      22.0000000000
11053 2      14.6241940570      20.0000000000
11054 2      13.5001925895      17.0000000000
11055 2      11.7362861055      20.0000000000
11056 2      14.0094628226      20.0000000000
11057 2      14.0856717481      16.0000000000
11058 2      15.2459496770      18.0000000000
11059 2      14.5987982113      20.0000000000
11060 2      18.9540755022      24.0000000000
11061 2      15.8784689673      19.0000000000
11062 2      15.3109668060      15.0000000000
11063 2      17.0419597974      22.0000000000
11064 2      15.0368454283      21.0000000000
11065 2      16.5199017566      22.0000000000
11066 2      16.2132786635      20.0000000000
11067 2      14.5016469194      19.0000000000
11068 2      14.8326816996      19.0000000000
11069 2      14.9193389240      19.0000000000
11070 2      15.7978217247      21.0000000000
11071 2      15.6253232940      15.0000000000
11072 2      13.1930264298      17.0000000000
11073 2      14.8835951679      16.0000000000
11074 2      16.7170127735      22.0000000000
11075 2      13.7177036703      14.0000000000
11076 2      16.0306537990      23.0000000000
11077 2      14.9784836664      14.0000000000
11078 2      16.8710244546      23.0000000000
11079 2      14.7961748901      17.0000000000
11080 2      15.1282738630      16.0000000000
11081 2      16.9714046155      22.0000000000
11082 2      14.7137601684      16.0000000000
11083 2      15.1869448947      17.0000000000
11084 2      14.0948919729      15.0000000000
11085 2      11.7780140753      16.0000000000
11086 2      14.8129320913      20.0000000000
11087 2      15.1084524976      17.0000000000
11088 2      16.7768255148      21.0000000000
11089 2      12.7656260376      17.0000000000
11090 2      14.6128387341      16.0000000000
11091 2      13.1978379001      18.0000000000
11092 2      14.1423012461      17.0000000000
11093 2      15.1491615962      21.0000000000
11094 2      13.7747667956      18.0000000000
11095 2      13.3895371064      19.0000000000
11096 2      13.2756634270      15.0000000000
11097 2      15.7638008619      19.0000000000
11098 2      14.7561827146      18.0000000000
11099 2      13.5345651820      19.0000000000
11100 2      13.3914297547      15.0000000000
11101 2      12.6596378798      12.0000000000
11102 2      15.7588258054      18.0000000000
11103 2      15.3588008829      18.0000000000
11104 2      14.1596925174      17.0000000000
11105 2      13.1874107867      20.0000000000
11106 2      14.2324459327      16.0000000000
11107 2      13.1086896935      16.0000000000
11108 2      16.0824685311      18.0000000000
11109 2      15.4887274722      19.0000000000
11110 2      15.6608963812      21.0000000000
11111 2      13.9641313556      16.0000000000
11112 2      16.0420998608      20.0000000000
11113 2      15.7067902865      20.0000000000
11114 2      15.7783836211      19.0000000000
11115 2      13.8564114810      19.0000000000
11116 2      17.7275513447      22.0000000000
11117 2      18.3007120814      26.0000000000
11118 2      13.3536345900      18.0000000000
11119 2      18.1640524970      18.0000000000
11120 2      15.4114511704      19.0000000000
11121 2      12.3928346754      15.0000000000
11122 2      15.6238290933      19.0000000000
11123 2      17.4794790515      16.0000000000
11124 2      13.3367806710      16.0000000000
11125 2      15.0657076320      22.0000000000
11126 2      14.1502113846      17.0000000000
11127 2      16.4074992892      19.0000000000
11128 2      13.8568870983      18.0000000000
11129 2      13.8410771455      15.0000000000
11130 2      12.8146822067      16.0000000000
11131 2      17.2131771182      16.0000000000
11132 2      14.4352163500      15.0000000000
11133 2      15.7464963710      18.0000000000
11134 2      14.9914229093      18.0000000000
11135 2      12.4213868056      16.0000000000
11136 2      14.2431967786      18.0000000000
11137 2      14.9359048397      19.0000000000
11138 2      13.8440440435      16.0000000000
11139 2      16.2691967031      17.0000000000
11140 2      16.9705769861      20.0000000000
11141 2      16.2771570386      21.0000000000
11142 2      15.9053803915      20.0000000000
11143 2      15.1163607367      21.0000000000
11144 2      14.4632488799      19.0000000000
11145 2      15.0395710593      15.0000000000
11146 2      16.3869833155      18.0000000000
11147 2      13.9086937603      18.0000000000
11148 2      12.9767290950      18.0000000000
11149 2      12.7114056683      19.0000000000
11150 2      13.5735709817      16.0000000000
11151 2      14.0883930393      17.0000000000
11152 2      12.8856458459      17.0000000000
11153 2      13.4755604676      15.0000000000
11154 2      15.6691248205      21.0000000000
11155 2      12.2838687627      17.0000000000
11156 2      14.0839323248      17.0000000000
11157 2      15.0231355592      19.0000000000
11158 2      13.6396239582      14.0000000000
11159 2      16.8659049887      16.0000000000
11160 2      16.9170514477      21.0000000000
11161 2      15.6591294370      19.0000000000
11162 2      16.3528139854      18.0000000000
11163 2      15.4355574595      17.0000000000
11164 2      14.8485634586      18.0000000000
11165 2      12.8961500821      17.0000000000
11166 2      14.2246239537      18.0000000000
11167 2      14.4527541565      15.0000000000
11168 2      12.8495462270      13.0000000000
11169 2      15.8764057222      18.0000000000
11170 2      15.8543085483      15.0000000000
11171 2      18.1394652815      17.0000000000
11172 2      14.0168758551      18.0000000000
11173 2      12.5048228950      16.0000000000
11174 2      13.5141819562      17.0000000000
11175 2      15.4302587688      20.0000000000
11176 2      11.8179051287      16.0000000000
11177 2      13.9721765918      15.0000000000
11178 2      15.5714930339      17.0000000000
11179 2      14.1132865398      19.0000000000
11180 2      16.7686489507      21.0000000000
11181 2      11.8211489931      15.0000000000
11182 2      13.9501071193      15.0000000000
11183 2      14.5846476098      19.0000000000
11184 2      18.9160877970      20.0000000000
11185 2      12.5499280624      20.0000000000
11186 2      12.5289297686      17.0000000000
11187 2      15.5019092475      18.0000000000
11188 2      14.6644032069      17.0000000000
11189 2      11.1262437724      15.0000000000
11190 2      14.3470657697      18.0000000000
11191 2      14.5865628007      18.0000000000
11192 2      13.3216286281      18.0000000000
11193 2      14.0129806393      17.0000000000
11194 2      14.5163455570      21.0000000000
11195 2      12.7070296552      19.0000000000
11196 2      15.6197149455      18.0000000000
11197 2      15.8227931133      19.0000000000
11198 2      12.1262020693      14.0000000000
11199 2      11.8306171306      15.0000000000
11200 2      12.5906466944      13.0000000000
11201 2      14.3542559104      19.0000000000
11202 2      15.9738564234      16.0000000000
11203 2      15.0009932789      18.0000000000
11204 2      15.7390539592      24.0000000000
11205 2      13.9032601425      21.0000000000
11206 2      13.6041786084      17.0000000000
11207 2      15.5536127023      18.0000000000
11208 2      16.9977951207      19.0000000000
11209 2      14.7739900876      17.0000000000
11210 2      14.4167044332      20.0000000000
11211 2      14.0478304412      17.0000000000
11212 2      15.0339780981      16.0000000000
11213 2      16.3745039210      20.0000000000
11214 2      15.2128051227      16.0000000000
11215 2      14.7673493881      16.0000000000
11216 2      15.1188838811      19.0000000000
11217 2      14.9209469567      17.0000000000
11218 2      16.7551770455      19.0000000000
11219 2      14.3580731630      18.0000000000
11220 2      14.2887292911      19.0000000000
11221 2      15.8942130536      20.0000000000
11222 2      14.7456564928      19.0000000000
11223 2      12.7531282235      18.0000000000
11224 2      11.4057032258      12.0000000000
11225 2      12.4296236930      15.0000000000
11226 2      13.8160308465      15.0000000000
11227 2      14.9383972763      22.0000000000
11228 2      15.6450375069      21.0000000000
11229 2      14.7671646890      19.0000000000
11230 2      14.8149463602      18.0000000000
11231 2      13.2401114663      12.0000000000
11232 2      16.4378688568      21.0000000000
11233 2      14.4504594350      21.0000000000
11234 2      15.8833810448      20.0000000000
11235 2      11.9551018628      17.0000000000
11236 2      11.7262918783      16.0000000000
11237 2      13.5441098523      20.0000000000
11238 2      15.4988764582      21.0000000000
11239 2      14.6767722923      17.0000000000
11240 2      12.1026145411      14.0000000000
11241 2      12.4755647916      20.0000000000
11242 2      12.8795059788      16.0000000000
11243 2      15.3077949615      18.0000000000
11244 2      12.6813428385      15.0000000000
11245 2      15.4914844322      20.0000000000
11246 2      14.0265056746      18.0000000000
11247 2      12.8587202594      17.0000000000
11248 2      16.5640121773      20.0000000000
11249 2      15.2315389961      22.0000000000
11250 2      13.5722409118      14.0000000000
11251 2      14.7147294304      17.0000000000
11252 2      16.4777803483      22.0000000000
11253 2      14.9089346311      18.0000000000
11254 2      15.5502312666      22.0000000000
11255 2      13.2800510086      16.0000000000
11256 2      14.4338409022      17.0000000000
11257 2      15.2132169965      17.0000000000
11258 2      13.3099533656      16.0000000000
11259 2      18.3208714002      22.0000000000
11260 2      12.9451666820      14.0000000000
11261 2      18.0785436233      20.0000000000
11262 2      13.8165159620      15.0000000000
11263 2      12.5112117843      15.0000000000
11264 2      15.3377753175      19.0000000000
11265 2      12.8709506046      15.0000000000
11266 2      13.3869395091      18.0000000000
11267 2      13.9371600296      18.0000000000
11268 2      13.8827243709      16.0000000000
11269 2      15.2952824112      20.0000000000
11270 2      13.5503871024      20.0000000000
11271 2      18.0696250387      21.0000000000
11272 2      14.1252897385      19.0000000000
11273 2      16.1373235250      18.0000000000
11274 2      14.3841481307      12.0000000000
11275 2      15.0306258506      18.0000000000
11276 2      13.9683990359      17.0000000000
11277 2      14.5607343642      20.0000000000
11278 2      14.6721616980      16.0000000000
11279 2      16.6077673776      25.0000000000
11280 2      13.3537811404      18.0000000000
11281 2      18.8961264388      20.0000000000
11282 2      14.4978522669      17.0000000000
11283 2      15.8790668348      19.0000000000
11284 2      16.3665570184      20.0000000000
11285 2      15.1724112489      22.0000000000
11286 2      12.5792455523      17.0000000000
11287 2      15.3314765926      18.0000000000
11288 2      14.7128497181      20.0000000000
11289 2      13.8657687736      21.0000000000
11290 2      13.2512079872      17.0000000000
11291 2      13.2845639656      16.0000000000
11292 2      15.6898731279      19.0000000000
11293 2      14.7440885529      19.0000000000
11294 2      16.1031048172      20.0000000000
11295 2      17.5000898930      21.0000000000
11296 2      14.5473140734      19.0000000000
11297 2      14.5891897351      20.0000000000
11298 2      15.0363384146      18.0000000000
11299 2      15.1776160632      17.0000000000
11300 2      13.9380065247      14.0000000000
11301 2      15.8524252839      16.0000000000
11302 2      14.2793971707      22.0000000000
11303 2      14.3954449790      17.0000000000
11304 2      13.5810597227      17.0000000000
11305 2      14.4241725076      17.0000000000
11306 2      14.9572326206      19.0000000000
11307 2      15.8263827614      19.0000000000
11308 2      13.6428800695      18.0000000000
11309 2      14.5595626642      15.0000000000
11310 2      15.5124879928      21.0000000000
11311 2      13.5048719215      17.0000000000
11312 2      14.7538975701      20.0000000000
11313 2      16.3047321991      13.0000000000
11314 2      14.5550631680      17.0000000000
11315 2      13.3501533941      15.0000000000
11316 2      13.5552111295      20.0000000000
11317 2      13.3028103302      13.0000000000
11318 2      14.7864188229      14.0000000000
11319 2      14.2678295455      18.0000000000
11320 2      15.5427295567      16.0000000000
11321 2      14.7179180117      18.0000000000
11322 2      13.4536520422      18.0000000000
11323 2      15.9535797917      17.0000000000
11324 2      14.6860614740      17.0000000000
11325 2      15.4142286085      16.0000000000
11326 2      15.1285088046      19.0000000000
11327 2      13.4140819597      16.0000000000
11328 2      13.4864540854      17.0000000000
11329 2      14.9105183529      20.0000000000
11330 2      17.6854707483      20.0000000000
11331 2      15.2098990754      17.0000000000
11332 2      15.7641266552      19.0000000000
11333 2      14.1022342272      15.0000000000
11334 2      14.8777206490      20.0000000000
11335 2      12.4585753352      13.0000000000
11336 2      16.6904446714      20.0000000000
11337 2      16.1001997624      19.0000000000
11338 2      15.2857987469      18.0000000000
11339 2      15.1493017712      19.0000000000
11340 2      15.5675804178      17.0000000000
11341 2      12.6792249801      18.0000000000
11342 2      16.0247431656      24.0000000000
11343 2      14.0233259586      15.0000000000
11344 2      16.5049622472      21.0000000000
11345 2      18.8825356788      24.0000000000
11346 2      14.1556913255      17.0000000000
11347 2      13.7485904958      15.0000000000
11348 2      15.8975595894      21.0000000000
11349 2      17.0583061311      17.0000000000
11350 2      16.6898258997      20.0000000000
11351 2      15.2860508393      18.0000000000
11352 2      15.6797049912      19.0000000000
11353 2      15.4968385849      16.0000000000
11354 2      14.4322119123      17.0000000000
11355 2      15.4890274466      19.0000000000
11356 2      17.9170281355      22.0000000000
11357 2      13.2915420831      14.0000000000
11358 2      15.7679818079      20.0000000000
11359 2      13.1576846925      18.0000000000
11360 2      13.7168261093      16.0000000000
11361 2      15.2272394940      18.0000000000
11362 2      13.2164828054      20.0000000000
11363 2      14.0816210090      16.0000000000
11364 2      13.8622262977      16.0000000000
11365 2      13.7625545768      17.0000000000
11366 2      14.0894975367      19.0000000000
11367 2      14.2765018820      16.0000000000
11368 2      13.7792763615      18.0000000000
11369 2      11.9703988239      14.0000000000
11370 2      13.0372044534      17.0000000000
11371 2      15.6588635410      19.0000000000
11372 2      15.7445828341      19.0000000000
11373 2      15.5020387390      19.0000000000
11374 2      15.3692849654      17.0000000000
11375 2      13.7290361227      19.0000000000
11376 2      14.3659203424      16.0000000000
11377 2      17.2594460742      18.0000000000
11378 2      15.5694431500      20.0000000000
11379 2      15.7420377512      16.0000000000
11380 2      14.8927058777      21.0000000000
11381 2      14.4485044040      17.0000000000
11382 2      17.8786430530      15.0000000000
11383 2      16.3099863825      23.0000000000
11384 2      12.8030090902      16.0000000000
11385 2      16.7609833755      21.0000000000
11386 2      14.6102057565      19.0000000000
11387 2      14.1921117597      18.0000000000
11388 2      14.7332520326      19.0000000000
11389 2      17.4672218827      21.0000000000
11390 2      16.7538528058      22.0000000000
11391 2      15.1858540447      19.0000000000
11392 2      15.3525167506      16.0000000000
11393 2      13.5584738735      18.0000000000
11394 2      15.8090933277      22.0000000000
11395 2      15.6530062838      17.0000000000
11396 2      14.7139805514      14.0000000000
11397 2      14.6347814087      14.0000000000
11398 2      14.4918615733      18.0000000000
11399 2      12.9248595672      16.0000000000
11400 2      13.0822430103      15.0000000000
11401 2      13.9485300910      18.0000000000
11402 2      13.3129177372      15.0000000000
11403 2      13.0066761872      17.0000000000
11404 2      14.3190415613      21.0000000000
11405 2      14.6277479916      20.0000000000
11406 2      12.2782791598      16.0000000000
11407 2      12.8388184141      13.0000000000
11408 2      14.2846637524      18.0000000000
11409 2      13.7295035156      18.0000000000
11410 2      14.5456918575      18.0000000000
11411 2      13.5929621836      18.0000000000
11412 2      13.0245532599      15.0000000000
11413 2      15.4577272572      20.0000000000
11414 2      14.1197853947      17.0000000000
11415 2      15.0562172346      17.0000000000
11416 2      15.4919827684      16.0000000000
11417 2      13.4931742951      18.0000000000
11418 2      15.2642815990      19.0000000000
11419 2      15.3793634701      19.0000000000
11420 2      16.0973881085      19.0000000000
11421 2      15.4855511512      17.0000000000
11422 2      18.5208208863      18.0000000000
11423 2      15.6481906828      20.0000000000
11424 2      14.4931619022      18.0000000000
11425 2      16.2180712156      16.0000000000
11426 2      13.6245753609      18.0000000000
11427 2      14.4826271616      19.0000000000
11428 2      14.6664733063      17.0000000000
11429 2      14.8403246009      20.0000000000
11430 2      12.8986920040      18.0000000000
11431 2      18.3458503078      21.0000000000
11432 2      13.8911532497      19.0000000000
11433 2      15.2564121626      18.0000000000
11434 2      14.4006102756      20.0000000000
11435 2      15.7234256686      19.0000000000
11436 2      14.0743484400      15.0000000000
11437 2      14.3510852046      22.0000000000
11438 2      13.1877123712      16.0000000000
11439 2      15.7249793270      19.0000000000
11440 2      14.1653364731      20.0000000000
11441 2      13.7920336600      17.0000000000
11442 2      14.7905981719      18.0000000000
11443 2      15.0875628953      18.0000000000
11444 2      15.5200139433      18.0000000000
11445 2      14.0940052580      15.0000000000
11446 2      13.6578858759      15.0000000000
11447 2      14.9248890634      20.0000000000
11448 2      15.4792103626      19.0000000000
11449 2      13.8458661094      18.0000000000
11450 2      14.2108375815      13.0000000000
11451 2      13.9867840436      19.0000000000
11452 2      15.8538605828      21.0000000000
11453 2      12.9402392203      15.0000000000
11454 2      13.9396214165      19.0000000000
11455 2      15.6108476457      22.0000000000
11456 2      17.1067637484      18.0000000000
11457 2      15.8834079618      19.0000000000
11458 2      14.5701304166      17.0000000000
11459 2      14.8302932202      16.0000000000
11460 2      16.5870919352      15.0000000000
11461 2      14.0804639755      19.0000000000
11462 2      15.5237249903      21.0000000000
11463 2      15.8432635743      19.0000000000
11464 2      15.6326876694      17.0000000000
11465 2      17.8225130467      19.0000000000
11466 2      16.0952362914      14.0000000000
11467 2      12.7416593226      17.0000000000
11468 2      14.7156802979      16.0000000000
11469 2      14.3651050141      19.0000000000
11470 2      14.9050762959      16.0000000000
11471 2      15.3836767802      20.0000000000
11472 2      14.3855046178      20.0000000000
11473 2      14.6845827918      19.0000000000
11474 2      13.7331602847      17.0000000000
11475 2      14.5502692766      17.0000000000
11476 2      13.6163846861      15.0000000000
11477 2      14.4469286455      17.0000000000
11478 2      14.0897545854      19.0000000000
11479 2      13.7045529371      20.0000000000
11480 2      14.4953212028      15.0000000000
11481 2      16.1760898821      20.0000000000
11482 2      15.5241437050      18.0000000000
11483 2      17.9434305134      17.0000000000
11484 2      12.7499704914      17.0000000000
11485 2      17.3928445052      20.0000000000
11486 2      14.3526432642      16.0000000000
11487 2      13.6452067499      16.0000000000
11488 2      13.5541334478      18.0000000000
11489 2      15.6600517515      15.0000000000
11490 2      15.6805257807      17.0000000000
11491 2      20.4614973595      24.0000000000
11492 2      17.0499880407      18.0000000000
11493 2      14.7392744568      21.0000000000
11494 2      13.2768495222      17.0000000000
11495 2      12.0737952973      14.0000000000
11496 2      16.2541153882      18.0000000000
11497 2      13.7105914887      15.0000000000
11498 2      16.3727727658      17.0000000000
11499 2      16.4759120825      19.0000000000
11500 2      11.4718552869      14.0000000000
11501 2      12.2117127635      15.0000000000
11502 2      16.8875520639      17.0000000000
11503 2      13.2308693925      16.0000000000
11504 2      13.8526762199      17.0000000000
11505 2      13.7224915754      16.0000000000
11506 2      14.1282030521      17.0000000000
11507 2      12.9257935089      17.0000000000
11508 2      14.6969864128      18.0000000000
11509 2      15.3644443890      19.0000000000
11510 2      13.2798427856      18.0000000000
11511 2      13.9569567270      13.0000000000
11512 2      13.0340335874      15.0000000000
11513 2      16.3705137038      19.0000000000
11514 2      12.0875154181      15.0000000000
11515 2      13.2929955339      13.0000000000
11516 2      14.7740927273      17.0000000000
11517 2      13.5406510903      14.0000000000
11518 2      16.4052956517      23.0000000000
11519 2      12.5956307625      14.0000000000
11520 2      14.6245954010      17.0000000000
11521 2      15.8228766722      21.0000000000
11522 2      15.9498415700      23.0000000000
11523 2      16.4752643330      20.0000000000
11524 2      14.0435529906      17.0000000000
11525 2      12.4198939726      14.0000000000
11526 2      15.1231142541      19.0000000000
11527 2      14.1605435537      16.0000000000
11528 2      13.8344215370      20.0000000000
11529 2      16.8127246167      17.0000000000
11530 2      16.1001084014      19.0000000000
11531 2      14.7566273877      19.0000000000
11532 2      14.9792123542      18.0000000000
11533 2      15.8764413759      21.0000000000
11534 2      15.6165850036      17.0000000000
11535 2      16.2787745337      19.0000000000
11536 2      14.3391012678      16.0000000000
11537 2      12.6822363341      17.0000000000
11538 2      14.0748220751      16.0000000000
11539 2      15.0476898372      21.0000000000
11540 2      12.8100666060      14.0000000000
11541 2      12.8706969802      19.0000000000
11542 2      15.3371211521      15.0000000000
11543 2      14.2755405546      16.0000000000
11544 2      16.3490801621      17.0000000000
11545 2      14.6064633147      18.0000000000
11546 2      13.0724862227      16.0000000000
11547 2      11.3483219252      13.0000000000
11548 2      14.0532481848      17.0000000000
11549 2      17.1792782370      22.0000000000
11550 2      14.3549800135      17.0000000000
11551 2      17.0959992896      21.0000000000
11552 2      14.8350280288      16.0000000000
11553 2      17.3294446346      23.0000000000
11554 2      15.9888664744      17.0000000000
11555 2      14.8922909064      16.0000000000
11556 2      19.3680801887      18.0000000000
11557 2      18.5250150071      22.0000000000
11558 2      15.3720687440      15.0000000000
11559 2      14.0597638955      15.0000000000
11560 2      15.2610540724      19.0000000000
11561 2      15.7710191099      18.0000000000
11562 2      13.5092611644      15.0000000000
11563 2      16.5432401281      18.0000000000
11564 2      14.8774948670      19.0000000000
11565 2      16.1517529364      18.0000000000
11566 2      13.9707505947      17.0000000000
11567 2      12.7042435829      14.0000000000
11568 2      13.6621752235      19.0000000000
11569 2      14.7914119520      16.0000000000
11570 2      16.3892081955      21.0000000000
11571 2      13.5209304611      16.0000000000
11572 2      15.1506354401      17.0000000000
11573 2      12.3360623050      16.0000000000
11574 2      16.6136333802      16.0000000000
11575 2      17.0552216795      22.0000000000
11576 2      15.2605272273      20.0000000000
11577 2      15.4931634638      20.0000000000
11578 2      14.5184942121      16.0000000000
11579 2      15.9452953874      20.0000000000
11580 2      16.0425562032      18.0000000000
11581 2      14.9074252206      21.0000000000
11582 2      15.8576378285      18.0000000000
11583 2      15.6502746726      17.0000000000
11584 2      14.3527785078      17.0000000000
11585 2      15.4683459837      15.0000000000
11586 2      16.8165621297      20.0000000000
11587 2      16.4146363880      19.0000000000
11588 2      13.6624581367      16.0000000000
11589 2      13.8993273149      14.0000000000
11590 2      16.3627849849      18.0000000000
11591 2      13.1844638387      19.0000000000
11592 2      14.0250356871      13.0000000000
11593 2      16.2914094482      17.0000000000
11594 2      16.9924359099      21.0000000000
11595 2      15.2320849857      22.0000000000
11596 2      16.2062900897      17.0000000000
11597 2      13.0803148381      17.0000000000
11598 2      15.0487151917      17.0000000000
11599 2      14.9385182476      20.0000000000
11600 2      13.4818454823      18.0000000000
11601 2      14.9677453650      14.0000000000
11602 2      16.1287681168      19.0000000000
11603 2      13.4221040627      14.0000000000
11604 2      11.8903366609      18.0000000000
11605 2      12.6923587798      15.0000000000
11606 2      14.0168565482      17.0000000000
11607 2      13.1634122388      17.0000000000
11608 2      15.6979362188      21.0000000000
11609 2      15.6145105360      20.0000000000
11610 2      15.1042187999      18.0000000000
11611 2      12.2348364214      13.0000000000
11612 2      14.1434450766      18.0000000000
11613 2      14.0772214150      17.0000000000
11614 2      13.6130032372      17.0000000000
11615 2      14.4508369060      18.0000000000
11616 2      14.2310082242      14.0000000000
11617 2      14.9923185283      15.0000000000
11618 2      14.6017085300      20.0000000000
11619 2      13.3435139506      13.0000000000
11620 2      12.8876976499      16.0000000000
11621 2      15.9100344649      17.0000000000
11622 2      15.0113488664      15.0000000000
11623 2      14.8169286967      18.0000000000
11624 2      15.0057606474      19.0000000000
11625 2      14.5115825096      17.0000000000
11626 2      15.1396685109      17.0000000000
11627 2      14.6349069110      17.0000000000
11628 2      14.5417599701      16.0000000000
11629 2      16.3020846087      20.0000000000
11630 2      15.9971329219      22.0000000000
11631 2      15.6494782104      14.0000000000
11632 2      14.6359945634      15.0000000000
11633 2      15.2988574696      17.0000000000
11634 2      16.3827716517      20.0000000000
11635 2      14.0597721858      14.0000000000
11636 2      15.2219177168      18.0000000000
11637 2      16.6375551283      19.0000000000
11638 2      13.9783807241      18.0000000000
11639 2      13.7623925621      16.0000000000
11640 2      13.2114824588      16.0000000000
11641 2      11.1753088402      16.0000000000
11642 2      13.7887031287      17.0000000000
11643 2      14.4662220239      16.0000000000
11644 2      15.4726574480      20.0000000000
11645 2      14.8438058774      18.0000000000
11646 2      14.0839301708      20.0000000000
11647 2      13.9187402620      15.0000000000
11648 2      13.9093585432      17.0000000000
11649 2      12.9855488835      16.0000000000
11650 2      12.5319608863      13.0000000000
11651 2      15.3587536261      15.0000000000
11652 2      14.4790026375      18.0000000000
11653 2      13.4506398711      15.0000000000
11654 2      15.9195200331      19.0000000000
11655 2      15.6461737938      17.0000000000
11656 2      15.0499168482      18.0000000000
11657 2      15.6549667454      16.0000000000
11658 2      16.7540799052      21.0000000000
11659 2      15.4788412465      20.0000000000
11660 2      15.6009574850      17.0000000000
11661 2      13.1144054987      15.0000000000
11662 2      13.9420498880      15.0000000000
11663 2      13.2418911968      15.0000000000
11664 2      14.4324029137      18.0000000000
11665 2      13.9915686444      18.0000000000
11666 2      13.0884805704      17.0000000000
11667 2      15.2248172916      20.0000000000
11668 2      15.0435553873      17.0000000000
11669 2      15.7372886173      16.0000000000
11670 2      18.0108164410      22.0000000000
11671 2      16.0091068812      18.0000000000
11672 2      15.3621172840      17.0000000000
11673 2      14.8917073841      15.0000000000
11674 2      14.7005937249      17.0000000000
11675 2      14.9854963390      21.0000000000
11676 2      14.3082424823      16.0000000000
11677 2      15.2576144230      19.0000000000
11678 2      16.6755254842      21.0000000000
11679 2      14.2992354539      21.0000000000
11680 2      14.3949407329      13.0000000000
11681 2      17.2474878626      18.0000000000
11682 2      16.7003470756      17.0000000000
11683 2      16.3718326588      19.0000000000
11684 2      15.7379791075      19.0000000000
11685 2      13.5977900349      18.0000000000
11686 2      14.9676039429      14.0000000000
11687 2      16.6080841883      19.0000000000
11688 2      17.5446513269      19.0000000000
11689 2      13.0172614090      15.0000000000
11690 2      18.1328496347      19.0000000000
11691 2      14.0223105650      15.0000000000
11692 2      14.8352902540      15.0000000000
11693 2      13.6800556520      13.0000000000
11694 2      12.7101362840      16.0000000000
11695 2      14.2768300404      14.0000000000
11696 2      14.2923891311      19.0000000000
11697 2      15.3324540660      18.0000000000
11698 2      14.8087454328      18.0000000000
11699 2      14.3530404351      19.0000000000
11700 2      16.5949561918      19.0000000000
11701 2      17.0778323313      24.0000000000
11702 2      15.9193238412      18.0000000000
11703 2      16.7755396720      22.0000000000
11704 2      15.1293023756      18.0000000000
11705 2      16.2875111154      18.0000000000
11706 2      12.6468298155      16.0000000000
11707 2      15.3247395931      18.0000000000
11708 2      15.1265599738      21.0000000000
11709 2      12.8065207677      16.0000000000
11710 2      20.2394137361      19.0000000000
11711 2      13.3290685075      14.0000000000
11712 2      13.6755405777      17.0000000000
11713 2      16.1593819216      23.0000000000
11714 2      13.9541371627      17.0000000000
11715 2      15.5089753684      17.0000000000
11716 2      13.6629682649      16.0000000000
11717 2      15.4419623423      19.0000000000
11718 2      14.3990576020      17.0000000000
11719 2      17.2910993774      22.0000000000
11720 2      15.3007937137      20.0000000000
11721 2      15.1104919611      19.0000000000
11722 2      15.4651328430      15.0000000000
11723 2      14.1109486336      15.0000000000
11724 2      14.5309042646      18.0000000000
11725 2      15.8950347631      19.0000000000
11726 2      14.2425570369      17.0000000000
11727 2      15.0390899982      20.0000000000
11728 2      12.8937928187      20.0000000000
11729 2      12.3182411616      16.0000000000
11730 2      13.4261947395      17.0000000000
11731 2      15.1177880388      15.0000000000
11732 2      15.6548026533      23.0000000000
11733 2      15.2996929072      14.0000000000
11734 2      14.0995483226      17.0000000000
11735 2      15.6902876267      18.0000000000
11736 2      14.0840207837      19.0000000000
11737 2      16.6021459598      19.0000000000
11738 2      15.5908048020      19.0000000000
11739 2      13.3072694167      17.0000000000
11740 2      15.3808937038      21.0000000000
11741 2      13.8750697458      16.0000000000
11742 2      16.8142240715      21.0000000000
11743 2      13.3611210218      15.0000000000
11744 2      13.1730957504      15.0000000000
11745 2      16.7547387646      18.0000000000
11746 2      14.9207000681      15.0000000000
11747 2      15.2524801606      16.0000000000
11748 2      13.2617126515      16.0000000000
11749 2      14.7910314563      18.0000000000
11750 2      14.5068683237      19.0000000000
11751 2      14.2302437107      18.0000000000
11752 2      15.2161566540      18.0000000000
11753 2      15.4758758692      23.0000000000
11754 2      15.1287541257      18.0000000000
11755 2      14.8954047473      18.0000000000
11756 2      14.4395702559      20.0000000000
11757 2      15.3827819591      18.0000000000
11758 2      17.9058710545      23.0000000000
11759 2      14.1590124379      18.0000000000
11760 2      12.1594970705      17.0000000000
11761 2      19.2317344815      22.0000000000
11762 2      14.4559236929      19.0000000000
11763 2      12.3521751160      13.0000000000
11764 2      16.2554017343      16.0000000000
11765 2      13.9375924917      17.0000000000
11766 2      14.9499519032      16.0000000000
11767 2      13.9594937188      18.0000000000
11768 2      11.9278598654      16.0000000000
11769 2      14.0161852063      16.0000000000
11770 2      14.3689905317      18.0000000000
11771 2      16.7499038856      22.0000000000
11772 2      17.1386257149      16.0000000000
11773 2      16.1653141865      17.0000000000
11774 2      15.0605808840      18.0000000000
11775 2      13.2125301073      15.0000000000
11776 2      14.1274414190      20.0000000000
11777 2      15.4281137913      15.0000000000
11778 2      14.6329250045      17.0000000000
11779 2      15.1886946808      20.0000000000
11780 2      12.7430637186      17.0000000000
11781 2      14.5357186217      18.0000000000
11782 2      13.5033863647      15.0000000000
11783 2      14.3255326423      18.0000000000
11784 2      16.0089037627      21.0000000000
11785 2      16.6291727818      19.0000000000
11786 2      12.0857150846      17.0000000000
11787 2      16.3182900494      18.0000000000
11788 2      15.1757691490      17.0000000000
11789 2      13.0564877815      14.0000000000
11790 2      13.4811741707      19.0000000000
11791 2      15.3968633270      24.0000000000
11792 2      15.2520301104      19.0000000000
11793 2      13.2065879053      15.0000000000
11794 2      15.5309216346      21.0000000000
11795 2      15.6795534494      19.0000000000
11796 2      14.8007304534      16.0000000000
11797 2      13.5760046701      16.0000000000
11798 2      15.7413673706      17.0000000000
11799 2      14.1231360600      14.0000000000
11800 2      15.6377855084      21.0000000000
11801 2      18.3909710160      20.0000000000
11802 2      14.9279684408      20.0000000000
11803 2      16.9443418132      16.0000000000
11804 2      16.9138095829      23.0000000000
11805 2      12.5410346427      16.0000000000
11806 2      12.4689277927      17.0000000000
11807 2      13.1645919417      15.0000000000
11808 2      13.5000165230      18.0000000000
11809 2      15.4752595785      20.0000000000
11810 2      16.4220437396      14.0000000000
11811 2      16.2882675635      19.0000000000
11812 2      16.2118036539      17.0000000000
11813 2      14.1088048884      18.0000000000
11814 2      16.0729868195      18.0000000000
11815 2      15.3601168341      18.0000000000
11816 2      14.3063001205      15.0000000000
11817 2      14.8820179869      18.0000000000
11818 2      13.7588189193      17.0000000000
11819 2      15.7788073940      17.0000000000
11820 2      13.7147772232      17.0000000000
11821 2      13.3667731408      17.0000000000
11822 2      11.2773898828      15.0000000000
11823 2      14.0248562991      20.0000000000
11824 2      13.9264240112      17.0000000000
11825 2      15.0568334910      19.0000000000
11826 2      20.0868953726      23.0000000000
11827 2      13.4522427680      15.0000000000
11828 2      15.0540819759      17.0000000000
11829 2      15.6156787187      19.0000000000
11830 2      12.3003600585      20.0000000000
11831 2      14.8591923758      21.0000000000
11832 2      12.3810614088      18.0000000000
11833 2      14.4591434262      16.0000000000
11834 2      15.2599351783      18.0000000000
11835 2      13.3297430846      16.0000000000
11836 2      15.1562534758      19.0000000000
11837 2      14.1399031956      16.0000000000
11838 2      16.3196983493      21.0000000000
11839 2      13.6656083766      14.0000000000
11840 2      13.9616427065      17.0000000000
11841 2      18.1912477653      22.0000000000
11842 2      14.4938181742      17.0000000000
11843 2      13.2375439426      17.0000000000
11844 2      15.1018837621      20.0000000000
11845 2      15.3706621599      18.0000000000
11846 2      15.1789559517      17.0000000000
11847 2      11.1416943745      16.0000000000
11848 2      15.2091549645      18.0000000000
11849 2      15.2545781511      19.0000000000
11850 2      14.9124928224      19.0000000000
11851 2      15.4458288809      19.0000000000
11852 2      13.9558050616      15.0000000000
11853 2      13.0297017178      16.0000000000
11854 2      12.7332283643      16.0000000000
11855 2      13.5276358568      15.0000000000
11856 2      14.9858514746      18.0000000000
11857 2      17.0998277841      21.0000000000
11858 2      16.0985565122      21.0000000000
11859 2      16.1112127881      23.0000000000
11860 2      15.4641314807      17.0000000000
11861 2      13.8072205556      16.0000000000
11862 2      13.5570309173      15.0000000000
11863 2      15.7250040200      20.0000000000
11864 2      13.0717550693      17.0000000000
11865 2      12.6968174195      18.0000000000
11866 2      13.9258902723      18.0000000000
11867 2      15.5243333732      18.0000000000
11868 2      13.9943748345      20.0000000000
11869 2      12.8988103823      15.0000000000
11870 2      15.2638716989      18.0000000000
11871 2      14.4045024541      16.0000000000
11872 2      14.5372489026      16.0000000000
11873 2      14.9103818036      16.0000000000
11874 2      15.4457143455      20.0000000000
11875 2      14.9976132653      20.0000000000
11876 2      15.6993241132      16.0000000000
11877 2      16.3033169524      21.0000000000
11878 2      15.3911409101      20.0000000000
11879 2      12.7638612869      14.0000000000
11880 2      12.9988158398      17.0000000000
11881 2      15.3535705593      20.0000000000
11882 2      16.1332398113      21.0000000000
11883 2      15.1593350705      18.0000000000
11884 2      13.5682825556      18.0000000000
11885 2      14.7242579485      18.0000000000
11886 2      13.1797492044      17.0000000000
11887 2      14.2005694911      16.0000000000
11888 2      14.8560368037      22.0000000000
11889 2      14.1968648578      17.0000000000
11890 2      14.6137771340      15.0000000000
11891 2      13.4410497887      14.0000000000
11892 2      14.1057955531      15.0000000000
11893 2      13.8114226573      18.0000000000
11894 2      14.1892928403      14.0000000000
11895 2      13.7917442302      19.0000000000
11896 2      15.3127384415      17.0000000000
11897 2      15.7965614279      19.0000000000
11898 2      13.1010498880      14.0000000000
11899 2      14.7170906060      18.0000000000
11900 2      16.5485445610      21.0000000000
11901 2      14.7082768006      16.0000000000
11902 2      15.8475281803      19.0000000000
11903 2      15.4296028345      19.0000000000
11904 2      14.8144569245      16.0000000000
11905 2      13.5298431020      16.0000000000
11906 2      16.8003740142      18.0000000000
11907 2      13.9429977368      16.0000000000
11908 2      14.1621137930      19.0000000000
11909 2      12.7383767871      17.0000000000
11910 2      14.0020665829      16.0000000000
11911 2      14.6329634190      18.0000000000
11912 2      16.3355384691      16.0000000000
11913 2      13.8021117268      17.0000000000
11914 2      13.2555362246      17.0000000000
11915 2      12.2106114130      16.0000000000
11916 2      15.9396108741      20.0000000000
11917 2      14.5505599986      19.0000000000
11918 2      12.2964454547      16.0000000000
11919 2      11.9256096694      14.0000000000
11920 2      18.5317338803      21.0000000000
11921 2      16.2364398807      21.0000000000
11922 2      14.5537873816      18.0000000000
11923 2      15.3942903806      19.0000000000
11924 2      16.6393725977      16.0000000000
11925 2      12.2225260649      14.0000000000
11926 2      14.9329337795      18.0000000000
11927 2      16.3905532915      17.0000000000
11928 2      12.8240982617      16.0000000000
11929 2      15.0100602108      13.0000000000
11930 2      14.5627722802      18.0000000000
11931 2      15.2399017320      18.0000000000
11932 2      15.0883128670      18.0000000000
11933 2      14.3241534521      15.0000000000
11934 2      13.4844748462      16.0000000000
11935 2      15.5489608261      17.0000000000
11936 2      16.1994200191      21.0000000000
11937 2      15.5735237265      21.0000000000
11938 2      14.1587419335      19.0000000000
11939 2      13.4437004980      19.0000000000
11940 2      16.8655801806      19.0000000000
11941 2      15.0881179661      23.0000000000
11942 2      19.5793735259      20.0000000000
11943 2      16.3926233219      20.0000000000
11944 2      16.7457368551      18.0000000000
11945 2      13.4098595232      21.0000000000
11946 2      15.3865589243      16.0000000000
11947 2      12.5478376181      16.0000000000
11948 2      13.9243565338      16.0000000000
11949 2      15.8311012910      18.0000000000
11950 2      13.7579143798      15.0000000000
11951 2      12.5001253512      18.0000000000
11952 2      12.2153747438      18.0000000000
11953 2      13.4240785599      15.0000000000
11954 2      15.0523012295      19.0000000000
11955 2      16.6123662337      19.0000000000
11956 2      13.9948861487      17.0000000000
11957 2      15.6271819428      23.0000000000
11958 2      15.3557640503      16.0000000000
11959 2      13.1462408953      14.0000000000
11960 2      14.0146168558      16.0000000000
11961 2      14.9090516992      16.0000000000
11962 2      13.6473039198      19.0000000000
11963 2      15.3404470829      18.0000000000
11964 2      14.5249437301      18.0000000000
11965 2      15.6729162549      23.0000000000
11966 2      15.7074247822      19.0000000000
11967 2      14.5712515042      19.0000000000
11968 2      14.5309694791      17.0000000000
11969 2      14.8040245099      18.0000000000
11970 2      11.9369737618      16.0000000000
11971 2      14.6716098503      15.0000000000
11972 2      13.2985211497      14.0000000000
11973 2      14.0033662890      16.0000000000
11974 2      17.7469209839      20.0000000000
11975 2      16.5722821414      17.0000000000
11976 2      13.9221731079      18.0000000000
11977 2      16.6775116682      21.0000000000
11978 2      15.0660318849      20.0000000000
11979 2      13.3242740618      17.0000000000
11980 2      15.8208046877      21.0000000000
11981 2      16.0672891196      20.0000000000
11982 2      14.6117232118      17.0000000000
11983 2      16.3362902172      19.0000000000
11984 2      14.4103065498      18.0000000000
11985 2      13.7767743447      18.0000000000
11986 2      13.4883711022      16.0000000000
11987 2      15.8133299882      18.0000000000
11988 2      17.0872874327      21.0000000000
11989 2      16.3533295197      20.0000000000
11990 2      14.0839377288      21.0000000000
11991 2      12.7579320165      18.0000000000
11992 2      15.5260112330      19.0000000000
11993 2      15.2789202770      19.0000000000
11994 2      14.3302833206      19.0000000000
11995 2      15.0104577265      17.0000000000
11996 2      15.6454125044      15.0000000000
11997 2      15.9983106130      19.0000000000
11998 2      16.7161778052      18.0000000000
11999 2      14.6408132186      22.0000000000
12000 2      16.8074558528      20.0000000000
12001 2      16.0458383758      18.0000000000
12002 2      16.2736113117      19.0000000000
12003 2      15.2038794029      20.0000000000
12004 2      13.0956793536      15.0000000000
12005 2      17.8491830210      19.0000000000
12006 2      13.1301431430      17.0000000000
12007 2      14.3580544006      15.0000000000
12008 2      13.7779334249      16.0000000000
12009 2      13.5563597913      16.0000000000
12010 2      13.3542618127      17.0000000000
12011 2      14.6430071222      19.0000000000
12012 2      15.5440326216      20.0000000000
12013 2      14.4809887009      18.0000000000
12014 2      13.6537454059      16.0000000000
12015 2      16.2782330693      20.0000000000
12016 2      13.6398929060      20.0000000000
12017 2      13.2848706106      14.0000000000
12018 2      17.7207656951      19.0000000000
12019 2      15.5032106893      19.0000000000
12020 2      18.6934899596      19.0000000000
12021 2      18.0533846429      22.0000000000
12022 2      14.9076254246      19.0000000000
12023 2      13.1537561080      16.0000000000
12024 2      15.2653694932      19.0000000000
12025 2      13.1794876849      20.0000000000
12026 2      15.5686597849      20.0000000000
12027 2      14.8058197973      21.0000000000
12028 2      14.8209966039      17.0000000000
12029 2      16.5435026174      18.0000000000
12030 2      15.0777338399      17.0000000000
12031 2      13.6277539720      17.0000000000
12032 2      16.3558874542      21.0000000000
12033 2      14.0043267281      15.0000000000
12034 2      13.6943068904      17.0000000000
12035 2      17.0305680374      21.0000000000
12036 2      13.5105309205      16.0000000000
12037 2      17.2430064991      19.0000000000
12038 2      16.5432944447      18.0000000000
12039 2      15.1285903796      22.0000000000
12040 2      14.2352377750      16.0000000000
12041 2      11.8286139328      15.0000000000
12042 2      15.3468597131      20.0000000000
12043 2      16.4110976856      21.0000000000
12044 2      15.2135687113      19.0000000000
12045 2      13.4631600196      17.0000000000
12046 2      12.4675730207      18.0000000000
12047 2      15.3358666949      18.0000000000
12048 2      15.7710414278      14.0000000000
12049 2      13.7568273135      17.0000000000
12050 2      13.3149315464      15.0000000000
12051 2      14.0527650171      16.0000000000
12052 2      14.2038823940      18.0000000000
12053 2      15.6433126529      20.0000000000
12054 2      13.1787719118      13.0000000000
12055 2      16.6795405856      19.0000000000
12056 2      12.9028112492      11.0000000000
12057 2      12.4032112860      13.0000000000
12058 2      16.4114548973      22.0000000000
12059 2      14.7265974493      17.0000000000
12060 2      12.8838893813      18.0000000000
12061 2      14.7286080512      20.0000000000
12062 2      15.8492794133      22.0000000000
12063 2      14.4967449789      22.0000000000
12064 2      17.7652206974      21.0000000000
12065 2      16.5799912907      17.0000000000
12066 2      12.7652847779      15.0000000000
12067 2      16.5088034540      22.0000000000
12068 2      13.3962743360      17.0000000000
12069 2      15.2395280386      17.0000000000
12070 2      17.6000136973      20.0000000000
12071 2      15.2872930476      15.0000000000
12072 2      15.3581409488      21.0000000000
12073 2      14.1616458996      14.0000000000
12074 2      13.8286866723      19.0000000000
12075 2      14.1839665945      22.0000000000
12076 2      12.4848903518      16.0000000000
12077 2      13.0438819679      14.0000000000
12078 2      15.0694951633      16.0000000000
12079 2      14.7793675649      16.0000000000
12080 2      15.0310046769      21.0000000000
12081 2      13.5593556523      18.0000000000
12082 2      20.0316437499      23.0000000000
12083 2      16.2617291343      19.0000000000
12084 2      15.0251127801      14.0000000000
12085 2      16.2293793708      17.0000000000
12086 2      14.1737350160      17.0000000000
12087 2      13.7302203713      18.0000000000
12088 2      12.4667994495      13.0000000000
12089 2      15.4703140063      19.0000000000
12090 2      15.4014790134      19.0000000000
12091 2      15.1047087964      20.0000000000
12092 2      14.7392743281      17.0000000000
12093 2      13.4349766806      18.0000000000
12094 2      15.1218846839      17.0000000000
12095 2      13.6284089236      20.0000000000
12096 2      14.8338392644      15.0000000000
12097 2      16.5697128985      21.0000000000
12098 2      14.2142074420      16.0000000000
12099 2      16.9444835862      15.0000000000
12100 2      14.5686102185      19.0000000000
12101 2      16.5226887648      24.0000000000
12102 2      13.8786803216      17.0000000000
12103 2      16.2536508932      16.0000000000
12104 2      18.0435959666      19.0000000000
12105 2      15.6609405962      20.0000000000
12106 2      16.1427398536      20.0000000000
12107 2      14.4788992211      16.0000000000
12108 2      13.7891266689      18.0000000000
12109 2      14.4840128971      17.0000000000
12110 2      12.9467762897      16.0000000000
12111 2      14.2163815927      15.0000000000
12112 2      17.0673793038      19.0000000000
12113 2      20.4561662446      20.0000000000
12114 2      15.7803342917      18.0000000000
12115 2      15.2486912866      18.0000000000
12116 2      15.3913417189      20.0000000000
12117 2      17.0193259410      21.0000000000
12118 2      14.5331432106      18.0000000000
12119 2      13.7344823766      18.0000000000
12120 2      13.5963237409      17.0000000000
12121 2      16.1542609558      21.0000000000
12122 2      14.3857045458      13.0000000000
12123 2      13.4340196979      16.0000000000
12124 2      15.1259995248      18.0000000000
12125 2      14.3858438403      21.0000000000
12126 2      14.3335922808      18.0000000000
12127 2      12.7184184330      14.0000000000
12128 2      15.3328539379      17.0000000000
12129 2      16.2772788481      22.0000000000
12130 2      12.4297123196      16.0000000000
12131 2      13.0941888083      14.0000000000
12132 2      14.7465254878      15.0000000000
12133 2      15.8482152553      20.0000000000
12134 2      15.6368910415      19.0000000000
12135 2      12.6618081187      16.0000000000
12136 2      13.7713302846      16.0000000000
12137 2      15.9930181202      22.0000000000
12138 2      17.9594048288      20.0000000000
12139 2      14.0077686989      15.0000000000
12140 2      18.6041082533      22.0000000000
12141 2      15.3122285920      17.0000000000
12142 2      14.9447091182      19.0000000000
12143 2      14.8157929384      18.0000000000
12144 2      14.4577987855      18.0000000000
12145 2      14.2677632119      19.0000000000
12146 2      15.4984874812      19.0000000000
12147 2      17.2854206820      17.0000000000
12148 2      20.7732844749      22.0000000000
12149 2      14.3496537622      19.0000000000
12150 2      15.4719225771      15.0000000000
12151 2      15.3779789154      21.0000000000
12152 2      14.7406506611      20.0000000000
12153 2      15.1127818728      20.0000000000
12154 2      14.9014233665      17.0000000000
12155 2      12.6058586404      16.0000000000
12156 2      15.5345108112      22.0000000000
12157 2      13.1864338033      17.0000000000
12158 2      16.4575942691      19.0000000000
12159 2      14.8183711308      18.0000000000
12160 2      17.8903283682      20.0000000000
12161 2      13.2226282415      17.0000000000
12162 2      13.8228339552      21.0000000000
12163 2      16.6243939074      21.0000000000
12164 2      13.7544988216      15.0000000000
12165 2      11.8403626917      14.0000000000
12166 2      15.9151668282      20.0000000000
12167 2      14.6103938125      16.0000000000
12168 2      13.1089952343      14.0000000000
12169 2      16.8881574409      18.0000000000
12170 2      14.3259653142      21.0000000000
12171 2      15.0931967133      21.0000000000
12172 2      14.4526616887      19.0000000000
12173 2      17.4369286657      20.0000000000
12174 2      15.8568932357      15.0000000000
12175 2      16.4369557628      19.0000000000
12176 2      12.6392420351      17.0000000000
12177 2      15.7493590366      21.0000000000
12178 2      14.0681673719      17.0000000000
12179 2      12.8427892365      17.0000000000
12180 2      13.6725637813      18.0000000000
12181 2      16.8027361051      16.0000000000
12182 2      15.4314977182      21.0000000000
12183 2      13.9246383427      16.0000000000
12184 2      14.2976482639      18.0000000000
12185 2      14.4495474843      17.0000000000
12186 2      13.8218852523      16.0000000000
12187 2      15.3330017254      19.0000000000
12188 2      14.8254083933      19.0000000000
12189 2      15.8086721261      16.0000000000
12190 2      14.4905944276      15.0000000000
12191 2      14.9193560730      17.0000000000
12192 2      13.8434094847      17.0000000000
12193 2      14.4641544631      19.0000000000
12194 2      13.6514516782      17.0000000000
12195 2      14.0095401461      18.0000000000
12196 2      14.4311393573      18.0000000000
12197 2      14.0931142559      20.0000000000
12198 2      14.2127468829      17.0000000000
12199 2      14.5214553748      16.0000000000
12200 2      15.0705729556      15.0000000000
12201 2      15.4882696369      17.0000000000
12202 2      16.9357763534      22.0000000000
12203 2      15.2462494026      13.0000000000
12204 2      16.4136062087      23.0000000000
12205 2      15.0506766408      19.0000000000
12206 2      14.7891286489      17.0000000000
12207 2      12.7528229100      16.0000000000
12208 2      15.0104335423      16.0000000000
12209 2      13.3925256322      18.0000000000
12210 2      15.6575656284      15.0000000000
12211 2      14.6023413448      15.0000000000
12212 2      13.3717261378      17.0000000000
12213 2      13.1309681257      18.0000000000
12214 2      13.2704552277      16.0000000000
12215 2      14.0568287734      19.0000000000
12216 2      14.1921912393      16.0000000000
12217 2      14.4246557201      18.0000000000
12218 2      13.2794959757      16.0000000000
12219 2      16.4342655639      18.0000000000
12220 2      14.2193075737      17.0000000000
12221 2      15.0132191610      19.0000000000
12222 2      17.6770827485      19.0000000000
12223 2      13.1763660695      18.0000000000
12224 2      13.1410296942      17.0000000000
12225 2      13.5909083596      20.0000000000
12226 2      14.6204417384      16.0000000000
12227 2      14.8855637419      17.0000000000
12228 2      11.9774566186      15.0000000000
12229 2      15.8851837096      19.0000000000
12230 2      12.2726401148      14.0000000000
12231 2      14.8721676627      16.0000000000
12232 2      15.2348931865      20.0000000000
12233 2      14.6050197598      16.0000000000
12234 2      16.1440933341      21.0000000000
12235 2      16.5526129701      19.0000000000
12236 2      15.3982966520      15.0000000000
12237 2      14.2246447413      17.0000000000
12238 2      17.9315282851      19.0000000000
12239 2      16.1259740478      19.0000000000
12240 2      13.0163420221      13.0000000000
12241 2      17.7638576485      20.0000000000
12242 2      13.6255453336      16.0000000000
12243 2      13.7453838214      16.0000000000
12244 2      14.8590604913      19.0000000000
12245 2      14.0361989011      14.0000000000
12246 2      15.3799629671      22.0000000000
12247 2      13.2212771478      15.0000000000
12248 2      14.9950233510      18.0000000000
12249 2      13.2592131013      19.0000000000
12250 2      16.9451290815      20.0000000000
12251 2      11.8601484388      15.0000000000
12252 2      15.9289519933      18.0000000000
12253 2      13.3405315603      17.0000000000
12254 2      16.8618350680      20.0000000000
12255 2      15.9357652737      21.0000000000
12256 2      16.9421107461      16.0000000000
12257 2      13.5315403047      16.0000000000
12258 2      15.1331212119      17.0000000000
12259 2      13.0137380143      16.0000000000
12260 2      13.3070716830      20.0000000000
12261 2      16.0340696151      20.0000000000
12262 2      17.5239388596      23.0000000000
12263 2      13.3196293790      14.0000000000
12264 2      12.1822941765      15.0000000000
12265 2      15.5588139052      19.0000000000
12266 2      16.4051929569      20.0000000000
12267 2      13.3314550721      15.0000000000
12268 2      18.5017389604      24.0000000000
12269 2      15.5305958912      18.0000000000
12270 2      15.6925657994      18.0000000000
12271 2      12.3590067871      16.0000000000
12272 2      15.4303927155      20.0000000000
12273 2      12.3644218432      15.0000000000
12274 2      15.4776642254      20.0000000000
12275 2      14.8073156724      21.0000000000
12276 2      14.7887710697      17.0000000000
12277 2      15.0060269776      18.0000000000
12278 2      14.6236352145      20.0000000000
12279 2      14.1536997514      18.0000000000
12280 2      14.5269369123      13.0000000000
12281 2      14.1575422804      18.0000000000
12282 2      15.9357280761      17.0000000000
12283 2      15.5156417323      15.0000000000
12284 2      14.0658641297      16.0000000000
12285 2      17.3511682710      19.0000000000
12286 2      13.3628352524      18.0000000000
12287 2      11.7771434755      14.0000000000
12288 2      15.2382795210      20.0000000000
12289 2      14.2263771690      20.0000000000
12290 2      16.2317037436      17.0000000000
12291 2      12.5868975675      14.0000000000
12292 2      14.9793859696      18.0000000000
12293 2      16.6720989899      20.0000000000
12294 2      16.3599673680      20.0000000000
12295 2      16.7908099423      17.0000000000
12296 2      16.3244531354      18.0000000000
12297 2      17.4090431523      19.0000000000
12298 2      14.2172299838      18.0000000000
12299 2      14.4192319148      20.0000000000
12300 2      14.8274433945      17.0000000000
12301 2      15.3203635972      19.0000000000
12302 2      17.1787575608      14.0000000000
12303 2      16.3217573968      18.0000000000
12304 2      16.8684363680      21.0000000000
12305 2      13.8001114726      18.0000000000
12306 2      15.2680586836      21.0000000000
12307 2      15.3152517039      17.0000000000
12308 2      14.9657485560      17.0000000000
12309 2      16.7448234878      22.0000000000
12310 2      15.8443948958      18.0000000000
12311 2      14.5554146877      21.0000000000
12312 2      15.5933762694      22.0000000000
12313 2      12.7850306168      15.0000000000
12314 2      14.3109247226      19.0000000000
12315 2      17.2698817515      18.0000000000
12316 2      14.9970323329      15.0000000000
12317 2      14.0888291008      18.0000000000
12318 2      14.4374423888      16.0000000000
12319 2      17.3756395377      16.0000000000
12320 2      16.6562201433      19.0000000000
12321 2      13.8665839960      12.0000000000
12322 2      13.3892145050      15.0000000000
12323 2      14.8592445923      19.0000000000
12324 2      14.3159288420      16.0000000000
12325 2      13.2260943308      16.0000000000
12326 2      17.1014630935      23.0000000000
12327 2      15.6672228633      21.0000000000
12328 2      14.8942587912      19.0000000000
12329 2      15.0437575161      15.0000000000
12330 2      17.8567479021      21.0000000000
12331 2      15.0820745592      18.0000000000
12332 2      12.9786241231      17.0000000000
12333 2      16.1587025910      20.0000000000
12334 2      15.2441491606      20.0000000000
12335 2      16.3752194551      20.0000000000
12336 2      15.0241809706      18.0000000000
12337 2      12.2167226430      18.0000000000
12338 2      15.7789542610      17.0000000000
12339 2      17.0727190512      18.0000000000
12340 2      16.2096453732      17.0000000000
12341 2      14.8292064159      17.0000000000
12342 2      15.9974709386      17.0000000000
12343 2      16.5235202627      19.0000000000
12344 2      13.3443703901      14.0000000000
12345 2      15.7870709442      20.0000000000
12346 2      13.7792091801      16.0000000000
12347 2      15.2543923957      18.0000000000
12348 2      14.5689470453      18.0000000000
12349 2      13.1940771582      16.0000000000
12350 2      11.5417309226      14.0000000000
12351 2      15.9099568455      20.0000000000
12352 2      15.1990968419      17.0000000000
12353 2      15.0916376746      16.0000000000
12354 2      20.7396362601      23.0000000000
12355 2      12.5310904599      13.0000000000
12356 2      12.3903891314      17.0000000000
12357 2      13.7166639737      18.0000000000
12358 2      14.7704245751      18.0000000000
12359 2      14.4974442727      20.0000000000
12360 2      14.8424403325      19.0000000000
12361 2      15.8132744485      21.0000000000
12362 2      13.4889972165      19.0000000000
12363 2      17.6229321111      22.0000000000
12364 2      15.5880380920      16.0000000000
12365 2      15.9807512894      16.0000000000
12366 2      16.8271004022      22.0000000000
12367 2      13.6747276304      17.0000000000
12368 2      13.7688894670      17.0000000000
12369 2      14.3395317181      17.0000000000
12370 2      14.3583097911      16.0000000000
12371 2      17.1599024320      18.0000000000
12372 2      15.1151811019      17.0000000000
12373 2      13.6915958826      17.0000000000
12374 2      13.5556661282      17.0000000000
12375 2      17.6623034545      22.0000000000
12376 2      12.9765242819      19.0000000000
12377 2      15.7548554729      18.0000000000
12378 2      15.8480208759      15.0000000000
12379 2      14.9719574569      20.0000000000
12380 2      15.6877049154      15.0000000000
12381 2      12.8365249810      14.0000000000
12382 2      13.7942917267      15.0000000000
12383 2      11.7506944277      16.0000000000
12384 2      15.1656579324      21.0000000000
12385 2      13.1652023843      13.0000000000
12386 2      16.2315053665      21.0000000000
12387 2      12.1075092240      16.0000000000
12388 2      15.7006089343      17.0000000000
12389 2      14.5648424931      18.0000000000
12390 2      16.0854439291      17.0000000000
12391 2      15.4881974724      20.0000000000
12392 2      12.9172067902      15.0000000000
12393 2      14.3683637236      17.0000000000
12394 2      15.2600377127      20.0000000000
12395 2      16.9105276579      16.0000000000
12396 2      15.7516440731      23.0000000000
12397 2      16.6338196853      22.0000000000
12398 2      15.0597502073      17.0000000000
12399 2      14.5987859144      20.0000000000
12400 2      14.6866326882      18.0000000000
12401 2      17.0856277450      19.0000000000
12402 2      17.5225506082      19.0000000000
12403 2      12.8223467138      17.0000000000
12404 2      14.5252034665      16.0000000000
12405 2      13.6781477905      16.0000000000
12406 2      14.6323673367      18.0000000000
12407 2      15.2280559489      15.0000000000
12408 2      18.1190891298      20.0000000000
12409 2      13.7119406477      20.0000000000
12410 2      15.0587150315      20.0000000000
12411 2      14.0301566865      15.0000000000
12412 2      13.6634731777      18.0000000000
12413 2      17.0453954939      19.0000000000
12414 2      13.4211515914      16.0000000000
12415 2      16.4991289494      19.0000000000
12416 2      14.0706901230      16.0000000000
12417 2      14.8118983591      16.0000000000
12418 2      15.5832709898      19.0000000000
12419 2      15.3405217199      22.0000000000
12420 2      14.0860746253      15.0000000000
12421 2      13.6771702691      17.0000000000
12422 2      12.8323601083      18.0000000000
12423 2      14.9788889296      18.0000000000
12424 2      12.9717534305      17.0000000000
12425 2      15.6596471260      15.0000000000
12426 2      15.5621484750      19.0000000000
12427 2      13.6386896856      18.0000000000
12428 2      14.6076694350      18.0000000000
12429 2      16.6785915290      20.0000000000
12430 2      17.3726508223      18.0000000000
12431 2      13.5304490169      18.0000000000
12432 2      14.9552763482      20.0000000000
12433 2      16.2564866516      18.0000000000
12434 2      15.7105081816      20.0000000000
12435 2      16.5282319623      22.0000000000
12436 2      18.5707228927      21.0000000000
12437 2      13.3700637472      19.0000000000
12438 2      15.2793093608      20.0000000000
12439 2      14.2044740121      18.0000000000
12440 2      16.5529213435      19.0000000000
12441 2      15.1117516488      18.0000000000
12442 2      14.7176987990      15.0000000000
12443 2      10.5477123269      12.0000000000
12444 2      13.1932998424      17.0000000000
12445 2      15.8828923454      21.0000000000
12446 2      13.6404338139      17.0000000000
12447 2      12.9703020422      17.0000000000
12448 2      14.5429329232      17.0000000000
12449 2      14.4887959017      20.0000000000
12450 2      15.3596115152      19.0000000000
12451 2      13.3946901934      17.0000000000
12452 2      12.1434811308      16.0000000000
12453 2      17.0952014475      19.0000000000
12454 2      15.0543674336      15.0000000000
12455 2      17.1093102823      21.0000000000
12456 2      13.9961654218      15.0000000000
12457 2      16.2879232824      21.0000000000
12458 2      14.8460418170      19.0000000000
12459 2      13.4759437423      18.0000000000
12460 2      15.7170617753      22.0000000000
12461 2      12.4753955376      18.0000000000
12462 2      13.1101552182      15.0000000000
12463 2      13.3579293540      19.0000000000
12464 2      14.1838641710      16.0000000000
12465 2      14.0537906324      15.0000000000
12466 2      15.0268947651      19.0000000000
12467 2      14.1292847066      18.0000000000
12468 2      15.2982630077      19.0000000000
12469 2      13.2516336228      14.0000000000
12470 2      14.1467596865      19.0000000000
12471 2      11.9833459626      14.0000000000
12472 2      17.5704968072      22.0000000000
12473 2      15.7141027977      20.0000000000
12474 2      18.3906732386      23.0000000000
12475 2      15.5780677694      16.0000000000
12476 2      13.9308635838      15.0000000000
12477 2      18.9346078864      24.0000000000
12478 2      14.6327888205      23.0000000000
12479 2      14.6094323285      19.0000000000
12480 2      12.6724189570      16.0000000000
12481 2      14.7924561748      18.0000000000
12482 2      13.8601396540      17.0000000000
12483 2      14.3660310761      17.0000000000
12484 2      16.0243301952      18.0000000000
12485 2      13.5840833447      12.0000000000
12486 2      16.1733912081      19.0000000000
12487 2      15.3127668876      19.0000000000
12488 2      15.0394528290      16.0000000000
12489 2      16.0492565173      18.0000000000
12490 2      15.6089522821      18.0000000000
12491 2      15.0232283351      16.0000000000
12492 2      14.4012424197      17.0000000000
12493 2      14.5841539970      17.0000000000
12494 2      15.8766203192      18.0000000000
12495 2      11.3448107374      14.0000000000
12496 2      15.2467379083      17.0000000000
12497 2      12.5069415976      17.0000000000
12498 2      13.5086597686      17.0000000000
12499 2      13.6624913069      17.0000000000
12500 2      14.9415560589      19.0000000000
12501 4      15.4615830924      17.0000000000
12502 4      14.9203092444      14.0000000000
12503 4      16.3912142665      21.0000000000
12504 4      13.9795782761      18.0000000000
12505 5      21.6768496538      19.0000000000
12506 4      13.3236405126      17.0000000000
12507 4      18.2874533621      17.0000000000
12508 4      18.0995121950      17.0000000000
12509 4      17.0608386173      16.0000000000
12510 5      18.2845903969      19.0000000000
12511 5      17.1467504230      15.0000000000
12512 4      17.2619767665      17.0000000000
12513 4      17.4469431485      18.0000000000
12514 4      18.3253953572      18.0000000000
12515 4      20.6427425734      19.0000000000
12516 4      16.3021910437      19.0000000000
12517 4      15.7182768599      20.0000000000
12518 5      21.2093208939      24.0000000000
12519 4      16.4276472695      16.0000000000
12520 4      18.0665734681      17.0000000000
12521 4      19.0659912568      22.0000000000
12522 4      18.6786596646      18.0000000000
12523 4      15.8036509345      16.0000000000
12524 4      19.1709704264      25.0000000000
12525 4      13.2589500158      12.0000000000
12526 4      18.6033667274      23.0000000000
12527 5      25.1539365311      20.0000000000
12528 4      20.0196504229      20.0000000000
12529 4      14.7992613415      14.0000000000
12530 5      23.1980007354      24.0000000000
12531 4      16.1521182187      17.0000000000
12532 4      15.9704663685      14.0000000000
12533 4      15.7872190099      17.0000000000
12534 4      16.4062437495      18.0000000000
12535 5      20.6917612992      21.0000000000
12536 4      13.5778419952      13.0000000000
12537 5      21.3130137919      24.0000000000
12538 4      20.1645569462      15.0000000000
12539 4      13.4513059932      14.0000000000
12540 4      15.9212668318      16.0000000000
12541 5      19.0971320330      20.0000000000
12542 4      16.3208689803      22.0000000000
12543 5      21.2388606604      22.0000000000
12544 4      15.7928563316      16.0000000000
12545 4      18.0965511421      17.0000000000
12546 4      18.6956845184      17.0000000000
12547 5      22.8754348485      26.0000000000
12548 4      17.3270520619      13.0000000000
12549 4      14.5521705966      14.0000000000
12550 5      24.0348352474      18.0000000000
12551 4      15.4558390729      16.0000000000
12552 4      21.0661533210      21.0000000000
12553 4      20.0958309467      17.0000000000
12554 5      22.5594749383      23.0000000000
12555 4      15.8550518107      18.0000000000
12556 4      17.6748146485      15.0000000000
12557 4      15.6943550650      14.0000000000
12558 5      23.0810449201      19.0000000000
12559 4      18.0695259803      22.0000000000
12560 4      13.5328169110      15.0000000000
12561 4      15.5809021186      16.0000000000
12562 4      13.7396461083      13.0000000000
12563 5      16.9441395696      16.0000000000
12564 4      17.0070714479      18.0000000000
12565 4      15.5078144474      14.0000000000
12566 4      14.8952108087      16.0000000000
12567 5      25.5299143000      21.0000000000
12568 4      15.4629053539      18.0000000000
12569 4      15.8099065912      20.0000000000
12570 4      14.5432171691      14.0000000000
12571 4      18.9569646675      22.0000000000
12572 4      16.3040012131      18.0000000000
12573 4      18.5611767440      21.0000000000
12574 4      16.8471964647      18.0000000000
12575 5      18.2892724140      16.0000000000
12576 4      19.7005417637      24.0000000000
12577 4      18.6166906799      19.0000000000
12578 4      15.2606177885      16.0000000000
12579 4      14.8054351759      15.0000000000
12580 4      19.5208197222      19.0000000000
12581 5      19.3062636577      20.0000000000
12582 4      17.5267800742      19.0000000000
12583 4      15.8950391933      15.0000000000
12584 4      15.4020190707      18.0000000000
12585 5      23.3461600558      28.0000000000
12586 4      20.1579526245      20.0000000000
12587 4      16.5030714209      16.0000000000
12588 4      18.8026433727      20.0000000000
12589 4      16.6433553746      19.0000000000
12590 4      16.2316367848      17.0000000000
12591 4      16.3959382127      16.0000000000
12592 4      15.6135311114      22.0000000000
12593 4      18.0759842223      19.0000000000
12594 4      14.8660433367      17.0000000000
12595 4      13.3124776015      15.0000000000
12596 4      18.4495336916      22.0000000000
12597 5      22.4502765091      19.0000000000
12598 4      16.0481818130      19.0000000000
12599 4      16.1243419969      17.0000000000
12600 4      14.0842612978      12.0000000000
12601 5      20.0706775968      22.0000000000
12602 5      17.9423867423      17.0000000000
12603 4      19.5649295570      18.0000000000
12604 4      16.7966715712      14.0000000000
12605 4      16.3969161479      16.0000000000
12606 4      15.5532472519      17.0000000000
12607 4      18.3322813146      21.0000000000
12608 4      14.6949359436      15.0000000000
12609 4      15.8041384109      20.0000000000
12610 4      15.7391727195      18.0000000000
12611 4      17.7014904366      19.0000000000
12612 4      19.2595801789      20.0000000000
12613 4      14.1818552757      13.0000000000
12614 4      19.1489208801      19.0000000000
12615 4      18.8796271683      24.0000000000
12616 4      21.3654119944      21.0000000000
12617 4      15.4318614764      18.0000000000
12618 4      18.7736995699      23.0000000000
12619 4      15.8743520218      18.0000000000
12620 5      18.1852037692      17.0000000000
12621 4      18.5665797859      19.0000000000
12622 4      19.6068916032      19.0000000000
12623 4      15.8367755338      20.0000000000
12624 4      16.2393862121      21.0000000000
12625 4      15.7121111569      16.0000000000
12626 4      15.7585655382      20.0000000000
12627 4      17.4564465496      23.0000000000
12628 4      15.6692933874      20.0000000000
12629 4      17.0793798102      18.0000000000
12630 4      15.3413162159      18.0000000000
12631 4      17.7314649889      16.0000000000
12632 4      15.3583363280      15.0000000000
12633 4      16.3040765455      17.0000000000
12634 4      16.2456445044      18.0000000000
12635 4      16.4222965423      20.0000000000
12636 5      20.3363979315      22.0000000000
12637 4      18.3081140719      17.0000000000
12638 4      15.2434592519      16.0000000000
12639 4      17.3431422696      22.0000000000
12640 5      18.8587220993      18.0000000000
12641 4      19.3615297504      19.0000000000
12642 4      15.4456996764      19.0000000000
12643 5      21.9595105390      20.0000000000
12644 5      21.4356136484      23.0000000000
12645 4      14.1024935628      17.0000000000
12646 5      21.0730969518      19.0000000000
12647 4      19.1405544845      19.0000000000
12648 4      21.6718753634      19.0000000000
12649 4      18.5080250318      18.0000000000
12650 5      22.4877201954      25.0000000000
12651 4      18.7882654936      19.0000000000
12652 5      19.2846458004      18.0000000000
12653 4      18.5814567841      17.0000000000
12654 4      16.5208404272      19.0000000000
12655 4      14.8161331831      15.0000000000
12656 5      22.2594588128      22.0000000000
12657 4      17.6446834589      18.0000000000
12658 4      16.1319858360      18.0000000000
12659 5      20.9786363329      17.0000000000
12660 4      16.6924443260      21.0000000000
12661 5      21.7145324335      22.0000000000
12662 4      12.9208400190      18.0000000000
12663 4      18.3846785273      16.0000000000
12664 5      23.3511143197      21.0000000000
12665 4      16.4851152226      16.0000000000
12666 5      24.4967723463      23.0000000000
12667 4      19.8409105753      23.0000000000
12668 4      17.2429117150      18.0000000000
12669 4      17.6210884873      20.0000000000
12670 4      20.0255119070      18.0000000000
12671 4      15.1993866247      20.0000000000
12672 4      16.6660558949      17.0000000000
12673 4      17.5008758912      15.0000000000
12674 4      23.1421971825      22.0000000000
12675 5      18.3921939148      21.0000000000
12676 4      18.5450877587      18.0000000000
12677 4      17.9226015664      21.0000000000
12678 4      15.5860269519      15.0000000000
12679 4      12.6211249054      15.0000000000
12680 4      15.8404352025      17.0000000000
12681 4      15.3346675581      18.0000000000
12682 5      20.3494099748      18.0000000000
12683 4      15.0306948518      15.0000000000
12684 4      16.2850627783      15.0000000000
12685 4      18.0026485415      19.0000000000
12686 4      18.1570083792      22.0000000000
12687 4      16.5662033140      18.0000000000
12688 4      16.8658130957      15.0000000000
12689 4      18.6320275523      21.0000000000
12690 4      17.6322595464      22.0000000000
12691 4      18.8801610828      21.0000000000
12692 5      24.2704403533      22.0000000000
12693 5      22.3191940523      24.0000000000
12694 4      16.9063489528      16.0000000000
12695 4      16.5463894734      17.0000000000
12696 4      13.7695806659      14.0000000000
12697 4      15.4368804474      18.0000000000
12698 4      16.1019687347      14.0000000000
12699 4      18.0619282024      21.0000000000
12700 4      18.0068106923      20.0000000000
12701 4      16.5531545784      21.0000000000
12702 4      14.3996337407      14.0000000000
12703 4      16.5000652063      14.0000000000
12704 4      15.4709236280      19.0000000000
12705 4      19.2397620828      19.0000000000
12706 4      17.8452997548      21.0000000000
12707 5      17.1896397926      19.0000000000
12708 4      15.9115714301      17.0000000000
12709 5      23.4614894699      20.0000000000
12710 4      18.6491240927      20.0000000000
12711 5      19.5022082474      19.0000000000
12712 4      15.4433118569      19.0000000000
12713 4      20.1189795482      22.0000000000
12714 4      19.0257120914      18.0000000000
12715 4      19.3020143894      22.0000000000
12716 4      15.8704083085      16.0000000000
12717 5      19.5332763925      20.0000000000
12718 4      19.4193868242      23.0000000000
12719 4      12.1623970877      14.0000000000
12720 4      15.3865195435      17.0000000000
12721 5      19.4247798129      21.0000000000
12722 4      17.3669157982      18.0000000000
12723 4      16.8293047307      20.0000000000
12724 4      18.9245084856      19.0000000000
12725 4      15.2756111031      17.0000000000
12726 4      17.2323855347      20.0000000000
12727 5      20.2785389055      16.0000000000
12728 4      16.3454153366      17.0000000000
12729 4      18.4681749819      21.0000000000
12730 5      21.3158530738      19.0000000000
12731 5      22.8347913084      20.0000000000
12732 5      21.5836542007      23.0000000000
12733 4      17.6548365646      16.0000000000
12734 5      21.0808610339      19.0000000000
12735 4      16.7138469052      16.0000000000
12736 4      19.6862961907      16.0000000000
12737 4      15.5846284879      16.0000000000
12738 4      15.8526842492      15.0000000000
12739 4      18.0740687044      19.0000000000
12740 4      18.4327393013      19.0000000000
12741 4      16.6040848702      16.0000000000
12742 5      22.4875596529      18.0000000000
12743 4      18.0507742897      22.0000000000
12744 4      15.4595167341      17.0000000000
12745 4      14.2743612402      19.0000000000
12746 4      16.2039371536      17.0000000000
12747 4      17.4467206770      18.0000000000
12748 4      14.5623635740      18.0000000000
12749 5      17.5613537878      15.0000000000
12750 4      12.2312941713      16.0000000000
12751 4      17.6909636219      19.0000000000
12752 5      21.2335741086      19.0000000000
12753 4      15.4393930617      17.0000000000
12754 4      16.9198309288      16.0000000000
12755 4      18.3817784590      18.0000000000
12756 4      18.2137133853      18.0000000000
12757 4      17.1831103239      13.0000000000
12758 4      15.7205932013      18.0000000000
12759 5      18.8031770706      20.0000000000
12760 4      15.0237442739      15.0000000000
12761 4      13.0050837835      11.0000000000
12762 4      17.9102842535      20.0000000000
12763 5      19.6873317117      18.0000000000
12764 4      17.8801069771      15.0000000000
12765 4      17.1302924541      17.0000000000
12766 5      27.6758546053      22.0000000000
12767 4      17.9165238366      20.0000000000
12768 4      17.5874646771      18.0000000000
12769 4      15.2115635582      18.0000000000
12770 4      22.2539075482      19.0000000000
12771 5      20.8346476008      19.0000000000
12772 4      16.7261741036      16.0000000000
12773 4      14.6387319024      15.0000000000
12774 4      16.7320921202      17.0000000000
12775 4      18.2344679063      20.0000000000
12776 4      17.4529172713      16.0000000000
12777 5      19.0188880424      19.0000000000
12778 5      17.5714927270      22.0000000000
12779 4      18.5927133270      19.0000000000
12780 4      21.3010908541      19.0000000000
12781 4      15.4317172907      16.0000000000
12782 4      16.4260341249      16.0000000000
12783 4      18.4193353100      16.0000000000
12784 5      17.5215966384      15.0000000000
12785 4      16.7250847832      16.0000000000
12786 5      19.3495444104      18.0000000000
12787 5      17.5994307157      17.0000000000
12788 4      17.9336535796      20.0000000000
12789 4      17.8572974276      18.0000000000
12790 5      17.3887585289      18.0000000000
12791 4      17.6273209272      16.0000000000
12792 4      15.1751087384      16.0000000000
12793 5      24.6939268931      25.0000000000
12794 4      16.1665475371      20.0000000000
12795 5      20.9528262435      20.0000000000
12796 4      20.4681063103      25.0000000000
12797 4      20.0092210822      22.0000000000
12798 4      18.5672434740      18.0000000000
12799 4      16.5324675668      17.0000000000
12800 4      15.3354057171      21.0000000000
12801 4      17.1313802700      20.0000000000
12802 4      15.4553922811      15.0000000000
12803 4      16.2508485073      17.0000000000
12804 5      21.3586847943      18.0000000000
12805 4      16.4301684051      18.0000000000
12806 4      14.4731182345      15.0000000000
12807 4      18.3050721245      23.0000000000
12808 4      16.3666594588      16.0000000000
12809 4      19.7865138468      22.0000000000
12810 4      22.0898937304      20.0000000000
12811 4      16.1040055645      16.0000000000
12812 4      14.9040533673      17.0000000000
12813 4      16.4411090370      17.0000000000
12814 5      20.5661492173      20.0000000000
12815 4      15.3816609290      20.0000000000
12816 5      20.2362763460      19.0000000000
12817 4      17.5261160837      21.0000000000
12818 4      13.5554530952      13.0000000000
12819 4      17.6463871885      19.0000000000
12820 5      19.8307690860      20.0000000000
12821 5      21.1319796492      22.0000000000
12822 4      17.5393945116      19.0000000000
12823 4      16.8422727383      15.0000000000
12824 4      15.3169026282      17.0000000000
12825 4      18.1390661822      18.0000000000
12826 4      16.7158932170      19.0000000000
12827 4      22.1000734410      21.0000000000
12828 4      20.3434963648      20.0000000000
12829 4      18.0768548408      20.0000000000
12830 4      16.9790826947      16.0000000000
12831 4      19.8097640047      20.0000000000
12832 4      13.8578668075      14.0000000000
12833 4      17.3767023375      18.0000000000
12834 5      20.9497565898      21.0000000000
12835 4      16.9357356678      18.0000000000
12836 4      16.2197682577      17.0000000000
12837 4      18.7281193691      21.0000000000
12838 4      18.1719831045      17.0000000000
12839 4      18.6691194508      17.0000000000
12840 5      20.0153914412      17.0000000000
12841 4      19.2951659219      18.0000000000
12842 4      16.1385670692      19.0000000000
12843 4      14.7424081365      14.0000000000
12844 4      14.0651056947      18.0000000000
12845 5      18.8892453441      18.0000000000
12846 4      16.1602421976      18.0000000000
12847 4      19.4457714117      24.0000000000
12848 4      14.6496950021      16.0000000000
12849 4      17.7135175496      21.0000000000
12850 4      14.5499177406      19.0000000000
12851 4      18.5596515979      18.0000000000
12852 4      17.1165889714      17.0000000000
12853 4      14.7761828315      14.0000000000
12854 4      17.4492318795      19.0000000000
12855 4      18.6460202430      16.0000000000
12856 4      13.8711418210      14.0000000000
12857 4      13.3188268947      16.0000000000
12858 4      17.0597812643      17.0000000000
12859 5      16.4889867335      19.0000000000
12860 4      19.2610948465      17.0000000000
12861 4      16.8281122616      21.0000000000
12862 5      17.6686421948      18.0000000000
12863 4      14.9870308382      19.0000000000
12864 4      17.7758475482      19.0000000000
12865 4      16.8478734918      21.0000000000
12866 4      14.2239945024      15.0000000000
12867 4      15.2999506939      16.0000000000
12868 4      22.9584709612      24.0000000000
12869 4      15.2855053466      17.0000000000
12870 4      17.0899261842      16.0000000000
12871 4      16.1898875804      18.0000000000
12872 4      17.3230830029      21.0000000000
12873 4      13.7138400493      22.0000000000
12874 4      19.5070506795      18.0000000000
12875 4      15.6027789459      20.0000000000
12876 4      19.9121649366      20.0000000000
12877 4      13.5976351224      14.0000000000
12878 4      18.0417942305      20.0000000000
12879 4      14.6606171469      14.0000000000
12880 4      12.4425547607      15.0000000000
12881 4      18.8622466878      19.0000000000
12882 4      19.4801294515      18.0000000000
12883 4      14.4161905563      16.0000000000
12884 4      14.3963115725      14.0000000000
12885 4      17.3170401949      18.0000000000
12886 4      15.9099928898      19.0000000000
12887 4      17.5740832868      16.0000000000
12888 4      15.1179017100      18.0000000000
12889 4      19.7889016418      19.0000000000
12890 4      17.0516180997      17.0000000000
12891 5      16.7664350548      14.0000000000
12892 4      16.9231340988      18.0000000000
12893 4      14.5618107650      17.0000000000
12894 5      21.7227451912      23.0000000000
12895 4      15.1417598075      18.0000000000
12896 5      17.7979406360      17.0000000000
12897 4      18.1125540061      16.0000000000
12898 4      15.8871506947      14.0000000000
12899 4      15.3338864668      18.0000000000
12900 4      18.4840441110      19.0000000000
12901 4      16.3440057824      18.0000000000
12902 5      19.8320991635      19.0000000000
12903 4      16.2499789634      19.0000000000
12904 4      17.5057199303      19.0000000000
12905 4      17.4045083462      19.0000000000
12906 4      13.7910111505      14.0000000000
12907 4      13.8707884335      15.0000000000
12908 4      16.7342288211      17.0000000000
12909 4      17.8475985185      18.0000000000
12910 5      19.9050916510      17.0000000000
12911 4      18.0840072139      15.0000000000
12912 4      16.2036698209      18.0000000000
12913 4      16.9826630661      16.0000000000
12914 5      18.3281895725      18.0000000000
12915 4      16.9162214767      16.0000000000
12916 4      19.6442567150      18.0000000000
12917 5      17.8697725034      19.0000000000
12918 4      15.6689831776      16.0000000000
12919 5      19.0562267235      21.0000000000
12920 4      15.4219149013      14.0000000000
12921 5      20.1681289614      19.0000000000
12922 4      19.2290654859      19.0000000000
12923 4      16.6713119899      15.0000000000
12924 4      18.2585887370      16.0000000000
12925 4      17.2633234610      16.0000000000
12926 5      21.8080663481      20.0000000000
12927 4      17.3708607856      17.0000000000
12928 5      20.8023617961      21.0000000000
12929 4      20.5123132713      22.0000000000
12930 5      21.8421229856      20.0000000000
12931 4      15.6018040698      16.0000000000
12932 4      17.8828845656      20.0000000000
12933 4      16.1752214140      14.0000000000
12934 5      21.3945086252      22.0000000000
12935 4      18.0736565764      19.0000000000
12936 4      21.5655035982      22.0000000000
12937 4      16.5010657103      21.0000000000
12938 4      15.6525164645      17.0000000000
12939 5      22.5780207990      22.0000000000
12940 4      17.5116265475      15.0000000000
12941 5      20.0183892679      19.0000000000
12942 4      15.8907673995      16.0000000000
12943 4      17.1307254641      18.0000000000
12944 4      14.3878483696      17.0000000000
12945 4      15.0259939173      14.0000000000
12946 4      18.6731161839      19.0000000000
12947 5      19.2973239759      15.0000000000
12948 4      17.4862024855      20.0000000000
12949 4      18.1203509277      17.0000000000
12950 4      15.2963759310      19.0000000000
12951 4      16.4405534265      18.0000000000
12952 5      21.3601371690      20.0000000000
12953 4      13.9713192145      14.0000000000
12954 5      22.8130870462      22.0000000000
12955 4      18.9730283045      20.0000000000
12956 4      17.2738717915      18.0000000000
12957 4      18.2236234050      18.0000000000
12958 4      19.2680276200      22.0000000000
12959 4      15.4716601905      17.0000000000
12960 4      17.1510733448      19.0000000000
12961 4      20.1152615353      18.0000000000
12962 5      25.0499134339      22.0000000000
12963 4      14.6045425213      12.0000000000
12964 4      16.8196012536      17.0000000000
12965 5      23.6663887182      21.0000000000
12966 4      15.4812058126      14.0000000000
12967 5      17.4784222769      18.0000000000
12968 4      21.7816361750      19.0000000000
12969 4      18.9752385155      20.0000000000
12970 4      18.1812812867      16.0000000000
12971 4      17.1983253562      16.0000000000
12972 5      23.1408807872      22.0000000000
12973 4      16.8093341557      19.0000000000
12974 4      16.5288970759      16.0000000000
12975 4      14.7326871172      16.0000000000
12976 5      19.6836066813      21.0000000000
12977 4      16.7640529950      19.0000000000
12978 4      16.5118525895      18.0000000000
12979 4      16.0104374823      21.0000000000
12980 4      13.1228834225      15.0000000000
12981 4      17.2562495228      15.0000000000
12982 4      20.2016007091      24.0000000000
12983 5      21.3954831368      22.0000000000
12984 4      15.6170874286      16.0000000000
12985 4      15.2912884523      14.0000000000
12986 4      19.1947200821      23.0000000000
12987 4      15.7338665582      18.0000000000
12988 4      16.9432821891      15.0000000000
12989 4      16.1472057367      20.0000000000
12990 4      18.1824682744      20.0000000000
12991 4      16.7771472549      17.0000000000
12992 4      19.2807731675      22.0000000000
12993 4      19.6603994927      19.0000000000
12994 4      14.1254987250      16.0000000000
12995 4      16.1541275246      14.0000000000
12996 4      14.3942373291      13.0000000000
12997 4      19.3833613024      18.0000000000
12998 4      15.1737614746      18.0000000000
12999 4      15.0401953213      17.0000000000
13000 4      16.8389097645      19.0000000000
13001 4      18.5025222050      17.0000000000
13002 4      19.2602324960      22.0000000000
13003 4      13.5536219542      17.0000000000
13004 4      17.0655727169      13.0000000000
13005 5      22.7767045846      20.0000000000
13006 4      13.5209467636      16.0000000000
13007 4      15.4980779829      14.0000000000
13008 5      17.6776100275      17.0000000000
13009 4      15.9428600873      19.0000000000
13010 4      16.7178106146      19.0000000000
13011 4      16.4009066485      16.0000000000
13012 4      13.8246072654      17.0000000000
13013 5      20.7813365695      21.0000000000
13014 4      17.1659848146      17.0000000000
13015 4      14.3942057658      13.0000000000
13016 4      16.9940690777      20.0000000000
13017 4      17.8518410428      22.0000000000
13018 5      20.0354818261      20.0000000000
13019 4      14.5191576110      18.0000000000
13020 4      19.3476799893      16.0000000000
13021 5      16.6426576352      17.0000000000
13022 4      16.2119735437      15.0000000000
13023 5      22.7934019182      13.0000000000
13024 4      16.9350064833      16.0000000000
13025 5      16.9713128647      16.0000000000
13026 4      13.7785997132      14.0000000000
13027 5      19.5074818315      18.0000000000
13028 4      14.6472770463      20.0000000000
13029 4      17.3662324498      19.0000000000
13030 5      21.9169913275      24.0000000000
13031 4      16.3936934343      16.0000000000
13032 5      16.8178761805      16.0000000000
13033 4      17.3351263134      19.0000000000
13034 4      14.0603469373      18.0000000000
13035 4      20.4862458339      21.0000000000
13036 4      13.4301260271      12.0000000000
13037 5      23.8264172072      22.0000000000
13038 4      18.0403874243      18.0000000000
13039 4      18.6901245309      17.0000000000
13040 4      14.2111129494      15.0000000000
13041 4      18.8770688341      17.0000000000
13042 4      15.4658933464      19.0000000000
13043 4      13.0528756760      13.0000000000
13044 4      19.9070318576      18.0000000000
13045 4      17.5286353206      24.0000000000
13046 4      18.9832094168      17.0000000000
13047 5      18.7023137630      14.0000000000
13048 5      21.9008330223      20.0000000000
13049 4      21.4814477723      18.0000000000
13050 4      18.0832450246      19.0000000000
13051 4      18.6587226372      15.0000000000
13052 4      17.3677259869      21.0000000000
13053 4      15.1036867014      16.0000000000
13054 4      15.3803617543      16.0000000000
13055 4      16.2297236611      16.0000000000
13056 5      26.0656126133      22.0000000000
13057 4      18.1740810854      14.0000000000
13058 4      14.9747478118      14.0000000000
13059 4      19.3625013276      19.0000000000
13060 4      16.3784787207      15.0000000000
13061 4      14.9793419938      19.0000000000
13062 5      23.1311458649      18.0000000000
13063 4      17.3989830535      19.0000000000
13064 4      18.2534929254      17.0000000000
13065 4      19.2737027146      22.0000000000
13066 4      17.4375328455      21.0000000000
13067 4      15.9509087972      19.0000000000
13068 4      18.2449005809      18.0000000000
13069 4      13.6766359221      17.0000000000
13070 5      22.7678571640      22.0000000000
13071 5      21.8154012404      21.0000000000
13072 4      17.9588100733      20.0000000000
13073 4      18.6073922642      15.0000000000
13074 4      14.6255763142      17.0000000000
13075 5      19.3801343927      19.0000000000
13076 4      15.1485272375      17.0000000000
13077 5      22.2740795915      20.0000000000
13078 4      19.4411531258      23.0000000000
13079 4      14.7064722748      19.0000000000
13080 5      23.9863783646      23.0000000000
13081 4      13.9069995080      19.0000000000
13082 4      15.8320945784      14.0000000000
13083 4      18.3485992930      17.0000000000
13084 4      17.5780480633      18.0000000000
13085 4      16.4690429859      20.0000000000
13086 4      16.2662070809      16.0000000000
13087 4      14.7315025690      15.0000000000
13088 4      14.7941879310      14.0000000000
13089 4      16.7300081209      17.0000000000
13090 4      15.1966971606      17.0000000000
13091 4      15.8195235330      17.0000000000
13092 4      17.6491861949      18.0000000000
13093 5      25.4859020182      18.0000000000
13094 4      15.3062874663      18.0000000000
13095 4      15.8266370792      16.0000000000
13096 4      18.8492658962      22.0000000000
13097 5      19.5234947370      19.0000000000
13098 5      20.0647755916      27.0000000000
13099 4      22.0110207058      24.0000000000
13100 4      16.6758914137      18.0000000000
13101 4      17.0479399906      16.0000000000
13102 4      17.4368852363      20.0000000000
13103 4      14.2279778248      15.0000000000
13104 4      14.6089308513      16.0000000000
13105 4      17.0581352422      21.0000000000
13106 4      19.3991407136      17.0000000000
13107 4      18.8571228717      22.0000000000
13108 4      16.4273804429      21.0000000000
13109 4      21.9369482967      18.0000000000
13110 5      21.7797882406      17.0000000000
13111 4      15.3136102748      12.0000000000
13112 4      14.3288631985      17.0000000000
13113 4      17.1712169615      16.0000000000
13114 4      15.7622664917      15.0000000000
13115 4      13.4400704280      15.0000000000
13116 4      17.1648964818      18.0000000000
13117 5      20.9901959087      18.0000000000
13118 4      19.8568812487      22.0000000000
13119 4      15.5148124627      14.0000000000
13120 4      17.6202826236      16.0000000000
13121 4      16.4348443300      18.0000000000
13122 4      15.0267478913      18.0000000000
13123 5      22.7689947170      18.0000000000
13124 4      17.3810102631      17.0000000000
13125 4      15.4542946694      16.0000000000
13126 4      17.4183866163      23.0000000000
13127 4      16.6139838550      15.0000000000
13128 4      16.6497541836      14.0000000000
13129 4      14.7853146358      15.0000000000
13130 4      15.5116158767      15.0000000000
13131 4      16.3332797660      18.0000000000
13132 4      17.1088513036      17.0000000000
13133 4      15.1199574553      20.0000000000
13134 5      22.6864027389      21.0000000000
13135 4      18.5819044830      17.0000000000
13136 4      20.6454895260      23.0000000000
13137 4      15.6558184862      18.0000000000
13138 4      14.2035315008      15.0000000000
13139 4      17.9436604018      18.0000000000
13140 4      18.4839120744      17.0000000000
13141 4      21.2509985129      16.0000000000
13142 4      14.0023307311      15.0000000000
13143 4      15.0405005105      20.0000000000
13144 4      17.6846786796      20.0000000000
13145 5      18.9461257435      14.0000000000
13146 4      16.4870782023      20.0000000000
13147 4      18.6921716817      19.0000000000
13148 4      14.6564051470      18.0000000000
13149 4      16.7332231564      18.0000000000
13150 5      22.4068800853      20.0000000000
13151 4      15.7251330203      16.0000000000
13152 4      14.3883879977      16.0000000000
13153 5      18.9083783596      20.0000000000
13154 4      20.0332835791      18.0000000000
13155 4      14.0655406103      14.0000000000
13156 4      15.5966514940      17.0000000000
13157 4      16.2091294367      17.0000000000
13158 4      20.3246337160      23.0000000000
13159 4      14.1432226118      13.0000000000
13160 4      19.7637670489      16.0000000000
13161 4      22.2063896256      19.0000000000
13162 5      20.6103983026      18.0000000000
13163 4      13.5630186766      15.0000000000
13164 4      16.3929721562      20.0000000000
13165 5      22.7473602117      27.0000000000
13166 5      22.7795546974      20.0000000000
13167 4      20.1597967311      17.0000000000
13168 4      16.1034610110      19.0000000000
13169 4      18.9535422883      19.0000000000
13170 5      22.8562741267      27.0000000000
13171 4      16.1278828371      16.0000000000
13172 4      17.5344942249      14.0000000000
13173 4      15.1086361348      18.0000000000
13174 4      16.3481171404      16.0000000000
13175 4      18.5101963238      17.0000000000
13176 4      18.6006713891      20.0000000000
13177 4      24.0588758686      22.0000000000
13178 5      18.1366860333      13.0000000000
13179 4      16.7221227992      18.0000000000
13180 4      18.7606882375      17.0000000000
13181 4      15.3127807348      19.0000000000
13182 4      21.4093187423      20.0000000000
13183 4      16.6725000491      16.0000000000
13184 4      16.8797282032      14.0000000000
13185 4      14.7685811412      15.0000000000
13186 5      18.4389518774      17.0000000000
13187 4      14.5466647154      17.0000000000
13188 4      17.4612922581      17.0000000000
13189 4      16.1952851945      18.0000000000
13190 4      16.3478704685      17.0000000000
13191 4      14.6885940300      22.0000000000
13192 4      13.8225885426      17.0000000000
13193 4      18.6820911963      17.0000000000
13194 4      16.9661449171      18.0000000000
13195 4      15.0942951788      15.0000000000
13196 5      23.4076806761      22.0000000000
13197 4      15.6484129345      14.0000000000
13198 4      17.3951248599      20.0000000000
13199 4      20.5106322441      20.0000000000
13200 4      18.8628754499      19.0000000000
13201 4      16.8957611280      16.0000000000
13202 4      16.9090788544      16.0000000000
13203 5      20.4910569913      15.0000000000
13204 4      13.8742038100      16.0000000000
13205 4      17.3448338271      21.0000000000
13206 5      17.7006649430      20.0000000000
13207 4      17.3255148613      20.0000000000
13208 4      14.7428316112      17.0000000000
13209 5      21.6214163944      15.0000000000
13210 4      18.0386413449      18.0000000000
13211 4      17.6501768470      19.0000000000
13212 4      19.0402484788      16.0000000000
13213 4      18.6745060438      18.0000000000
13214 4      12.8176364071      15.0000000000
13215 5      20.7643266255      19.0000000000
13216 4      16.9170647827      20.0000000000
13217 4      16.9310101784      17.0000000000
13218 4      16.1630358400      20.0000000000
13219 4      13.5069922410      13.0000000000
13220 4      14.9428591611      15.0000000000
13221 4      14.4815526934      17.0000000000
13222 4      18.8718475844      16.0000000000
13223 4      16.4340196657      16.0000000000
13224 5      19.0808237293      18.0000000000
13225 4      21.1366431098      24.0000000000
13226 4      18.8098606463      24.0000000000
13227 5      19.2677463824      18.0000000000
13228 5      21.9393243993      22.0000000000
13229 4      19.8849606343      17.0000000000
13230 4      16.0839127086      19.0000000000
13231 5      18.8970005930      20.0000000000
13232 4      13.6060031563      17.0000000000
13233 4      18.3936787830      20.0000000000
13234 4      16.9295164258      16.0000000000
13235 5      20.7590867048      17.0000000000
13236 4      17.3692957662      19.0000000000
13237 5      21.3681554873      19.0000000000
13238 4      16.8008892360      20.0000000000
13239 4      14.4888580954      17.0000000000
13240 4      14.3629680024      16.0000000000
13241 5      19.9385405007      17.0000000000
13242 4      15.5898033967      16.0000000000
13243 5      22.3917043610      25.0000000000
13244 4      15.0106319227      18.0000000000
13245 5      20.6154415065      18.0000000000
13246 4      16.4643001618      18.0000000000
13247 4      18.3407452041      23.0000000000
13248 4      16.4457397510      24.0000000000
13249 4      17.1711616100      17.0000000000
13250 4      15.8531491930      17.0000000000
13251 4      14.6000615773      17.0000000000
13252 5      24.7988231724      21.0000000000
13253 4      16.0621231340      17.0000000000
13254 4      13.6821142810      14.0000000000
13255 4      15.9388808883      15.0000000000
13256 5      19.1905732336      19.0000000000
13257 4      19.3749156616      19.0000000000
13258 4      14.8088158734      15.0000000000
13259 5      23.4053357413      24.0000000000
13260 5      20.8871412583      20.0000000000
13261 5      21.4900624475      17.0000000000
13262 5      18.2727700133      18.0000000000
13263 4      22.0701749450      21.0000000000
13264 4      18.0969995321      19.0000000000
13265 4      16.0036701057      18.0000000000
13266 5      22.9170318153      21.0000000000
13267 4      14.1988997157      18.0000000000
13268 4      15.9737236839      15.0000000000
13269 4      17.0959005189      20.0000000000
13270 5      17.2646529108      18.0000000000
13271 4      19.7033839636      19.0000000000
13272 4      17.2469765411      17.0000000000
13273 4      14.5902022579      14.0000000000
13274 5      21.1773632100      20.0000000000
13275 5      23.6327876383      21.0000000000
13276 4      22.6416987839      23.0000000000
13277 4      17.4072951528      16.0000000000
13278 4      18.1879410195      16.0000000000
13279 4      14.7799456154      16.0000000000
13280 4      18.5290723354      20.0000000000
13281 5      17.8245269081      17.0000000000
13282 4      16.4860876478      19.0000000000
13283 4      15.1741549997      16.0000000000
13284 5      18.7584070402      19.0000000000
13285 5      17.4275347808      16.0000000000
13286 4      16.3039510397      22.0000000000
13287 5      25.6671428535      21.0000000000
13288 4      16.9067378811      17.0000000000
13289 5      20.7363633377      20.0000000000
13290 4      17.1260398821      17.0000000000
13291 4      14.0033661274      14.0000000000
13292 4      15.7480626778      17.0000000000
13293 4      18.1071005870      20.0000000000
13294 5      22.9220720593      22.0000000000
13295 4      16.3605186942      20.0000000000
13296 4      16.7029630040      22.0000000000
13297 4      13.9282989522      16.0000000000
13298 4      16.1802625831      16.0000000000
13299 4      16.3623749639      18.0000000000
13300 4      18.5010272790      18.0000000000
13301 4      15.5578268400      15.0000000000
13302 4      17.7743408154      18.0000000000
13303 4      14.7157154493      19.0000000000
13304 4      21.2133556103      22.0000000000
13305 5      20.8959489860      22.0000000000
13306 4      12.9699813105      19.0000000000
13307 5      23.0264781679      17.0000000000
13308 4      15.9604415657      16.0000000000
13309 5      20.7132209120      20.0000000000
13310 4      16.4377374406      17.0000000000
13311 4      16.7803462899      19.0000000000
13312 4      20.0706131425      20.0000000000
13313 4      19.3919877159      19.0000000000
13314 4      18.6715753108      16.0000000000
13315 4      14.2271581074      14.0000000000
13316 4      17.7299574924      16.0000000000
13317 4      18.5121328012      17.0000000000
13318 4      18.3904388724      22.0000000000
13319 4      15.4437924765      17.0000000000
13320 4      14.1972607862      16.0000000000
13321 5      18.3214919716      16.0000000000
13322 5      19.5650249670      19.0000000000
13323 4      17.9004105251      17.0000000000
13324 4      16.3018332142      17.0000000000
13325 4      15.2178141024      19.0000000000
13326 4      16.7067727014      18.0000000000
13327 4      17.9771342688      17.0000000000
13328 5      21.2014266098      18.0000000000
13329 4      18.1633946770      17.0000000000
13330 5      21.7959359185      22.0000000000
13331 4      17.8329988859      23.0000000000
13332 4      16.4118481658      19.0000000000
13333 5      18.6318382381      18.0000000000
13334 4      18.9737905778      19.0000000000
13335 4      16.9689816168      17.0000000000
13336 4      15.1710178033      16.0000000000
13337 4      16.5410886201      15.0000000000
13338 5      22.2255577268      24.0000000000
13339 4      16.1116136062      14.0000000000
13340 4      15.2542662568      15.0000000000
13341 4      14.2171643616      16.0000000000
13342 4      18.1204938732      16.0000000000
13343 4      17.4446400157      19.0000000000
13344 4      13.8536544022      17.0000000000
13345 5      21.0888777671      21.0000000000
13346 4      17.4298466253      17.0000000000
13347 4      22.0242013350      21.0000000000
13348 4      15.5241122643      15.0000000000
13349 4      18.3804743960      20.0000000000
13350 4      18.3859758407      16.0000000000
13351 4      21.0915110903      21.0000000000
13352 4      17.6568076768      19.0000000000
13353 4      14.7748645633      18.0000000000
13354 4      16.7639056155      18.0000000000
13355 4      17.3339194071      20.0000000000
13356 5      18.3739037845      18.0000000000
13357 4      21.9226457968      21.0000000000
13358 5      21.8398326953      21.0000000000
13359 4      18.0374905979      17.0000000000
13360 4      18.8731118108      22.0000000000
13361 4      18.3347444510      21.0000000000
13362 4      15.2245224714      17.0000000000
13363 5      20.1689877751      21.0000000000
13364 4      18.6553830727      18.0000000000
13365 4      16.7510175425      20.0000000000
13366 4      15.2425440740      15.0000000000
13367 4      16.6029980977      15.0000000000
13368 4      16.6282443761      18.0000000000
13369 4      15.9256901671      18.0000000000
13370 4      17.8085134148      19.0000000000
13371 4      16.4111850651      18.0000000000
13372 4      16.8018585068      17.0000000000
13373 4      19.2599168985      22.0000000000
13374 4      18.9062671252      19.0000000000
13375 5      20.7200363974      19.0000000000
13376 4      16.7620860757      16.0000000000
13377 4      14.4594729547      14.0000000000
13378 4      13.1405794408      16.0000000000
13379 4      16.7037822575      18.0000000000
13380 4      15.3742216705      16.0000000000
13381 4      20.8750803879      17.0000000000
13382 5      19.9570342987      19.0000000000
13383 4      16.3516888410      19.0000000000
13384 4      17.8193749969      17.0000000000
13385 4      15.6127109162      16.0000000000
13386 4      17.5215069023      18.0000000000
13387 4      17.1743351533      19.0000000000
13388 4      17.9613015509      19.0000000000
13389 4      19.2136355601      20.0000000000
13390 4      20.4273268291      24.0000000000
13391 4      12.1686304477      13.0000000000
13392 4      20.8823898214      20.0000000000
13393 5      19.3166607425      19.0000000000
13394 4      14.7265920754      15.0000000000
13395 4      14.5234330513      16.0000000000
13396 4      15.7315344320      17.0000000000
13397 4      16.7573448808      19.0000000000
13398 4      17.9881837933      19.0000000000
13399 4      14.9143756465      17.0000000000
13400 4      14.5691324943      16.0000000000
13401 4      16.2388787194      18.0000000000
13402 4      14.8988390805      15.0000000000
13403 4      15.7811362277      14.0000000000
13404 4      17.2934892251      19.0000000000
13405 5      21.5056646362      20.0000000000
13406 4      13.7601961735      11.0000000000
13407 4      14.7070094428      20.0000000000
13408 4      15.6757423824      19.0000000000
13409 4      12.9962696736      12.0000000000
13410 5      20.3300202356      19.0000000000
13411 5      17.9032147012      17.0000000000
13412 4      17.5087439713      21.0000000000
13413 5      18.4583524627      16.0000000000
13414 4      15.6361479549      19.0000000000
13415 4      17.0073814330      16.0000000000
13416 4      13.8927414949      17.0000000000
13417 4      16.3258717657      18.0000000000
13418 4      16.1045758323      16.0000000000
13419 4      14.3720537720      15.0000000000
13420 4      14.9599344523      18.0000000000
13421 5      22.6345152213      25.0000000000
13422 4      15.3373523635      22.0000000000
13423 5      21.0121252161      24.0000000000
13424 4      16.7190545313      22.0000000000
13425 4      18.0860612279      21.0000000000
13426 4      14.6569796074      17.0000000000
13427 4      16.3333293080      15.0000000000
13428 5      24.9087196790      23.0000000000
13429 5      21.5210697021      22.0000000000
13430 4      18.0916333733      16.0000000000
13431 4      15.9562470872      18.0000000000
13432 5      21.1361781972      19.0000000000
13433 4      15.6570361104      17.0000000000
13434 4      20.7423092094      19.0000000000
13435 4      18.3276164517      19.0000000000
13436 4      16.3136740354      18.0000000000
13437 4      17.4783183343      19.0000000000
13438 4      14.2632676027      17.0000000000
13439 4      18.3737917568      17.0000000000
13440 5      22.9750473460      23.0000000000
13441 4      17.0694207828      17.0000000000
13442 4      15.7018558671      18.0000000000
13443 4      15.7027216299      15.0000000000
13444 4      20.9158519183      23.0000000000
13445 5      25.1328584875      26.0000000000
13446 4      18.5753161602      23.0000000000
13447 4      15.7315863206      17.0000000000
13448 4      13.6709803420      16.0000000000
13449 4      18.8482564706      19.0000000000
13450 5      22.8797707283      19.0000000000
13451 5      22.2309693218      24.0000000000
13452 4      16.0382949889      17.0000000000
13453 4      20.4043267671      22.0000000000
13454 4      19.3324414368      20.0000000000
13455 4      17.2251260634      19.0000000000
13456 5      19.7958290960      19.0000000000
13457 4      21.7110875457      21.0000000000
13458 5      20.3476429256      20.0000000000
13459 4      19.0087447988      18.0000000000
13460 4      13.7184286605      14.0000000000
13461 4      17.8129681363      18.0000000000
13462 4      15.9232750682      19.0000000000
13463 4      19.5035465352      20.0000000000
13464 5      21.4072772541      21.0000000000
13465 4      16.0712550176      18.0000000000
13466 4      17.7661389373      18.0000000000
13467 4      17.8242210265      17.0000000000
13468 4      15.9951823985      15.0000000000
13469 4      17.7442514027      15.0000000000
13470 5      17.0766758707      16.0000000000
13471 4      17.7664994681      16.0000000000
13472 4      15.3881065221      16.0000000000
13473 4      14.1867400724      13.0000000000
13474 4      18.2447005644      20.0000000000
13475 4      18.1536206869      18.0000000000
13476 4      16.1961462273      23.0000000000
13477 4      14.6886593359      15.0000000000
13478 5      23.2591631852      26.0000000000
13479 4      14.5883708671      17.0000000000
13480 4      13.9714023269      16.0000000000
13481 5      23.1139827944      16.0000000000
13482 4      17.9279356560      19.0000000000
13483 4      16.0217946641      16.0000000000
13484 4      16.9955816919      19.0000000000
13485 5      19.1162215028      19.0000000000
13486 5      24.8551851165      25.0000000000
13487 4      16.0889457845      17.0000000000
13488 5      21.7373125749      22.0000000000
13489 4      13.8367275446      14.0000000000
13490 4      16.6723181155      16.0000000000
13491 4      18.1242731131      20.0000000000
13492 4      15.5789063796      13.0000000000
13493 5      22.0524423164      20.0000000000
13494 4      15.0512527410      16.0000000000
13495 4      14.1123165314      17.0000000000
13496 4      17.2738422803      17.0000000000
13497 4      16.3522728068      17.0000000000
13498 5      16.6189069256      20.0000000000
13499 5      21.8870294707      21.0000000000
13500 4      16.6867023068      21.0000000000
13501 5      22.1354134693      18.0000000000
13502 4      17.5190392136      22.0000000000
13503 4      17.5436813620      20.0000000000
13504 4      17.6050544775      17.0000000000
13505 4      15.3329577658      17.0000000000
13506 4      20.3578065919      20.0000000000
13507 4      17.4199996149      18.0000000000
13508 4      16.1343895467      17.0000000000
13509 4      18.5165874880      19.0000000000
13510 4      18.2141118267      20.0000000000
13511 4      15.2643173112      18.0000000000
13512 4      15.4900123558      17.0000000000
13513 4      17.3052271555      21.0000000000
13514 4      14.0022911617      15.0000000000
13515 4      16.9791554926      19.0000000000
13516 4      16.3207519424      20.0000000000
13517 4      16.0825322665      18.0000000000
13518 5      20.7156690247      23.0000000000
13519 5      20.3291841132      20.0000000000
13520 4      18.7054586444      20.0000000000
13521 4      16.2355280159      16.0000000000
13522 4      19.2320412746      21.0000000000
13523 4      15.3595491904      14.0000000000
13524 5      23.4043472372      22.0000000000
13525 4      15.8140576411      16.0000000000
13526 4      16.6067274983      18.0000000000
13527 4      15.9969503860      16.0000000000
13528 4      14.7868580637      16.0000000000
13529 4      19.1567272601      20.0000000000
13530 4      16.1100167943      17.0000000000
13531 4      16.6705279245      16.0000000000
13532 4      15.1983149207      18.0000000000
13533 4      21.1128707043      24.0000000000
13534 4      19.6012427430      19.0000000000
13535 4      15.6516126445      18.0000000000
13536 4      15.2954926137      18.0000000000
13537 4      17.6177563425      21.0000000000
13538 4      15.2622558548      17.0000000000
13539 4      16.3683403844      18.0000000000
13540 5      20.0069250060      21.0000000000
13541 4      16.7374224798      18.0000000000
13542 4      17.0810067438      18.0000000000
13543 4      16.2168452003      17.0000000000
13544 4      14.9672184226      16.0000000000
13545 4      19.7364769369      18.0000000000
13546 4      15.4057066205      17.0000000000
13547 4      20.4378999162      16.0000000000
13548 4      16.2675722391      16.0000000000
13549 5      23.7445599543      21.0000000000
13550 4      12.8876759246      16.0000000000
13551 4      16.5583295217      19.0000000000
13552 4      15.3229810088      14.0000000000
13553 4      21.2150408822      22.0000000000
13554 4      15.9154731883      18.0000000000
13555 4      16.3552177222      20.0000000000
13556 4      19.2800779493      21.0000000000
13557 4      16.9368902320      16.0000000000
13558 4      13.7311188409      17.0000000000
13559 4      15.2416583773      12.0000000000
13560 4      13.8807731984      16.0000000000
13561 4      16.7370326897      17.0000000000
13562 4      15.9737586702      19.0000000000
13563 4      18.4254535728      19.0000000000
13564 4      16.2626791737      17.0000000000
13565 4      18.5925459678      19.0000000000
13566 4      18.3677980387      19.0000000000
13567 4      21.3454851533      19.0000000000
13568 4      15.8361312686      17.0000000000
13569 4      17.2268314949      16.0000000000
13570 4      17.5280546456      19.0000000000
13571 4      17.1830261410      19.0000000000
13572 4      15.1794265986      21.0000000000
13573 4      18.3012381405      19.0000000000
13574 4      14.6446995518      16.0000000000
13575 4      18.1257340501      21.0000000000
13576 4      16.8203601959      18.0000000000
13577 4      19.0073841886      19.0000000000
13578 5      21.3519571774      21.0000000000
13579 4      16.3843727180      18.0000000000
13580 4      17.4706706174      20.0000000000
13581 4      17.1853117214      19.0000000000
13582 4      15.7094563097      15.0000000000
13583 5      21.8167765736      22.0000000000
13584 5      20.5779127723      18.0000000000
13585 5      20.7894199108      19.0000000000
13586 5      19.1288651197      18.0000000000
13587 4      23.2718180682      20.0000000000
13588 4      16.2671282179      14.0000000000
13589 4      16.2758486865      21.0000000000
13590 4      18.8319759878      21.0000000000
13591 4      16.2374359704      18.0000000000
13592 4      17.0482349515      15.0000000000
13593 4      17.4500228519      22.0000000000
13594 4      16.6841945662      17.0000000000
13595 4      16.2383758995      18.0000000000
13596 5      21.8132745023      16.0000000000
13597 4      16.8259287729      18.0000000000
13598 4      16.8269548547      17.0000000000
13599 5      20.8376445971      22.0000000000
13600 5      20.8454653159      23.0000000000
13601 4      15.2386597184      18.0000000000
13602 4      15.2368193145      16.0000000000
13603 4      18.0598419719      17.0000000000
13604 5      21.6419411623      22.0000000000
13605 4      16.7560667085      21.0000000000
13606 4      20.8367502133      21.0000000000
13607 4      13.7149891221      15.0000000000
13608 4      14.4925656733      19.0000000000
13609 4      14.4682701607      18.0000000000
13610 4      17.3299591439      18.0000000000
13611 4      14.8581840829      14.0000000000
13612 4      15.7573693465      15.0000000000
13613 4      16.7601448433      19.0000000000
13614 4      14.9967587601      16.0000000000
13615 4      21.0158048168      23.0000000000
13616 4      15.2702137611      17.0000000000
13617 4      18.9594665835      18.0000000000
13618 4      15.3013744092      17.0000000000
13619 4      16.1260194056      19.0000000000
13620 4      16.3582821937      18.0000000000
13621 4      19.8394175181      20.0000000000
13622 4      17.9625627737      17.0000000000
13623 4      15.9974393076      15.0000000000
13624 5      21.4206263212      24.0000000000
13625 4      17.6144750602      18.0000000000
13626 4      15.6864037619      16.0000000000
13627 4      17.7871752100      16.0000000000
13628 4      14.2894352077      16.0000000000
13629 4      16.3577526237      17.0000000000
13630 4      17.9218123666      19.0000000000
13631 4      14.9339687884      14.0000000000
13632 4      21.0596657241      17.0000000000
13633 4      20.6886520597      24.0000000000
13634 4      15.8309149397      17.0000000000
13635 4      19.3115558450      21.0000000000
13636 4      17.9428923725      14.0000000000
13637 4      15.2493583136      17.0000000000
13638 4      16.7937351191      20.0000000000
13639 5      20.6041979217      19.0000000000
13640 4      13.2839669643      16.0000000000
13641 4      17.2933036102      20.0000000000
13642 4      17.0597754736      18.0000000000
13643 4      15.9564228212      20.0000000000
13644 5      16.3166842496      18.0000000000
13645 4      17.4724923671      13.0000000000
13646 5      21.8950960802      18.0000000000
13647 4      14.6123230980      17.0000000000
13648 5      19.3675495614      20.0000000000
13649 4      16.0266228646      14.0000000000
13650 4      13.0326423868      15.0000000000
13651 4      16.2668635225      16.0000000000
13652 5      19.5693862251      21.0000000000
13653 4      19.7833064728      18.0000000000
13654 4      16.1990641609      20.0000000000
13655 5      22.4847717623      22.0000000000
13656 4      15.2254100997      17.0000000000
13657 4      15.6130031407      13.0000000000
13658 4      18.7348414149      18.0000000000
13659 4      17.7481369862      16.0000000000
13660 4      18.8164237074      17.0000000000
13661 4      13.9583128583      13.0000000000
13662 5      23.2870683713      23.0000000000
13663 4      14.4706068656      17.0000000000
13664 4      18.2887758486      17.0000000000
13665 5      20.8953806841      17.0000000000
13666 4      16.7367464023      17.0000000000
13667 4      17.6725061646      17.0000000000
13668 4      16.2862270938      17.0000000000
13669 4      14.6121864485      13.0000000000
13670 4      18.7450887872      22.0000000000
13671 4      16.1449841496      16.0000000000
13672 4      18.7410317799      18.0000000000
13673 5      18.8348068319      16.0000000000
13674 4      14.9395288888      16.0000000000
13675 4      18.3464997306      16.0000000000
13676 4      14.6351651433      17.0000000000
13677 4      15.9835465325      18.0000000000
13678 4      14.9316764913      16.0000000000
13679 4      16.9689802911      21.0000000000
13680 4      22.8409535457      25.0000000000
13681 4      15.8982158459      18.0000000000
13682 4      17.2722950932      17.0000000000
13683 4      13.9535341595      15.0000000000
13684 4      17.9609051074      19.0000000000
13685 4      19.3937664765      22.0000000000
13686 5      17.7739502090      15.0000000000
13687 4      15.3246013057      16.0000000000
13688 4      16.8498743803      16.0000000000
13689 4      19.1407329843      20.0000000000
13690 4      16.8279898405      20.0000000000
13691 5      21.0047797168      18.0000000000
13692 4      18.8628957553      18.0000000000
13693 4      14.1841733670      16.0000000000
13694 4      12.7026076040      13.0000000000
13695 4      18.7687501725      18.0000000000
13696 4      14.8200128926      12.0000000000
13697 4      25.8066370334      23.0000000000
13698 4      14.2263603724      14.0000000000
13699 4      16.3106493973      15.0000000000
13700 4      12.8469713708      16.0000000000
13701 4      20.7942363571      23.0000000000
13702 4      19.8493321935      16.0000000000
13703 4      16.3851153950      17.0000000000
13704 4      14.9048687356      17.0000000000
13705 5      24.9433247131      23.0000000000
13706 4      21.0819679533      18.0000000000
13707 4      20.0997107643      26.0000000000
13708 4      15.2263134755      19.0000000000
13709 4      16.8340159012      20.0000000000
13710 4      14.8051533191      14.0000000000
13711 5      24.4460351475      23.0000000000
13712 4      19.4410366987      14.0000000000
13713 4      20.2251967873      23.0000000000
13714 4      19.1359880817      20.0000000000
13715 4      16.0356632446      15.0000000000
13716 5      24.3801118566      20.0000000000
13717 4      18.6288095060      17.0000000000
13718 5      20.4810214790      14.0000000000
13719 4      15.6855355124      17.0000000000
13720 4      14.9543892657      18.0000000000
13721 4      17.2689374362      21.0000000000
13722 5      19.6077067337      16.0000000000
13723 4      14.2510416654      15.0000000000
13724 4      19.3496562167      18.0000000000
13725 4      18.0290491471      21.0000000000
13726 5      19.4821057940      20.0000000000
13727 5      18.8841562449      20.0000000000
13728 5      23.8294361698      22.0000000000
13729 5      22.8374116674      22.0000000000
13730 4      15.0235378312      17.0000000000
13731 4      13.9882103460      14.0000000000
13732 4      16.2655502546      16.0000000000
13733 4      13.5601373359      13.0000000000
13734 5      18.4727375382      19.0000000000
13735 4      15.7689662365      17.0000000000
13736 5      20.2700824247      22.0000000000
13737 4      17.9270899691      18.0000000000
13738 5      23.7974282571      19.0000000000
13739 5      20.7273621192      19.0000000000
13740 4      16.2378851779      17.0000000000
13741 4      14.2121354452      13.0000000000
13742 4      17.3607320499      16.0000000000
13743 5      20.6701883560      15.0000000000
13744 5      21.2369744981      19.0000000000
13745 4      17.2563968110      15.0000000000
13746 4      19.0134135153      18.0000000000
13747 4      13.9959489510      14.0000000000
13748 4      15.6153214321      17.0000000000
13749 4      13.2353680858      15.0000000000
13750 4      14.3237339080      15.0000000000
13751 4      12.5853221842      12.0000000000
13752 4      16.7917340469      17.0000000000
13753 4      15.5828996894      17.0000000000
13754 4      14.8478749439      17.0000000000
13755 4      18.3218292060      17.0000000000
13756 4      15.3704981738      12.0000000000
13757 4      15.6238073346      16.0000000000
13758 5      18.4074243373      16.0000000000
13759 4      13.1978098344      16.0000000000
13760 4      17.5875968174      17.0000000000
13761 4      13.6674792113      19.0000000000
13762 4      15.1438841716      17.0000000000
13763 5      20.5300123214      21.0000000000
13764 4      16.8664929574      18.0000000000
13765 4      19.3031872705      20.0000000000
13766 4      17.1357683074      16.0000000000
13767 4      16.0734293077      18.0000000000
13768 4      16.2040624211      20.0000000000
13769 4      16.4689610432      18.0000000000
13770 4      16.2439649828      19.0000000000
13771 4      19.4923376881      15.0000000000
13772 4      17.9061927698      17.0000000000
13773 4      17.7715594220      14.0000000000
13774 4      16.3843771666      17.0000000000
13775 4      16.7868101161      15.0000000000
13776 4      17.3452122420      17.0000000000
13777 4      15.7901228755      19.0000000000
13778 4      16.6876832427      19.0000000000
13779 4      16.2480852962      15.0000000000
13780 4      17.0476133892      18.0000000000
13781 4      16.5844052765      20.0000000000
13782 4      13.9835604762      18.0000000000
13783 4      16.3615362944      19.0000000000
13784 4      14.5828540390      12.0000000000
13785 4      11.8431849526      13.0000000000
13786 4      15.8085420791      17.0000000000
13787 5      18.7634644705      17.0000000000
13788 4      16.2946632984      18.0000000000
13789 4      17.5346278860      17.0000000000
13790 4      18.6019580941      19.0000000000
13791 4      23.0235668176      25.0000000000
13792 4      14.9075181800      17.0000000000
13793 4      13.2790519057      15.0000000000
13794 4      16.9100409057      20.0000000000
13795 4      15.6494168097      19.0000000000
13796 4      16.8458341664      17.0000000000
13797 4      17.6594964553      21.0000000000
13798 5      19.6224638796      19.0000000000
13799 4      16.1266330411      22.0000000000
13800 4      17.1821554787      18.0000000000
13801 4      17.4495483518      14.0000000000
13802 4      17.9243691734      18.0000000000
13803 4      17.2993972001      19.0000000000
13804 4      17.7764618341      19.0000000000
13805 4      19.9632244357      19.0000000000
13806 4      16.6799793045      20.0000000000
13807 4      16.8901233842      15.0000000000
13808 4      19.6748564877      21.0000000000
13809 4      19.1559181694      22.0000000000
13810 5      23.6737114780      23.0000000000
13811 4      16.8050059130      20.0000000000
13812 4      15.6179967665      17.0000000000
13813 4      16.3157466421      17.0000000000
13814 5      20.9492061865      23.0000000000
13815 4      19.5704656973      20.0000000000
13816 4      19.9521627409      18.0000000000
13817 5      19.7371488780      21.0000000000
13818 4      13.1431114644      12.0000000000
13819 4      18.0540031282      16.0000000000
13820 4      16.1927837497      18.0000000000
13821 4      15.0966200938      15.0000000000
13822 4      14.9537966266      17.0000000000
13823 4      15.6021649396      19.0000000000
13824 4      18.0585406940      24.0000000000
13825 4      18.0887589957      18.0000000000
13826 4      17.8280912359      18.0000000000
13827 5      20.6476896320      17.0000000000
13828 5      17.3803543233      14.0000000000
13829 5      23.4835636685      19.0000000000
13830 5      19.9361781726      16.0000000000
13831 4      14.5914639355      16.0000000000
13832 4      21.2466922387      21.0000000000
13833 4      13.7256801059      13.0000000000
13834 4      18.2512792020      17.0000000000
13835 4      18.1139052219      16.0000000000
13836 4      17.1791111772      21.0000000000
13837 4      15.1392813983      18.0000000000
13838 5      21.2149452088      18.0000000000
13839 4      17.9058160823      17.0000000000
13840 4      17.5505190629      17.0000000000
13841 4      15.6995285972      18.0000000000
13842 4      17.2869558887      20.0000000000
13843 4      18.6042466451      20.0000000000
13844 4      16.5979477961      16.0000000000
13845 5      20.6632010032      21.0000000000
13846 4      14.6280534088      13.0000000000
13847 4      20.6799646309      19.0000000000
13848 5      20.1840559689      20.0000000000
13849 4      17.6464254110      16.0000000000
13850 4      18.0416546976      15.0000000000
13851 4      14.8724775204      17.0000000000
13852 4      17.0024536476      20.0000000000
13853 4      15.0833074235      14.0000000000
13854 4      18.8427372444      25.0000000000
13855 4      14.7240837141      16.0000000000
13856 4      13.5004998695      15.0000000000
13857 4      16.0614865070      18.0000000000
13858 4      14.7214968962      16.0000000000
13859 4      17.6171597476      19.0000000000
13860 4      21.7648542841      21.0000000000
13861 4      15.3939647484      13.0000000000
13862 5      21.8310017062      21.0000000000
13863 4      16.4485428782      17.0000000000
13864 4      15.6392439235      19.0000000000
13865 4      16.1493860533      20.0000000000
13866 4      15.1565637411      18.0000000000
13867 4      16.0582957471      14.0000000000
13868 4      14.0526481785      14.0000000000
13869 4      15.4372333231      15.0000000000
13870 5      22.1515795797      26.0000000000
13871 4      19.4216523051      17.0000000000
13872 4      19.9634381865      20.0000000000
13873 4      18.7231833803      18.0000000000
13874 4      16.5874645119      19.0000000000
13875 4      17.7722821713      17.0000000000
13876 4      23.6309669326      27.0000000000
13877 4      17.8914975921      20.0000000000
13878 4      16.5958402390      17.0000000000
13879 5      20.3591087281      16.0000000000
13880 4      16.0336365878      20.0000000000
13881 4      13.6988963639      14.0000000000
13882 4      17.0850763300      14.0000000000
13883 4      16.6039054795      16.0000000000
13884 4      16.8098678287      20.0000000000
13885 4      15.9818193496      17.0000000000
13886 5      17.0912733886      22.0000000000
13887 5      21.2546459893      20.0000000000
13888 4      15.4136502472      15.0000000000
13889 4      16.3650711287      19.0000000000
13890 4      18.7307261470      18.0000000000
13891 5      22.7095293538      22.0000000000
13892 4      14.7048202366      17.0000000000
13893 5      22.7755200282      21.0000000000
13894 4      15.8046035370      19.0000000000
13895 4      16.9035066908      18.0000000000
13896 4      16.7248095818      18.0000000000
13897 5      16.9543307371      18.0000000000
13898 4      20.0034381127      19.0000000000
13899 4      14.8340390075      16.0000000000
13900 5      20.5351794541      22.0000000000
13901 4      17.8728238344      18.0000000000
13902 4      15.2871743945      17.0000000000
13903 4      16.0735990590      16.0000000000
13904 4      15.7908841954      18.0000000000
13905 4      22.6729349956      17.0000000000
13906 4      18.6843962210      19.0000000000
13907 4      17.4545373057      16.0000000000
13908 5      23.9807825332      23.0000000000
13909 4      14.0741403782      14.0000000000
13910 5      20.1978894316      19.0000000000
13911 4      20.3488339600      18.0000000000
13912 4      14.2752014605      11.0000000000
13913 4      19.7009550735      23.0000000000
13914 5      18.8750617762      17.0000000000
13915 4      15.6915635312      19.0000000000
13916 4      18.0900167787      16.0000000000
13917 4      21.4001664033      23.0000000000
13918 4      14.9711420391      19.0000000000
13919 5      19.9347218648      20.0000000000
13920 4      17.3586974487      17.0000000000
13921 4      15.7345759902      17.0000000000
13922 4      15.9864212612      15.0000000000
13923 5      20.0985036480      16.0000000000
13924 4      16.3871346069      17.0000000000
13925 4      13.3287183762      16.0000000000
13926 4      14.6686772015      15.0000000000
13927 5      20.5553521970      23.0000000000
13928 4      17.0571309557      21.0000000000
13929 4      16.3610800494      16.0000000000
13930 4      19.2883804187      17.0000000000
13931 5      20.4252411789      17.0000000000
13932 4      18.0051529461      17.0000000000
13933 4      18.5091673804      20.0000000000
13934 4      14.2643372811      16.0000000000
13935 4      15.7293165266      15.0000000000
13936 4      17.0855028384      17.0000000000
13937 4      13.5764312933      15.0000000000
13938 4      17.5368163365      20.0000000000
13939 5      21.7259809571      21.0000000000
13940 5      22.1101574645      18.0000000000
13941 4      14.8864998375      19.0000000000
13942 5      23.7682362102      22.0000000000
13943 4      14.8436861211      19.0000000000
13944 4      18.2619637289      17.0000000000
13945 4      13.9238843587      16.0000000000
13946 4      18.0427911809      19.0000000000
13947 4      16.5803675686      17.0000000000
13948 4      16.4724895347      16.0000000000
13949 4      18.2798589556      19.0000000000
13950 4      19.6968237473      22.0000000000
13951 4      15.9175199392      14.0000000000
13952 4      15.3606286108      17.0000000000
13953 4      16.3032621874      16.0000000000
13954 5      24.8960596189      21.0000000000
13955 4      16.0535106365      16.0000000000
13956 4      14.8395037779      14.0000000000
13957 4      16.9675080822      17.0000000000
13958 4      16.5619544596      16.0000000000
13959 5      22.6485913986      18.0000000000
13960 5      19.3050787384      21.0000000000
13961 5      20.4275035467      21.0000000000
13962 4      16.9273519835      17.0000000000
13963 4      17.9537635849      18.0000000000
13964 4      14.7996401100      19.0000000000
13965 5      21.3028479141      19.0000000000
13966 4      18.7470680288      20.0000000000
13967 4      13.7938676830      15.0000000000
13968 5      21.0868422256      21.0000000000
13969 4      13.9897412997      15.0000000000
13970 4      16.0902871657      17.0000000000
13971 4      17.0973770124      18.0000000000
13972 4      15.5011200619      19.0000000000
13973 5      23.1635598323      23.0000000000
13974 4      14.9514167869      17.0000000000
13975 5      17.5251432288      16.0000000000
13976 4      13.9000485495      12.0000000000
13977 5      17.8833545936      17.0000000000
13978 4      16.2594456359      17.0000000000
13979 5      21.6464631279      14.0000000000
13980 4      18.7084448960      21.0000000000
13981 4      17.3143696628      21.0000000000
13982 4      16.4676910034      16.0000000000
13983 4      15.5582048296      16.0000000000
13984 4      15.1944121506      13.0000000000
13985 4      17.4473159204      18.0000000000
13986 4      19.7270639666      19.0000000000
13987 4      16.3806520665      14.0000000000
13988 5      21.8921905885      21.0000000000
13989 4      16.6806611066      18.0000000000
13990 4      19.8185198761      21.0000000000
13991 4      19.3252603584      19.0000000000
13992 4      15.2363842315      19.0000000000
13993 4      12.7317265318      14.0000000000
13994 4      14.1184898381      18.0000000000
13995 4      18.7822888334      18.0000000000
13996 4      18.3276848527      22.0000000000
13997 4      17.5501038447      20.0000000000
13998 4      16.7276930106      18.0000000000
13999 4      17.9285833018      19.0000000000
14000 5      20.9591508522      17.0000000000
14001 4      14.4334736400      16.0000000000
14002 4      14.8170581969      18.0000000000
14003 4      21.1170632478      22.0000000000
14004 4      16.0938739389      18.0000000000
14005 4      19.9668242374      17.0000000000
14006 4      16.7605807748      20.0000000000
14007 4      15.0706310505      17.0000000000
14008 5      19.1676566386      20.0000000000
14009 4      20.2559573839      20.0000000000
14010 4      14.7050395774      16.0000000000
14011 4      17.6106567013      18.0000000000
14012 4      15.2954063461      16.0000000000
14013 4      19.1526637613      17.0000000000
14014 4      15.1237406765      13.0000000000
14015 4      15.3984763268      14.0000000000
14016 5      20.0017610163      19.0000000000
14017 4      19.2953168484      19.0000000000
14018 4      17.4109920767      19.0000000000
14019 4      16.4231454846      17.0000000000
14020 4      19.4921096441      23.0000000000
14021 4      16.8845589553      19.0000000000
14022 4      18.1975419189      15.0000000000
14023 4      17.2346493313      17.0000000000
14024 4      20.9225134668      21.0000000000
14025 4      15.1244140926      19.0000000000
14026 5      21.7006629455      17.0000000000
14027 4      18.4401918875      20.0000000000
14028 4      19.7965748902      22.0000000000
14029 4      13.7019110969      16.0000000000
14030 4      15.9666635844      16.0000000000
14031 4      15.0449148306      15.0000000000
14032 5      22.1622220014      22.0000000000
14033 5      21.3602766949      21.0000000000
14034 5      21.6622449948      24.0000000000
14035 4      19.7203011698      23.0000000000
14036 4      16.3588231680      18.0000000000
14037 4      15.7561409210      20.0000000000
14038 4      17.5791712843      21.0000000000
14039 4      16.5057722583      18.0000000000
14040 5      24.4972976470      20.0000000000
14041 4      17.3907478305      19.0000000000
14042 4      14.9782991531      15.0000000000
14043 5      18.9215003222      20.0000000000
14044 4      19.4048525681      18.0000000000
14045 4      15.6073854298      16.0000000000
14046 4      13.3770531137      15.0000000000
14047 5      24.7544887929      21.0000000000
14048 5      21.6153722253      21.0000000000
14049 5      22.4735987774      20.0000000000
14050 4      15.0022384749      15.0000000000
14051 4      18.3515718878      18.0000000000
14052 4      20.9372041156      19.0000000000
14053 4      16.0930807784      18.0000000000
14054 5      22.2486848748      20.0000000000
14055 4      15.8027504575      18.0000000000
14056 4      17.4294154568      18.0000000000
14057 4      16.4829988383      18.0000000000
14058 4      15.0765986618      17.0000000000
14059 5      20.7726749437      18.0000000000
14060 4      15.7924382065      15.0000000000
14061 4      15.4690717892      16.0000000000
14062 5      18.7929664513      16.0000000000
14063 4      16.0357339769      14.0000000000
14064 5      25.3895943134      25.0000000000
14065 4      14.9701699361      17.0000000000
14066 5      18.1554066108      20.0000000000
14067 4      14.6168965508      18.0000000000
14068 4      15.2475177260      18.0000000000
14069 5      18.1378981336      18.0000000000
14070 4      17.0500710279      20.0000000000
14071 4      14.9742598957      16.0000000000
14072 4      17.6532502232      15.0000000000
14073 4      18.9867613720      18.0000000000
14074 4      14.3614715772      16.0000000000
14075 5      19.7752312809      21.0000000000
14076 4      16.3496628554      18.0000000000
14077 4      21.8668855337      23.0000000000
14078 4      18.6596172077      16.0000000000
14079 4      19.6922761467      18.0000000000
14080 5      21.2040934785      18.0000000000
14081 5      20.4866058780      19.0000000000
14082 4      16.1335839594      18.0000000000
14083 4      17.4576755621      15.0000000000
14084 5      17.1796358394      15.0000000000
14085 4      14.9027129603      17.0000000000
14086 4      18.5970968853      17.0000000000
14087 5      25.2632002533      23.0000000000
14088 4      16.3420054217      17.0000000000
14089 5      22.5574823637      22.0000000000
14090 4      16.6915416614      19.0000000000
14091 4      14.1129279253      17.0000000000
14092 4      13.5695874070      14.0000000000
14093 4      17.2289084948      21.0000000000
14094 4      19.7882096567      14.0000000000
14095 5      22.2330626676      19.0000000000
14096 4      20.9464476860      24.0000000000
14097 4      19.7765841717      17.0000000000
14098 4      14.2067346625      13.0000000000
14099 5      22.7201873918      21.0000000000
14100 4      16.0931612570      19.0000000000
14101 4      11.6789742189      15.0000000000
14102 4      16.5773809788      18.0000000000
14103 4      17.6950534490      19.0000000000
14104 5      17.8011474334      13.0000000000
14105 4      16.2135261517      18.0000000000
14106 4      14.6999407304      15.0000000000
14107 4      15.8367488513      17.0000000000
14108 5      19.1344016694      24.0000000000
14109 4      17.2085966182      14.0000000000
14110 5      21.4952740356      22.0000000000
14111 4      19.6519732524      20.0000000000
14112 4      17.2499399655      19.0000000000
14113 4      17.3237042021      18.0000000000
14114 4      15.1924187055      15.0000000000
14115 4      16.9570859039      13.0000000000
14116 4      16.2949614097      20.0000000000
14117 4      18.2454728786      19.0000000000
14118 4      15.8059532516      16.0000000000
14119 4      15.7886798360      17.0000000000
14120 4      18.0762602216      20.0000000000
14121 4      17.4954605682      19.0000000000
14122 5      19.7947484966      20.0000000000
14123 4      17.0761826776      22.0000000000
14124 5      18.6173803593      18.0000000000
14125 4      18.8066102709      19.0000000000
14126 4      16.0817680056      14.0000000000
14127 4      16.0935615805      17.0000000000
14128 4      15.8357578285      16.0000000000
14129 4      15.4306265181      15.0000000000
14130 4      18.2426300880      22.0000000000
14131 4      16.3312724123      12.0000000000
14132 5      24.0972899830      21.0000000000
14133 4      15.7220233504      15.0000000000
14134 4      17.4542206761      18.0000000000
14135 5      17.9686795610      17.0000000000
14136 5      20.7124922633      16.0000000000
14137 4      16.7208696768      17.0000000000
14138 4      19.4712251406      18.0000000000
14139 4      17.4917708233      18.0000000000
14140 4      18.5412737840      20.0000000000
14141 4      16.9502577673      17.0000000000
14142 5      22.1214939109      22.0000000000
14143 4      14.5856586153      15.0000000000
14144 4      13.8859014468      17.0000000000
14145 5      21.9380282245      18.0000000000
14146 4      15.5022832865      19.0000000000
14147 5      20.7078575482      21.0000000000
14148 4      19.2380444938      17.0000000000
14149 4      17.5381013250      17.0000000000
14150 4      18.8885719409      17.0000000000
14151 4      15.3343728302      15.0000000000
14152 5      21.8322800138      23.0000000000
14153 4      17.6116712705      16.0000000000
14154 4      16.9794190791      13.0000000000
14155 4      18.7290774631      21.0000000000
14156 5      20.9333088338      20.0000000000
14157 4      13.3594167407      15.0000000000
14158 4      21.2273374553      24.0000000000
14159 4      16.1184177261      20.0000000000
14160 4      15.7225473468      17.0000000000
14161 4      17.4115144478      20.0000000000
14162 4      20.7356075910      19.0000000000
14163 4      16.2334803780      15.0000000000
14164 4      22.1082721375      24.0000000000
14165 5      20.7252277786      18.0000000000
14166 4      17.9826812226      19.0000000000
14167 4      14.3639951423      17.0000000000
14168 4      19.4983639885      18.0000000000
14169 4      17.6578532195      19.0000000000
14170 4      15.9867359434      18.0000000000
14171 4      14.9694901943      20.0000000000
14172 4      16.5372173070      21.0000000000
14173 4      14.7432822595      17.0000000000
14174 4      18.2906311835      21.0000000000
14175 5      16.7298762248      18.0000000000
14176 4      18.2917113228      21.0000000000
14177 4      16.5442453857      17.0000000000
14178 4      14.6630415163      17.0000000000
14179 4      14.0498091618      17.0000000000
14180 4      14.8180195373      14.0000000000
14181 4      18.0875406527      21.0000000000
14182 4      16.4785227234      18.0000000000
14183 5      22.2398477045      20.0000000000
14184 5      19.2727132138      19.0000000000
14185 4      17.6662708953      22.0000000000
14186 5      21.3853547380      21.0000000000
14187 4      13.2440042069      16.0000000000
14188 4      16.4902946921      14.0000000000
14189 5      23.9118677858      21.0000000000
14190 4      15.3925117888      17.0000000000
14191 4      14.1558046404      15.0000000000
14192 4      18.5722865922      20.0000000000
14193 4      17.9390658994      17.0000000000
14194 4      18.8141082917      17.0000000000
14195 5      19.9023108822      17.0000000000
14196 5      20.9646407115      22.0000000000
14197 4      16.5685809548      21.0000000000
14198 4      14.1900613339      13.0000000000
14199 5      23.1329821867      21.0000000000
14200 4      16.0663920347      15.0000000000
14201 4      14.4787499211      18.0000000000
14202 4      16.4241228623      15.0000000000
14203 4      14.6784857466      16.0000000000
14204 4      14.2935528113      18.0000000000
14205 4      16.1929176025      17.0000000000
14206 4      15.1879776328      16.0000000000
14207 4      16.6328969805      14.0000000000
14208 5      22.7479098980      24.0000000000
14209 4      15.3949153520      14.0000000000
14210 4      15.0486185742      18.0000000000
14211 4      16.4172574487      19.0000000000
14212 4      13.3738000256      11.0000000000
14213 4      15.4399058119      13.0000000000
14214 4      17.1790788686      15.0000000000
14215 4      19.4471809434      20.0000000000
14216 5      20.1782263800      21.0000000000
14217 4      15.9037999396      19.0000000000
14218 5      19.7469123216      17.0000000000
14219 4      18.9873403525      19.0000000000
14220 5      19.2091276943      16.0000000000
14221 4      17.6087721440      15.0000000000
14222 4      14.6740511245      15.0000000000
14223 4      16.5662440322      17.0000000000
14224 4      16.0827472531      20.0000000000
14225 4      15.5418331608      16.0000000000
14226 5      24.4163506241      21.0000000000
14227 4      17.2124470797      21.0000000000
14228 4      21.2377099976      22.0000000000
14229 4      18.2760976886      19.0000000000
14230 4      17.8013197707      16.0000000000
14231 5      23.8951513817      22.0000000000
14232 4      18.1230996217      17.0000000000
14233 4      18.9199950054      15.0000000000
14234 4      16.0701982472      18.0000000000
14235 4      15.9887741142      18.0000000000
14236 4      18.1440708347      21.0000000000
14237 4      16.1064959803      14.0000000000
14238 5      19.9866743426      20.0000000000
14239 4      16.9132253965      17.0000000000
14240 4      16.1910724492      16.0000000000
14241 4      16.3560269201      18.0000000000
14242 4      16.9914216069      16.0000000000
14243 5      21.4764452518      19.0000000000
14244 4      14.2474791631      14.0000000000
14245 4      17.0609936403      18.0000000000
14246 4      17.1954531807      14.0000000000
14247 4      15.8855899244      20.0000000000
14248 4      22.2993762817      21.0000000000
14249 4      19.3958007909      23.0000000000
14250 4      15.6542121533      16.0000000000
14251 4      19.5669568983      19.0000000000
14252 5      24.6615640149      21.0000000000
14253 4      15.3370741340      19.0000000000
14254 4      16.9494944360      19.0000000000
14255 4      15.8375685365      22.0000000000
14256 4      14.3523912538      15.0000000000
14257 5      19.4479035786      19.0000000000
14258 4      18.4419482119      19.0000000000
14259 4      14.5548529667      15.0000000000
14260 4      15.3472019856      17.0000000000
14261 4      15.6286542454      18.0000000000
14262 4      15.2642413947      16.0000000000
14263 4      14.4626120037      17.0000000000
14264 4      15.3999975949      18.0000000000
14265 4      16.0854559025      19.0000000000
14266 4      18.0728289000      19.0000000000
14267 5      19.2056477231      18.0000000000
14268 4      16.7888892429      16.0000000000
14269 4      15.1795479461      22.0000000000
14270 4      12.2095391624      11.0000000000
14271 4      16.6247442167      22.0000000000
14272 5      19.8283132186      21.0000000000
14273 4      18.2866235475      21.0000000000
14274 5      19.7876172843      17.0000000000
14275 4      13.8560178905      15.0000000000
14276 4      18.7638000870      16.0000000000
14277 4      14.1802087471      18.0000000000
14278 5      21.8854122889      23.0000000000
14279 5      20.1289121144      21.0000000000
14280 4      17.1664863588      21.0000000000
14281 4      17.0491913122      19.0000000000
14282 4      16.3442862344      14.0000000000
14283 4      13.6015929191      13.0000000000
14284 4      12.4193687172      15.0000000000
14285 4      18.9300355086      23.0000000000
14286 4      16.4005638578      17.0000000000
14287 5      19.6583136962      20.0000000000
14288 4      16.7915926438      15.0000000000
14289 4      16.2338639753      16.0000000000
14290 4      12.6936555746      13.0000000000
14291 5      18.8292982512      18.0000000000
14292 4      14.9551960000      16.0000000000
14293 4      15.3599215115      17.0000000000
14294 4      18.1827633529      17.0000000000
14295 4      15.3541154924      19.0000000000
14296 5      22.2088404866      19.0000000000
14297 4      19.3649116676      18.0000000000
14298 5      20.8405610163      21.0000000000
14299 4      12.5621930205      14.0000000000
14300 4      19.2613700045      16.0000000000
14301 4      16.2063405212      15.0000000000
14302 4      15.3919445962      17.0000000000
14303 4      17.4922029897      18.0000000000
14304 5      22.6164230512      22.0000000000
14305 5      21.3265050095      17.0000000000
14306 4      16.7123183197      18.0000000000
14307 5      23.9828927927      23.0000000000
14308 5      22.4827275993      20.0000000000
14309 4      16.6265969692      19.0000000000
14310 5      28.1186531018      23.0000000000
14311 4      17.7546992392      21.0000000000
14312 5      22.1857757154      22.0000000000
14313 4      17.6337177222      21.0000000000
14314 5      21.4725255731      18.0000000000
14315 4      14.0283188437      14.0000000000
14316 4      19.4968632333      19.0000000000
14317 4      13.6455987504      16.0000000000
14318 4      17.9492325348      17.0000000000
14319 4      15.8726783921      15.0000000000
14320 4      16.8254715362      15.0000000000
14321 4      21.7843066919      22.0000000000
14322 4      18.7473886946      19.0000000000
14323 4      21.5995046164      19.0000000000
14324 4      19.0851006460      19.0000000000
14325 4      16.4422931263      16.0000000000
14326 4      17.2431316066      16.0000000000
14327 4      16.4342666570      15.0000000000
14328 5      19.6498546602      20.0000000000
14329 4      17.8363188717      19.0000000000
14330 4      15.1327956852      18.0000000000
14331 4      18.0692274850      15.0000000000
14332 4      16.0391317760      19.0000000000
14333 5      22.0551526454      18.0000000000
14334 4      18.7703175769      21.0000000000
14335 5      24.0133661508      25.0000000000
14336 4      15.3662547353      14.0000000000
14337 4      14.4730661706      13.0000000000
14338 4      15.8075362531      15.0000000000
14339 4      18.8579453028      18.0000000000
14340 4      20.0835697644      22.0000000000
14341 5      17.3612505594      19.0000000000
14342 4      17.5772253982      22.0000000000
14343 4      14.4704520923      12.0000000000
14344 5      22.0319752634      18.0000000000
14345 4      17.5171597113      16.0000000000
14346 4      18.8284118649      19.0000000000
14347 4      15.7784576480      14.0000000000
14348 4      13.4660077720      13.0000000000
14349 4      16.2602763791      18.0000000000
14350 4      13.8775509831      17.0000000000
14351 4      13.8474352101      13.0000000000
14352 4      22.3671456672      22.0000000000
14353 4      22.6348953061      22.0000000000
14354 5      21.9564628965      22.0000000000
14355 4      15.7625743734      16.0000000000
14356 4      17.0141397600      14.0000000000
14357 4      19.5134842458      19.0000000000
14358 4      18.1894173397      17.0000000000
14359 4      17.7611523532      19.0000000000
14360 5      20.6883736531      20.0000000000
14361 4      16.9711549618      16.0000000000
14362 4      14.4646182237      15.0000000000
14363 4      19.0658584182      18.0000000000
14364 4      16.4406047521      14.0000000000
14365 4      19.1955910455      22.0000000000
14366 4      15.1325134581      15.0000000000
14367 4      15.1657077815      19.0000000000
14368 4      13.9568173711      13.0000000000
14369 4      18.2199403109      17.0000000000
14370 4      17.8444018014      19.0000000000
14371 4      17.9247973247      19.0000000000
14372 4      15.6475955676      19.0000000000
14373 4      14.0953469023      17.0000000000
14374 4      17.2805646806      16.0000000000
14375 4      17.1486776967      13.0000000000
14376 4      17.9041541666      22.0000000000
14377 4      19.9091598825      23.0000000000
14378 4      15.9812487940      17.0000000000
14379 4      16.1891166624      21.0000000000
14380 4      15.7751100735      16.0000000000
14381 4      14.7524254780      18.0000000000
14382 4      18.4006443846      18.0000000000
14383 4      11.9585278472      15.0000000000
14384 4      17.9523778787      22.0000000000
14385 4      17.0329987035      16.0000000000
14386 5      21.0305712250      19.0000000000
14387 5      21.9939652786      23.0000000000
14388 5      26.3788755872      24.0000000000
14389 4      14.1304856517      16.0000000000
14390 4      15.9107838583      16.0000000000
14391 4      15.7502209766      15.0000000000
14392 4      14.6589254937      14.0000000000
14393 5      19.9052222507      19.0000000000
14394 4      17.1136816740      18.0000000000
14395 4      17.5562760872      17.0000000000
14396 4      14.2261398661      13.0000000000
14397 4      17.0320625944      19.0000000000
14398 4      16.5572971029      18.0000000000
14399 5      19.5920794734      20.0000000000
14400 4      19.2958719434      20.0000000000
14401 4      19.2335252474      19.0000000000
14402 5      18.5198985998      20.0000000000
14403 4      14.7486400264      17.0000000000
14404 4      18.1760744979      17.0000000000
14405 4      16.9901908605      16.0000000000
14406 4      15.9545474253      15.0000000000
14407 4      15.8940296580      17.0000000000
14408 4      16.1065547836      18.0000000000
14409 4      17.8313307673      20.0000000000
14410 4      17.5269238727      18.0000000000
14411 4      15.0570735160      18.0000000000
14412 4      19.5317609773      17.0000000000
14413 4      17.2844681577      20.0000000000
14414 4      11.9079135422      12.0000000000
14415 4      18.0458585694      18.0000000000
14416 4      16.7131671153      21.0000000000
14417 4      16.3484152353      17.0000000000
14418 4      13.4947318829      13.0000000000
14419 4      16.8726863041      16.0000000000
14420 5      20.3054707365      21.0000000000
14421 4      19.7047384238      18.0000000000
14422 4      13.8176819638      15.0000000000
14423 4      17.8958117414      18.0000000000
14424 4      14.2570379634      15.0000000000
14425 4      15.9612027149      17.0000000000
14426 4      17.8670239322      17.0000000000
14427 4      19.0250927133      22.0000000000
14428 4      16.5485990396      17.0000000000
14429 4      17.8905796445      16.0000000000
14430 5      19.8912920850      18.0000000000
14431 4      14.9655554440      20.0000000000
14432 4      17.9549578447      17.0000000000
14433 4      15.8015789735      16.0000000000
14434 4      15.6272024797      16.0000000000
14435 4      19.9027560395      21.0000000000
14436 4      19.5808876767      19.0000000000
14437 4      15.4373846523      13.0000000000
14438 4      18.7391333304      16.0000000000
14439 4      18.7131554971      22.0000000000
14440 4      16.1890610056      19.0000000000
14441 4      17.3930377815      17.0000000000
14442 4      16.3161665979      14.0000000000
14443 4      17.4024358367      17.0000000000
14444 5      23.1345643706      19.0000000000
14445 4      19.4722525523      21.0000000000
14446 5      23.3188536245      21.0000000000
14447 4      16.1659736329      17.0000000000
14448 5      22.0494474089      23.0000000000
14449 4      17.8884589714      19.0000000000
14450 4      17.3274928924      21.0000000000
14451 5      20.5331943585      18.0000000000
14452 4      15.3997307917      18.0000000000
14453 4      14.2709242207      17.0000000000
14454 5      22.7163092190      25.0000000000
14455 5      19.0273539459      21.0000000000
14456 4      14.6747669474      15.0000000000
14457 4      17.2944191565      17.0000000000
14458 5      19.3392420612      18.0000000000
14459 4      16.8112939828      16.0000000000
14460 4      15.3124600376      15.0000000000
14461 5      17.4003165342      15.0000000000
14462 4      17.0682381853      18.0000000000
14463 5      22.6538124211      23.0000000000
14464 5      19.9321832755      16.0000000000
14465 4      16.4054855425      17.0000000000
14466 5      24.7083746464      23.0000000000
14467 4      14.3472174773      16.0000000000
14468 4      17.2379771105      17.0000000000
14469 4      14.6956319527      16.0000000000
14470 4      14.7327328746      16.0000000000
14471 4      16.9809583151      19.0000000000
14472 4      16.1775142403      17.0000000000
14473 4      18.1394952896      15.0000000000
14474 4      12.6469531960      16.0000000000
14475 5      18.6267392443      21.0000000000
14476 4      14.1607360686      13.0000000000
14477 4      14.7464074770      17.0000000000
14478 4      17.2775695468      18.0000000000
14479 4      20.2258784212      19.0000000000
14480 5      27.5145589451      23.0000000000
14481 4      17.4110262670      21.0000000000
14482 4      19.5212237400      21.0000000000
14483 4      17.0972388567      15.0000000000
14484 5      21.0225787233      20.0000000000
14485 4      14.2167552991      15.0000000000
14486 5      23.8681813550      22.0000000000
14487 5      23.0083327291      21.0000000000
14488 4      16.4042840660      17.0000000000
14489 4      18.3666549821      18.0000000000
14490 5      26.0383354413      23.0000000000
14491 4      20.1872132493      22.0000000000
14492 4      14.4536285860      15.0000000000
14493 4      13.7219921038      16.0000000000
14494 4      14.8073494819      18.0000000000
14495 4      15.5366354038      16.0000000000
14496 4      20.5264895474      21.0000000000
14497 4      15.0910303873      11.0000000000
14498 4      16.4378695821      19.0000000000
14499 4      16.3426838520      18.0000000000
14500 4      17.0168740737      18.0000000000
14501 5      20.1930929112      20.0000000000
14502 4      17.7785315718      16.0000000000
14503 4      13.8986740094      17.0000000000
14504 5      23.1621678829      20.0000000000
14505 4      15.9699984444      13.0000000000
14506 4      24.6910716453      24.0000000000
14507 4      16.1325442852      18.0000000000
14508 4      14.9286275053      15.0000000000
14509 4      15.1085937315      18.0000000000
14510 4      15.6345552052      19.0000000000
14511 4      16.0964198083      16.0000000000
14512 4      14.3098569382      15.0000000000
14513 4      17.0627922553      19.0000000000
14514 5      19.9987760052      21.0000000000
14515 4      15.8645440190      17.0000000000
14516 4      14.3711461053      16.0000000000
14517 4      16.7688169969      16.0000000000
14518 4      20.3450086846      19.0000000000
14519 4      13.8993752167      17.0000000000
14520 5      22.3021745565      22.0000000000
14521 4      14.6305715539      15.0000000000
14522 4      16.2863812826      19.0000000000
14523 5      19.9055383098      18.0000000000
14524 4      15.7972905292      18.0000000000
14525 4      16.1420404137      19.0000000000
14526 4      14.0687716797      15.0000000000
14527 4      18.2129184815      18.0000000000
14528 4      14.7774691892      17.0000000000
14529 4      20.7165637792      21.0000000000
14530 4      14.3303658422      12.0000000000
14531 4      14.6747334774      16.0000000000
14532 4      18.1735547959      15.0000000000
14533 4      14.4457026075      15.0000000000
14534 4      14.0195450557      18.0000000000
14535 4      16.7490206436      15.0000000000
14536 4      16.8889560738      18.0000000000
14537 4      13.7275816968      15.0000000000
14538 4      15.9404454433      20.0000000000
14539 4      15.7894446356      19.0000000000
14540 5      19.2576567631      19.0000000000
14541 4      13.5902280971      16.0000000000
14542 5      22.8521024788      21.0000000000
14543 4      15.8932541642      15.0000000000
14544 4      16.6591550627      15.0000000000
14545 4      16.3911709591      16.0000000000
14546 4      16.5096080079      19.0000000000
14547 4      14.2409053542      14.0000000000
14548 4      16.8884115435      15.0000000000
14549 4      14.9852499405      14.0000000000
14550 4      16.0050708286      18.0000000000
14551 4      15.4150857138      17.0000000000
14552 4      16.9143044386      20.0000000000
14553 4      15.6183756131      17.0000000000
14554 4      14.2662132804      16.0000000000
14555 5      23.0285371688      21.0000000000
14556 4      17.8018501288      20.0000000000
14557 4      16.1623321916      19.0000000000
14558 4      16.5260047192      17.0000000000
14559 4      13.3138319476      16.0000000000
14560 4      19.7459450711      16.0000000000
14561 4      16.4646712171      18.0000000000
14562 4      16.2680075019      20.0000000000
14563 4      16.2197016696      18.0000000000
14564 4      17.2255965483      19.0000000000
14565 4      18.6452157471      20.0000000000
14566 4      19.2154331996      17.0000000000
14567 4      16.2321615786      22.0000000000
14568 4      15.3861296257      18.0000000000
14569 5      19.4917214001      22.0000000000
14570 5      26.9886721240      23.0000000000
14571 4      17.4835023413      16.0000000000
14572 4      17.4074362115      17.0000000000
14573 4      17.9057596655      17.0000000000
14574 4      17.9698471518      16.0000000000
14575 4      18.9361641244      14.0000000000
14576 4      15.6741833463      16.0000000000
14577 4      14.6486520764      16.0000000000
14578 4      17.2189727667      19.0000000000
14579 4      14.2530566369      17.0000000000
14580 4      14.0900245674      15.0000000000
14581 5      22.7930918396      24.0000000000
14582 5      20.9549351867      19.0000000000
14583 4      14.9876878455      20.0000000000
14584 4      18.4794129397      21.0000000000
14585 4      14.1884225540      16.0000000000
14586 4      19.1562185852      19.0000000000
14587 4      18.2438527753      16.0000000000
14588 4      17.0286272966      17.0000000000
14589 5      18.1208948508      17.0000000000
14590 4      14.5073012776      17.0000000000
14591 4      15.1779486347      17.0000000000
14592 4      15.9818202558      15.0000000000
14593 4      16.0052093354      18.0000000000
14594 5      22.9395041518      16.0000000000
14595 5      18.4463982686      17.0000000000
14596 4      18.6694129729      18.0000000000
14597 4      15.0396300276      17.0000000000
14598 5      18.0362226589      14.0000000000
14599 4      16.7589075794      16.0000000000
14600 4      16.1432779371      20.0000000000
14601 4      15.3405780484      17.0000000000
14602 4      16.7167179568      19.0000000000
14603 4      17.5582065235      16.0000000000
14604 5      18.3934446086      19.0000000000
14605 5      17.7015696123      19.0000000000
14606 4      15.6440295286      22.0000000000
14607 4      14.8456151381      17.0000000000
14608 4      18.7351438184      20.0000000000
14609 4      18.1329798425      21.0000000000
14610 4      14.5547579876      15.0000000000
14611 4      21.2554519530      23.0000000000
14612 4      14.4036609734      15.0000000000
14613 4      17.5957742067      18.0000000000
14614 4      16.5624188599      15.0000000000
14615 4      17.8934406009      18.0000000000
14616 4      16.4665836587      18.0000000000
14617 4      16.3588861302      20.0000000000
14618 4      17.1555173717      19.0000000000
14619 4      17.3981221535      19.0000000000
14620 4      14.5546182635      19.0000000000
14621 4      15.8772178665      18.0000000000
14622 4      17.4547047317      16.0000000000
14623 4      14.6073000613      18.0000000000
14624 5      19.5023983822      23.0000000000
14625 4      19.7694357348      21.0000000000
14626 4      14.7793027888      17.0000000000
14627 4      14.0635069547      16.0000000000
14628 4      18.6418270207      23.0000000000
14629 4      17.1376932715      15.0000000000
14630 4      14.5175441039      16.0000000000
14631 5      17.6179976329      16.0000000000
14632 5      18.0588197466      18.0000000000
14633 4      17.4206838006      17.0000000000
14634 4      13.0389116823      15.0000000000
14635 4      14.0086530024      16.0000000000
14636 4      18.5583066789      20.0000000000
14637 5      18.5350263279      18.0000000000
14638 4      19.3816439560      24.0000000000
14639 4      15.1076229934      13.0000000000
14640 5      22.3578281983      20.0000000000
14641 4      15.9109630564      17.0000000000
14642 4      17.7144186724      14.0000000000
14643 4      11.6572127736      12.0000000000
14644 4      16.2130523442      19.0000000000
14645 4      16.6197175642      19.0000000000
14646 5      19.2401388477      21.0000000000
14647 4      15.7707008634      16.0000000000
14648 4      17.9223817717      20.0000000000
14649 5      24.5214723072      22.0000000000
14650 4      16.7745592838      24.0000000000
14651 4      19.2809924325      21.0000000000
14652 4      15.7255340421      17.0000000000
14653 4      20.1533785652      21.0000000000
14654 4      13.9356655329      15.0000000000
14655 5      20.7547679060      18.0000000000
14656 4      13.5665930929      17.0000000000
14657 4      15.5283426950      21.0000000000
14658 4      20.7446310943      17.0000000000
14659 4      19.1112506807      20.0000000000
14660 4      18.1816477219      18.0000000000
14661 5      21.8821222868      21.0000000000
14662 5      22.4823149576      20.0000000000
14663 4      13.0549749634      13.0000000000
14664 4      15.5572064452      15.0000000000
14665 5      19.2094157052      16.0000000000
14666 4      15.8840930653      20.0000000000
14667 5      17.5574151720      19.0000000000
14668 4      18.3045626910      15.0000000000
14669 5      24.4203686325      21.0000000000
14670 4      15.8202958301      18.0000000000
14671 4      14.0449272168      15.0000000000
14672 5      18.1949691345      19.0000000000
14673 4      18.1569529953      17.0000000000
14674 4      16.8866280035      18.0000000000
14675 4      19.0948962531      18.0000000000
14676 4      18.3476137671      19.0000000000
14677 4      17.1498559097      21.0000000000
14678 4      18.8889893081      20.0000000000
14679 4      13.2918481388      14.0000000000
14680 4      13.8545250966      15.0000000000
14681 5      21.0322635651      22.0000000000
14682 4      19.6002356294      17.0000000000
14683 4      15.9523656918      15.0000000000
14684 5      25.7790809677      26.0000000000
14685 4      15.4455844188      17.0000000000
14686 4      19.8965273582      22.0000000000
14687 5      20.7336574056      17.0000000000
14688 4      17.5889568252      18.0000000000
14689 4      17.7245386788      16.0000000000
14690 4      17.8933374838      17.0000000000
14691 4      16.9831820715      21.0000000000
14692 4      16.5560461482      18.0000000000
14693 4      16.0310814659      17.0000000000
14694 4      17.0472641104      17.0000000000
14695 4      14.2246335241      15.0000000000
14696 4      16.5426074018      17.0000000000
14697 4      14.5221554598      12.0000000000
14698 5      21.2210320040      22.0000000000
14699 5      24.1152724296      18.0000000000
14700 4      15.7736812771      14.0000000000
14701 4      18.6065620901      22.0000000000
14702 4      15.0040318877      18.0000000000
14703 4      17.0882348754      20.0000000000
14704 4      19.3848569266      19.0000000000
14705 4      14.4341868826      15.0000000000
14706 4      15.7615549804      15.0000000000
14707 4      16.3529401843      18.0000000000
14708 4      21.0380269354      16.0000000000
14709 4      17.4239067009      17.0000000000
14710 4      14.4756721664      17.0000000000
14711 4      18.9742137443      15.0000000000
14712 4      17.5962279712      16.0000000000
14713 5      19.0185373179      17.0000000000
14714 4      14.5250805539      13.0000000000
14715 4      18.4172670669      21.0000000000
14716 5      19.7348021844      21.0000000000
14717 4      14.5594305111      15.0000000000
14718 4      16.5521902583      15.0000000000
14719 4      19.0446056502      18.0000000000
14720 4      16.2868896264      16.0000000000
14721 5      20.6958072008      20.0000000000
14722 5      21.6400975018      20.0000000000
14723 4      14.8279647891      17.0000000000
14724 4      18.7447395252      18.0000000000
14725 4      15.1479789898      15.0000000000
14726 4      16.5514074298      17.0000000000
14727 5      21.6014488489      22.0000000000
14728 5      19.5268791495      22.0000000000
14729 4      16.2119466149      18.0000000000
14730 4      18.6697415837      20.0000000000
14731 4      18.1227737425      16.0000000000
14732 4      15.0171930581      16.0000000000
14733 4      16.5834889820      21.0000000000
14734 4      15.0896749903      20.0000000000
14735 4      14.3687901572      15.0000000000
14736 4      20.2275400737      24.0000000000
14737 4      14.6162056569      16.0000000000
14738 4      15.4595141657      17.0000000000
14739 4      16.5352882818      20.0000000000
14740 5      24.1921459951      22.0000000000
14741 4      14.6174984242      15.0000000000
14742 4      16.4524979867      17.0000000000
14743 4      14.1079611911      15.0000000000
14744 5      25.4553107066      21.0000000000
14745 4      17.9846771245      17.0000000000
14746 4      18.5610216059      20.0000000000
14747 4      14.1759553221      18.0000000000
14748 4      18.9568939478      18.0000000000
14749 4      13.6766756132      18.0000000000
14750 4      19.1275685812      19.0000000000
14751 5      22.4266351109      24.0000000000
14752 4      14.7910930494      17.0000000000
14753 4      19.2193687087      20.0000000000
14754 4      17.9165271113      17.0000000000
14755 4      19.3668070897      19.0000000000
14756 4      18.5045964471      16.0000000000
14757 5      18.8205572410      16.0000000000
14758 4      15.8840031881      12.0000000000
14759 5      22.9085860276      25.0000000000
14760 5      19.8540575490      20.0000000000
14761 4      17.2533050524      17.0000000000
14762 5      24.2124232380      19.0000000000
14763 4      17.4113457854      20.0000000000
14764 5      23.5622463692      21.0000000000
14765 4      17.0662668263      15.0000000000
14766 4      16.9575780521      21.0000000000
14767 4      13.2021500334      13.0000000000
14768 4      15.8221047221      16.0000000000
14769 4      18.6302075850      20.0000000000
14770 4      15.9287602945      16.0000000000
14771 4      13.0761933269      13.0000000000
14772 4      21.4662153390      20.0000000000
14773 4      15.1328810664      14.0000000000
14774 4      17.3996975622      20.0000000000
14775 4      15.3106862408      13.0000000000
14776 4      17.2671384886      17.0000000000
14777 4      16.5913238139      13.0000000000
14778 4      18.0085967065      19.0000000000
14779 4      16.7461737788      20.0000000000
14780 4      13.9115670089      16.0000000000
14781 4      14.0790847311      15.0000000000
14782 4      13.6957367157      13.0000000000
14783 4      12.9029342774      14.0000000000
14784 4      13.8780982953      15.0000000000
14785 5      21.0992934734      21.0000000000
14786 4      17.6085185638      21.0000000000
14787 4      16.7588503469      22.0000000000
14788 5      23.4632562121      22.0000000000
14789 4      15.0235511248      18.0000000000
14790 4      13.3572165453      14.0000000000
14791 4      14.5013296972      17.0000000000
14792 4      19.5144295436      20.0000000000
14793 4      15.9684249431      18.0000000000
14794 4      14.6259378509      18.0000000000
14795 4      16.2646679741      16.0000000000
14796 4      17.8681626580      18.0000000000
14797 5      22.6832120257      19.0000000000
14798 5      18.5125800465      20.0000000000
14799 5      24.1569661555      20.0000000000
14800 4      16.9191827441      19.0000000000
14801 5      19.1933460944      18.0000000000
14802 4      18.7452369272      18.0000000000
14803 4      16.8474654344      14.0000000000
14804 4      14.9328332245      14.0000000000
14805 4      14.7184411654      19.0000000000
14806 5      19.9083962224      21.0000000000
14807 4      18.3665274712      20.0000000000
14808 4      15.2740882187      16.0000000000
14809 4      16.4309965426      19.0000000000
14810 4      14.1800867707      20.0000000000
14811 4      16.3047912310      19.0000000000
14812 4      16.5597749671      19.0000000000
14813 4      16.3475173320      20.0000000000
14814 4      14.9438826468      17.0000000000
14815 4      14.6773240406      15.0000000000
14816 4      20.6380935387      20.0000000000
14817 5      17.1095726877      17.0000000000
14818 4      15.8281027995      17.0000000000
14819 4      17.2654579180      21.0000000000
14820 4      19.0473010977      20.0000000000
14821 4      16.8946977168      17.0000000000
14822 4      17.6861266339      19.0000000000
14823 4      17.8567821431      16.0000000000
14824 4      21.0525828659      19.0000000000
14825 4      16.0046487382      19.0000000000
14826 4      19.0037433147      19.0000000000
14827 5      19.4592516119      15.0000000000
14828 4      17.9505529269      20.0000000000
14829 4      17.9107829822      18.0000000000
14830 4      15.2403549001      18.0000000000
14831 5      21.8984650005      22.0000000000
14832 4      13.1811325673      13.0000000000
14833 5      22.4679468104      20.0000000000
14834 5      22.6610408657      18.0000000000
14835 4      16.5182655717      17.0000000000
14836 4      14.2932533450      18.0000000000
14837 4      14.1197611114      15.0000000000
14838 4      17.9759350935      19.0000000000
14839 4      16.7558041082      20.0000000000
14840 5      22.9910010428      21.0000000000
14841 4      17.3468311242      19.0000000000
14842 4      21.1376925910      22.0000000000
14843 5      18.2210394042      17.0000000000
14844 4      14.5954442822      17.0000000000
14845 4      19.1080353153      19.0000000000
14846 5      24.9354510165      23.0000000000
14847 4      13.6070007360      13.0000000000
14848 4      15.9932000431      16.0000000000
14849 4      16.0188241899      17.0000000000
14850 4      17.5792039659      16.0000000000
14851 5      23.2172392462      21.0000000000
14852 4      15.5811040390      18.0000000000
14853 5      21.3397114989      17.0000000000
14854 4      17.1948352332      17.0000000000
14855 4      16.9742334565      20.0000000000
14856 4      16.8094373938      17.0000000000
14857 4      17.3631629062      20.0000000000
14858 4      19.0391467522      15.0000000000
14859 5      17.9269680104      19.0000000000
14860 4      15.6187331730      21.0000000000
14861 4      16.4706010937      17.0000000000
14862 4      15.8180123776      16.0000000000
14863 4      16.1612738390      15.0000000000
14864 4      14.5825537182      17.0000000000
14865 4      17.6099995950      21.0000000000
14866 5      21.0331516908      22.0000000000
14867 4      17.9893188399      17.0000000000
14868 4      15.8676418083      13.0000000000
14869 4      18.9091367723      21.0000000000
14870 4      15.3702695959      17.0000000000
14871 4      16.6829774895      19.0000000000
14872 5      21.9178267447      20.0000000000
14873 4      21.2677174533      21.0000000000
14874 4      16.2485344997      18.0000000000
14875 4      16.1046130702      18.0000000000
14876 4      17.1729775286      16.0000000000
14877 4      16.7109001859      18.0000000000
14878 4      12.8785034985      15.0000000000
14879 5      24.1697804182      24.0000000000
14880 4      15.3769435738      17.0000000000
14881 5      18.0972008538      18.0000000000
14882 4      14.3473150633      16.0000000000
14883 4      16.9371410976      15.0000000000
14884 5      22.5445340495      19.0000000000
14885 5      20.8310376126      21.0000000000
14886 4      14.9643110076      14.0000000000
14887 4      17.7772707836      16.0000000000
14888 5      20.8342380161      24.0000000000
14889 4      17.7883094865      23.0000000000
14890 4      17.9400011307      17.0000000000
14891 4      16.5899553902      21.0000000000
14892 4      16.6035526362      16.0000000000
14893 4      16.1365673062      14.0000000000
14894 4      15.8099200977      18.0000000000
14895 4      20.4605380326      19.0000000000
14896 4      15.5408103052      18.0000000000
14897 4      17.5364893371      18.0000000000
14898 5      20.0181344401      19.0000000000
14899 4      17.4194231466      19.0000000000
14900 4      16.6350000713      16.0000000000
14901 4      17.1971709832      15.0000000000
14902 4      16.8113997256      14.0000000000
14903 4      16.5299544649      17.0000000000
14904 4      16.3903536209      13.0000000000
14905 4      15.2382969473      18.0000000000
14906 5      20.1208870103      19.0000000000
14907 4      13.9871950588      16.0000000000
14908 4      16.0451990838      19.0000000000
14909 4      15.9888707982      19.0000000000
14910 5      20.4337399482      20.0000000000
14911 4      18.2307340682      16.0000000000
14912 5      19.2513543810      22.0000000000
14913 5      19.1064082071      20.0000000000
14914 4      15.9509999659      17.0000000000
14915 4      18.9874134866      16.0000000000
14916 4      17.9902487896      20.0000000000
14917 4      16.2631244938      16.0000000000
14918 4      19.5815480509      20.0000000000
14919 5      19.2501214434      18.0000000000
14920 4      17.4551007803      18.0000000000
14921 5      20.9905089399      19.0000000000
14922 4      16.5294416936      21.0000000000
14923 5      21.0565891679      21.0000000000
14924 5      16.0574781708      15.0000000000
14925 4      16.9812037471      18.0000000000
14926 5      15.5881180889      19.0000000000
14927 4      16.0328506066      16.0000000000
14928 4      15.9086045971      17.0000000000
14929 5      16.4468710808      17.0000000000
14930 4      15.9718546269      17.0000000000
14931 4      15.9497971864      14.0000000000
14932 4      14.0041042457      17.0000000000
14933 4      18.4133403112      20.0000000000
14934 4      17.1550057927      18.0000000000
14935 4      16.3932981360      14.0000000000
14936 4      16.8586635374      17.0000000000
14937 4      17.5931052143      20.0000000000
14938 4      17.0029687573      18.0000000000
14939 4      15.9243429660      17.0000000000
14940 4      14.3220617072      16.0000000000
14941 4      13.2114009285      13.0000000000
14942 4      16.6573300671      21.0000000000
14943 4      17.2344853960      17.0000000000
14944 5      18.3498771905      23.0000000000
14945 4      14.4119074673      19.0000000000
14946 4      13.2524636211      15.0000000000
14947 5      22.5382306758      22.0000000000
14948 4      15.9626755568      16.0000000000
14949 5      16.9140822569      17.0000000000
14950 4      19.5832576266      19.0000000000
14951 5      21.9355038819      21.0000000000
14952 4      19.9235733909      20.0000000000
14953 4      19.8394691874      21.0000000000
14954 4      13.3413183153      15.0000000000
14955 5      22.2929454322      19.0000000000
14956 4      15.7433155617      15.0000000000
14957 5      20.6888969824      20.0000000000
14958 5      20.4739780474      20.0000000000
14959 4      16.0367855987      16.0000000000
14960 4      16.4682832923      16.0000000000
14961 4      18.1972161936      21.0000000000
14962 4      16.6240999273      15.0000000000
14963 5      24.2786544544      24.0000000000
14964 4      18.9750591263      16.0000000000
14965 4      14.5266458400      19.0000000000
14966 4      14.7387622753      15.0000000000
14967 4      17.7594696210      15.0000000000
14968 4      13.9345678530      13.0000000000
14969 4      15.7092096934      17.0000000000
14970 4      19.3383916880      19.0000000000
14971 4      17.8416982090      16.0000000000
14972 5      19.3267876820      20.0000000000
14973 4      21.2502012033      23.0000000000
14974 4      18.3388840023      20.0000000000
14975 4      14.2359409469      16.0000000000
14976 4      14.6150831489      14.0000000000
14977 4      16.0562637012      17.0000000000
14978 5      22.8008037990      17.0000000000
14979 4      15.2346756776      16.0000000000
14980 5      19.6206108409      18.0000000000
14981 5      21.1271346518      15.0000000000
14982 4      14.6136295527      16.0000000000
14983 4      20.5482385585      18.0000000000
14984 5      22.5217810590      19.0000000000
14985 4      17.7799371021      22.0000000000
14986 4      13.6975213951      13.0000000000
14987 4      16.4713903444      20.0000000000
14988 4      17.4865230964      18.0000000000
14989 4      14.6963018175      11.0000000000
14990 4      15.6582486710      16.0000000000
14991 4      21.4066856808      24.0000000000
14992 4      20.2583415381      21.0000000000
14993 4      16.4330097492      18.0000000000
14994 4      13.9910770851      16.0000000000
14995 4      18.0077403058      19.0000000000
14996 5      24.0689846274      21.0000000000
14997 4      16.3688428448      17.0000000000
14998 5      19.2943237302      19.0000000000
14999 5      20.7787154669      20.0000000000
15000 4      17.6880770480      20.0000000000
