ITEM: TIMESTEP
0
ITEM: NUMBER OF ATOMS
15000
ITEM: BOX BOUNDS pp pp pp
4.5819502576642535e-01 5.8696440019411249e+01
4.5819502576642535e-01 5.8696440019411249e+01
4.5819502576642535e-01 5.8696440019411249e+01
ITEM: ATOMS id type c_voro[1] c_voro[2]
1 1       7.4158629458       8.0000000000
2 1       7.1483059491       9.0000000000
3 1       7.4803146916      11.0000000000
4 1       7.1269684354      11.0000000000
5 1       7.2178102968       9.0000000000
6 1       7.5380294312       9.0000000000
7 1       6.5202847397       8.0000000000
8 1       6.9944859600       9.0000000000
9 1       6.9807619991      10.0000000000
10 1       7.2995246400       9.0000000000
11 1       7.2419261289      10.0000000000
12 1       7.0352634617       7.0000000000
13 1       7.4566117642      10.0000000000
14 1       7.2770898131       9.0000000000
15 1       6.3794308340       7.0000000000
16 1       7.9572651736      11.0000000000
17 1       7.1069610182       8.0000000000
18 1       6.8594923351      10.0000000000
19 1       7.3234678688      11.0000000000
20 1       7.6290759000      10.0000000000
21 1       7.3518068264      10.0000000000
22 1       7.9487099398      14.0000000000
23 1       6.5916354259       7.0000000000
24 1       7.6753920791      11.0000000000
25 1       7.1663609120      10.0000000000
26 1       7.5565992293      10.0000000000
27 1       7.4271677364       9.0000000000
28 1       7.0650348712       8.0000000000
29 1       7.6797155465      10.0000000000
30 1       7.1718764565      10.0000000000
31 1       7.5813833089      10.0000000000
32 1       7.0120220533      10.0000000000
33 1       6.9756715436       8.0000000000
34 1       6.3629504476      12.0000000000
35 1       6.9017657113       9.0000000000
36 1       7.2939718189       9.0000000000
37 1       7.0633092205      11.0000000000
38 1       7.3108375924       8.0000000000
39 1       7.4657437614      11.0000000000
40 1       7.3190981354       9.0000000000
41 1       7.2304354235      10.0000000000
42 1       7.4568067785      10.0000000000
43 1       7.2861749065      11.0000000000
44 1       6.9085057470      10.0000000000
45 1       7.3660237222       8.0000000000
46 1       6.8627685775       7.0000000000
47 1       7.4230798358       8.0000000000
48 1       7.3353748000      10.0000000000
49 1       6.6514739149      10.0000000000
50 1       7.6322854120       9.0000000000
51 1       7.0132410481      11.0000000000
52 1       7.3625376854      10.0000000000
53 1       7.6012635302       9.0000000000
54 1       7.7476650836      11.0000000000
55 1       7.6611119992       8.0000000000
56 1       7.2615187764       9.0000000000
57 1       7.1819549202       9.0000000000
58 1       8.2727369493       7.0000000000
59 1       6.8617905155       9.0000000000
60 1       6.9963780146       8.0000000000
61 1       7.3160111837       9.0000000000
62 1       7.7617362469      10.0000000000
63 1       7.1237207298       7.0000000000
64 1       7.0827264586       9.0000000000
65 1       6.8829764689      11.0000000000
66 1       6.8388903953      10.0000000000
67 1       7.0978536938       6.0000000000
68 1       6.8107886557       8.0000000000
69 1       7.6048813912      10.0000000000
70 1       7.6029741222       8.0000000000
71 1       7.3748400455      11.0000000000
72 1       7.2470541256      12.0000000000
73 1       7.3257096290      10.0000000000
74 1       7.1108798359      11.0000000000
75 1       7.8302337538       9.0000000000
76 1       7.1829541711      10.0000000000
77 1       7.1732052083       8.0000000000
78 1       7.4987179539       8.0000000000
79 1       6.8680778018      10.0000000000
80 1       7.3762899554      11.0000000000
81 1       6.9888662390       9.0000000000
82 1       6.9491455605      10.0000000000
83 1       7.3217345366      11.0000000000
84 1       7.2277794142       9.0000000000
85 1       7.2916686218      10.0000000000
86 1       7.9664086080       9.0000000000
87 1       7.0984493474      11.0000000000
88 1       6.8708810503      10.0000000000
89 1       7.9696738224       9.0000000000
90 1       6.9322734410      10.0000000000
91 1       7.1208641523       8.0000000000
92 1       7.3807816016      10.0000000000
93 1       6.9771787935       9.0000000000
94 1       6.7949041353      11.0000000000
95 1       7.6426544068      11.0000000000
96 1       7.2186547600       9.0000000000
97 1       7.7528991728       8.0000000000
98 1       7.2408915246       9.0000000000
99 1       7.1424332051       9.0000000000
100 1       6.7116062729       9.0000000000
101 1       7.3574799101      10.0000000000
102 1       7.2664138301      12.0000000000
103 1       7.1879892856      10.0000000000
104 1       7.1620286845       8.0000000000
105 1       6.6975626024       9.0000000000
106 1       7.1495094905       9.0000000000
107 1       7.2290435929      10.0000000000
108 1       7.2185594395       9.0000000000
109 1       7.0713958253       8.0000000000
110 1       8.0420950051      13.0000000000
111 1       7.9365706487      13.0000000000
112 1       7.4103853116       9.0000000000
113 1       7.3794965910      13.0000000000
114 1       7.5776566242       9.0000000000
115 1       7.1085425225       9.0000000000
116 1       7.1246057437      11.0000000000
117 1       7.4031437470       8.0000000000
118 1       7.4121480569       9.0000000000
119 1       6.7848667791       9.0000000000
120 1       7.4589191737      10.0000000000
121 1       6.8454479313       8.0000000000
122 1       7.3973656128      10.0000000000
123 1       7.1771526317      10.0000000000
124 1       7.4194907540       8.0000000000
125 1       7.4704773690      13.0000000000
126 1       7.5271582626       9.0000000000
127 1       7.6983140800       9.0000000000
128 1       6.9696695042      10.0000000000
129 1       7.4628736839      10.0000000000
130 1       6.7223928791       9.0000000000
131 1       6.8743228060       8.0000000000
132 1       7.0324008870       9.0000000000
133 1       7.2165539061       8.0000000000
134 1       7.2477400449       8.0000000000
135 1       6.7699791867      11.0000000000
136 1       6.9600783897       7.0000000000
137 1       7.2146150842       9.0000000000
138 1       7.0330250409       8.0000000000
139 1       7.4672575316       7.0000000000
140 1       7.1354612821       8.0000000000
141 1       7.3659248981       9.0000000000
142 1       8.1972163288      10.0000000000
143 1       6.6950110825       9.0000000000
144 1       7.1927200157       9.0000000000
145 1       7.1423970761      10.0000000000
146 1       7.3092712464      12.0000000000
147 1       7.1353102499      10.0000000000
148 1       7.3274717337       9.0000000000
149 1       7.0766526824       9.0000000000
150 1       7.5337606580      10.0000000000
151 1       7.1666720080      11.0000000000
152 1       7.6840745356       9.0000000000
153 1       7.2154841645       9.0000000000
154 1       7.3611069979      10.0000000000
155 1       6.8568950817       7.0000000000
156 1       7.1746868518      12.0000000000
157 1       7.4011781688       8.0000000000
158 1       6.7197392109       9.0000000000
159 1       7.7456847421       9.0000000000
160 1       7.9174733336      11.0000000000
161 1       7.3392094064      10.0000000000
162 1       6.8806833830      10.0000000000
163 1       7.1176442630       9.0000000000
164 1       7.3051015534       8.0000000000
165 1       6.7133342749      11.0000000000
166 1       7.5695291128       7.0000000000
167 1       7.3967461168       9.0000000000
168 1       7.0522033143       9.0000000000
169 1       7.1905292623      10.0000000000
170 1       7.3171564174      11.0000000000
171 1       6.8284083786      11.0000000000
172 1       7.6803563182      10.0000000000
173 1       7.0343705810      10.0000000000
174 1       7.4678587884      10.0000000000
175 1       7.0392938672       8.0000000000
176 1       6.9648782748      10.0000000000
177 1       7.1357240801       8.0000000000
178 1       7.0625638153       8.0000000000
179 1       7.6124382364      11.0000000000
180 1       7.1994046076       7.0000000000
181 1       7.6672236066       9.0000000000
182 1       8.5373344199       9.0000000000
183 1       6.7439145644      10.0000000000
184 1       7.2348083075       9.0000000000
185 1       6.9873141445       9.0000000000
186 1       7.3378199540       9.0000000000
187 1       7.7226073196       9.0000000000
188 1       6.6174124064       9.0000000000
189 1       7.8582520703      12.0000000000
190 1       7.2362328635      10.0000000000
191 1       7.3632757063       8.0000000000
192 1       7.5673435077       8.0000000000
193 1       6.9789019565      11.0000000000
194 1       7.7535632431      12.0000000000
195 1       6.9467095486      12.0000000000
196 1       7.0411540797       8.0000000000
197 1       7.3165526882       8.0000000000
198 1       6.9729205776       9.0000000000
199 1       7.4492280025       7.0000000000
200 1       7.1395544725       7.0000000000
201 1       7.1211633076       9.0000000000
202 1       6.6430671022       8.0000000000
203 1       7.9218021821      13.0000000000
204 1       7.0861350633      11.0000000000
205 1       7.6117039556       9.0000000000
206 1       7.4644682790       8.0000000000
207 1       7.2698043285       9.0000000000
208 1       7.3764709858      13.0000000000
209 1       7.3605327796      11.0000000000
210 1       6.9128362225       8.0000000000
211 1       7.2000723734      11.0000000000
212 1       7.5775453781       9.0000000000
213 1       7.1251183356       8.0000000000
214 1       7.0570431461      10.0000000000
215 1       7.6275543103      10.0000000000
216 1       6.9501942015       9.0000000000
217 1       7.2094268746       9.0000000000
218 1       6.7257566049       7.0000000000
219 1       7.0454624771       9.0000000000
220 1       6.9256458915       9.0000000000
221 1       7.4255556948       9.0000000000
222 1       7.2280863685       9.0000000000
223 1       7.3775897318       8.0000000000
224 1       7.2411161677       9.0000000000
225 1       7.6328397969       8.0000000000
226 1       6.9451572592       9.0000000000
227 1       7.2444016760       9.0000000000
228 1       6.9276749996      10.0000000000
229 1       7.3033420801       8.0000000000
230 1       7.1483294060      10.0000000000
231 1       7.2781603400       9.0000000000
232 1       6.9862346214       8.0000000000
233 1       7.2367719202       9.0000000000
234 1       7.5824386939      12.0000000000
235 1       6.8552025727       9.0000000000
236 1       7.9098088303      12.0000000000
237 1       7.3585574292       9.0000000000
238 1       7.3189544679      10.0000000000
239 1       6.8135601009      10.0000000000
240 1       7.9180396336       9.0000000000
241 1       7.3559376658       9.0000000000
242 1       7.0367023720       7.0000000000
243 1       7.4245215582       7.0000000000
244 1       6.9568659139       7.0000000000
245 1       7.7745513070       9.0000000000
246 1       6.7564588721       9.0000000000
247 1       7.1573264933       9.0000000000
248 1       7.0110716978       9.0000000000
249 1       7.1688380833       9.0000000000
250 1       7.0397634694       9.0000000000
251 1       7.0389095243       9.0000000000
252 1       6.9608713438       9.0000000000
253 1       7.2581956443       9.0000000000
254 1       6.9082554360      10.0000000000
255 1       7.0422880567       9.0000000000
256 1       8.0025868653      11.0000000000
257 1       7.6692080324       8.0000000000
258 1       7.5118669269       8.0000000000
259 1       7.2724469774      10.0000000000
260 1       6.8939521771       9.0000000000
261 1       7.0107346487      11.0000000000
262 1       6.9629265395      11.0000000000
263 1       7.6473326528       8.0000000000
264 1       6.8910207224      10.0000000000
265 1       7.3319489100       8.0000000000
266 1       7.1973224992       9.0000000000
267 1       6.7385736382       7.0000000000
268 1       7.2704171159       8.0000000000
269 1       7.5671296918       9.0000000000
270 1       7.5486792820      11.0000000000
271 1       7.2255132987       9.0000000000
272 1       7.8687656383       8.0000000000
273 1       6.7425164032       8.0000000000
274 1       7.4001446609       9.0000000000
275 1       7.7143701873      10.0000000000
276 1       7.2588257117      10.0000000000
277 1       6.9381905810       7.0000000000
278 1       7.4397242045      10.0000000000
279 1       6.9227331390       8.0000000000
280 1       7.0502488732       9.0000000000
281 1       7.2702773459       9.0000000000
282 1       6.7205090561      11.0000000000
283 1       7.0559247720       9.0000000000
284 1       7.3768847054      10.0000000000
285 1       7.0964147535      10.0000000000
286 1       7.2354380001      10.0000000000
287 1       7.1309303386       9.0000000000
288 1       7.1187698731      12.0000000000
289 1       7.1783402275      10.0000000000
290 1       7.4465211486       8.0000000000
291 1       7.3988797110       9.0000000000
292 1       7.3787373151       8.0000000000
293 1       7.3851172700       8.0000000000
294 1       7.4274897788       8.0000000000
295 1       7.3735456808       9.0000000000
296 1       7.5029373388       9.0000000000
297 1       7.2179502601      11.0000000000
298 1       7.3409678737      10.0000000000
299 1       7.2869247622       8.0000000000
300 1       7.6535999368      10.0000000000
301 1       7.7892793164      10.0000000000
302 1       7.5524408447       9.0000000000
303 1       6.9095163260       9.0000000000
304 1       7.6899443080      11.0000000000
305 1       7.2121785233      11.0000000000
306 1       6.8413816026      10.0000000000
307 1       7.1833390625       8.0000000000
308 1       6.8444063149       7.0000000000
309 1       7.3322943832       8.0000000000
310 1       6.9199766104       8.0000000000
311 1       7.2525026185      12.0000000000
312 1       7.7128686390      11.0000000000
313 1       7.1877150746       8.0000000000
314 1       7.1912216479      10.0000000000
315 1       6.8329966460      10.0000000000
316 1       7.1875633883      10.0000000000
317 1       7.2077080721       9.0000000000
318 1       7.5699306562       9.0000000000
319 1       7.2977045657       9.0000000000
320 1       7.4150912818      10.0000000000
321 1       6.9699442724      10.0000000000
322 1       7.0390468849      12.0000000000
323 1       7.8698809547      10.0000000000
324 1       7.3359916694      11.0000000000
325 1       7.7277457140      12.0000000000
326 1       7.0398164664       7.0000000000
327 1       7.0626816605       9.0000000000
328 1       7.6171098454       8.0000000000
329 1       6.6695951700      10.0000000000
330 1       7.3625954820      11.0000000000
331 1       7.7212520234      10.0000000000
332 1       7.0892326794       9.0000000000
333 1       6.7349570117      10.0000000000
334 1       7.2861339631       8.0000000000
335 1       7.2537699936      10.0000000000
336 1       7.5076461961       9.0000000000
337 1       7.3947898695       9.0000000000
338 1       7.3364200801       8.0000000000
339 1       6.8876044054       9.0000000000
340 1       7.2226640382       8.0000000000
341 1       7.1560704825      10.0000000000
342 1       7.4226117410       9.0000000000
343 1       7.6393051723       8.0000000000
344 1       6.9158186520      10.0000000000
345 1       7.3572785807      11.0000000000
346 1       6.8504399517      12.0000000000
347 1       6.7580891790      10.0000000000
348 1       7.0793197285       9.0000000000
349 1       7.0140964705      12.0000000000
350 1       6.9357692126      11.0000000000
351 1       7.2534566856       8.0000000000
352 1       6.8685153720      10.0000000000
353 1       7.2643905210      10.0000000000
354 1       7.2920366550       7.0000000000
355 1       7.0314644421       8.0000000000
356 1       7.2940689604       8.0000000000
357 1       6.9554358952       9.0000000000
358 1       7.2582283043       9.0000000000
359 1       7.1414387413      10.0000000000
360 1       7.2968244660      11.0000000000
361 1       7.2271457347      10.0000000000
362 1       6.9464742156       9.0000000000
363 1       7.5600997581      10.0000000000
364 1       7.2136347525      11.0000000000
365 1       6.6515722625       7.0000000000
366 1       7.6042953943       9.0000000000
367 1       7.0809546375       8.0000000000
368 1       7.1511248369       9.0000000000
369 1       7.1242542035       9.0000000000
370 1       7.3839940136      10.0000000000
371 1       7.5447853202      13.0000000000
372 1       7.5838502505       9.0000000000
373 1       7.1664236780      10.0000000000
374 1       7.6967148236       8.0000000000
375 1       7.2740203114      10.0000000000
376 1       7.2544063704       8.0000000000
377 1       7.1832869877      10.0000000000
378 1       7.5998089040       9.0000000000
379 1       7.7580641676       8.0000000000
380 1       7.6532986382       9.0000000000
381 1       7.6060333816       9.0000000000
382 1       6.6903857039      11.0000000000
383 1       7.5639172370      11.0000000000
384 1       7.5852141649      10.0000000000
385 1       7.3112073806      10.0000000000
386 1       7.4889156872      10.0000000000
387 1       6.8458499653      11.0000000000
388 1       6.5551035452       8.0000000000
389 1       7.4787505283       8.0000000000
390 1       7.1462645564      10.0000000000
391 1       7.3762538672       8.0000000000
392 1       7.0150659753      11.0000000000
393 1       7.1406874823       9.0000000000
394 1       7.7009919719       9.0000000000
395 1       7.9302604120       9.0000000000
396 1       6.4776420737      10.0000000000
397 1       7.3476676454      11.0000000000
398 1       7.2130503345       8.0000000000
399 1       7.2725007259      11.0000000000
400 1       7.3049744418       9.0000000000
401 1       7.2479466344      10.0000000000
402 1       7.7084632416       9.0000000000
403 1       7.7092466135      11.0000000000
404 1       7.4466353724       9.0000000000
405 1       7.2531004589      10.0000000000
406 1       6.9584567273      10.0000000000
407 1       7.5795916565      10.0000000000
408 1       7.1145614896       9.0000000000
409 1       7.8990025998      12.0000000000
410 1       6.6590388224       8.0000000000
411 1       7.6881702645       9.0000000000
412 1       7.0047875127       8.0000000000
413 1       7.3516937970      11.0000000000
414 1       6.7655211396      10.0000000000
415 1       7.1997973403      10.0000000000
416 1       7.1528678624       7.0000000000
417 1       7.6703671954       6.0000000000
418 1       6.9772566420       8.0000000000
419 1       6.7288926506       9.0000000000
420 1       7.3864736140      12.0000000000
421 1       6.9360492835       9.0000000000
422 1       7.3418745234      10.0000000000
423 1       6.8849942295       9.0000000000
424 1       6.9415882568       8.0000000000
425 1       7.6463650500      10.0000000000
426 1       7.9369967869      12.0000000000
427 1       7.8285038961      12.0000000000
428 1       6.8400653007       7.0000000000
429 1       7.5321560290      10.0000000000
430 1       7.0754711715      10.0000000000
431 1       7.5116029593       8.0000000000
432 1       6.7167824053       9.0000000000
433 1       6.8079527782       8.0000000000
434 1       7.0594851627      11.0000000000
435 1       7.8407194907      13.0000000000
436 1       7.6080760838      10.0000000000
437 1       7.0567828534      10.0000000000
438 1       6.7443285508      12.0000000000
439 1       7.6603508924      10.0000000000
440 1       7.0184647763       7.0000000000
441 1       6.7059383485      11.0000000000
442 1       7.1087808273       9.0000000000
443 1       7.2300399346       8.0000000000
444 1       7.4123624152      10.0000000000
445 1       6.8684881899       8.0000000000
446 1       7.0851758238       9.0000000000
447 1       8.3316487866       9.0000000000
448 1       7.7920425544       9.0000000000
449 1       7.6144748934      12.0000000000
450 1       7.5079318740      11.0000000000
451 1       7.7572472314       6.0000000000
452 1       7.1197801820      11.0000000000
453 1       7.5759522735       9.0000000000
454 1       7.1466903141      10.0000000000
455 1       7.5152364579      12.0000000000
456 1       7.4513978431       9.0000000000
457 1       7.1381167952       7.0000000000
458 1       6.6386966856       9.0000000000
459 1       6.8573266811       9.0000000000
460 1       6.7145750905       8.0000000000
461 1       6.9696281539      10.0000000000
462 1       7.1410943319       9.0000000000
463 1       7.4919662203      10.0000000000
464 1       7.2513210498      10.0000000000
465 1       7.3964868116      13.0000000000
466 1       7.4586293200       8.0000000000
467 1       7.6190987720      11.0000000000
468 1       7.5571725504       8.0000000000
469 1       7.5196006908      12.0000000000
470 1       7.5449745478       8.0000000000
471 1       7.6998544886      12.0000000000
472 1       7.3784131150      10.0000000000
473 1       6.6461070023       7.0000000000
474 1       7.3203082302      12.0000000000
475 1       6.9239954354       7.0000000000
476 1       7.3727765977       8.0000000000
477 1       7.4737306535       9.0000000000
478 1       7.8955114733      10.0000000000
479 1       6.5851456387       7.0000000000
480 1       7.6312145241       8.0000000000
481 1       7.7260942658       8.0000000000
482 1       6.7538374225       8.0000000000
483 1       7.4866749044      10.0000000000
484 1       7.2232400840       8.0000000000
485 1       7.0067648314       9.0000000000
486 1       7.1160515289       7.0000000000
487 1       7.1527400916       8.0000000000
488 1       7.1194301231      10.0000000000
489 1       7.2870405608       8.0000000000
490 1       7.3439661172       8.0000000000
491 1       7.0329916354      10.0000000000
492 1       6.9931220269      10.0000000000
493 1       7.7069221734      10.0000000000
494 1       7.7610550601       8.0000000000
495 1       6.8713522697       7.0000000000
496 1       7.0871339211       7.0000000000
497 1       7.2976553349       7.0000000000
498 1       6.9306709902       9.0000000000
499 1       7.1374050559      12.0000000000
500 1       7.9007257848      10.0000000000
501 1       7.4646649901      12.0000000000
502 1       7.0863860811       9.0000000000
503 1       7.0722542208       8.0000000000
504 1       7.0156146006       8.0000000000
505 1       6.8411235666       8.0000000000
506 1       7.2022384761      12.0000000000
507 1       7.2865800027      11.0000000000
508 1       7.1447439052      11.0000000000
509 1       7.4529919436       9.0000000000
510 1       6.8402132966       8.0000000000
511 1       7.0438270591      10.0000000000
512 1       7.6279218873       9.0000000000
513 1       7.9531913071       9.0000000000
514 1       7.3213172979      11.0000000000
515 1       7.1366050631      12.0000000000
516 1       7.5581573207      10.0000000000
517 1       7.9717914167      12.0000000000
518 1       7.1787470833       9.0000000000
519 1       6.9096927903       8.0000000000
520 1       7.7305160586      10.0000000000
521 1       6.9938644516      10.0000000000
522 1       7.2651743184       9.0000000000
523 1       7.7136834639       8.0000000000
524 1       7.0554139695       8.0000000000
525 1       7.2309718088       8.0000000000
526 1       7.1302525103       8.0000000000
527 1       7.2179501670       9.0000000000
528 1       7.4473800547      10.0000000000
529 1       7.6776828305      10.0000000000
530 1       6.9720602718       9.0000000000
531 1       7.9146811205      11.0000000000
532 1       7.2111692470      13.0000000000
533 1       7.2148306978      10.0000000000
534 1       7.1421311276      11.0000000000
535 1       6.9671002571       9.0000000000
536 1       7.3691388525       9.0000000000
537 1       7.6533348417       8.0000000000
538 1       7.2869934718       7.0000000000
539 1       7.6746237517      10.0000000000
540 1       7.2418406043      10.0000000000
541 1       7.4667152466       7.0000000000
542 1       7.6319293456      10.0000000000
543 1       7.1235103285      10.0000000000
544 1       7.0716621985       8.0000000000
545 1       7.7836488228      10.0000000000
546 1       7.2708899571      10.0000000000
547 1       7.6830993153      10.0000000000
548 1       7.0607043313      10.0000000000
549 1       7.1255122169       7.0000000000
550 1       7.2756212397      11.0000000000
551 1       7.1312042569      11.0000000000
552 1       6.8442056129       7.0000000000
553 1       7.0364936420      10.0000000000
554 1       7.9740667821       8.0000000000
555 1       7.2270797956       9.0000000000
556 1       7.5025945573       9.0000000000
557 1       7.0683908074       9.0000000000
558 1       6.5573296763       8.0000000000
559 1       7.5926964805       8.0000000000
560 1       7.3041784475       8.0000000000
561 1       7.0911820017       9.0000000000
562 1       6.7915864448       8.0000000000
563 1       7.5960604975       9.0000000000
564 1       7.6616605919       9.0000000000
565 1       7.0441259589       8.0000000000
566 1       6.4382417344       8.0000000000
567 1       7.3417080751      10.0000000000
568 1       7.6251801900      11.0000000000
569 1       6.8935296205       8.0000000000
570 1       7.5601998019      11.0000000000
571 1       7.4959664636      11.0000000000
572 1       6.6726914123       8.0000000000
573 1       6.9847252379      11.0000000000
574 1       7.3710105427      10.0000000000
575 1       6.7938206148      11.0000000000
576 1       7.4180532217      10.0000000000
577 1       7.3154208278      10.0000000000
578 1       7.8677121643      10.0000000000
579 1       6.9887307687      10.0000000000
580 1       6.7750896460      10.0000000000
581 1       7.5720210685       9.0000000000
582 1       7.9665392954      12.0000000000
583 1       7.3426556828       8.0000000000
584 1       7.7662688324       8.0000000000
585 1       7.3401391220      10.0000000000
586 1       6.7665762209       9.0000000000
587 1       7.4013019981      11.0000000000
588 1       6.3197167438       8.0000000000
589 1       6.7609255321      10.0000000000
590 1       7.2588346653      10.0000000000
591 1       7.0727162232      10.0000000000
592 1       7.7913373710       8.0000000000
593 1       7.1183026046       9.0000000000
594 1       7.7120114954       8.0000000000
595 1       6.9931111263      10.0000000000
596 1       7.8245662680      12.0000000000
597 1       7.3649786136      10.0000000000
598 1       7.0205288974       9.0000000000
599 1       7.9753008619      10.0000000000
600 1       6.9043725906       7.0000000000
601 1       7.6181779819      13.0000000000
602 1       6.8496984823       7.0000000000
603 1       7.1166184109       8.0000000000
604 1       7.4545634116       9.0000000000
605 1       7.3635210311       9.0000000000
606 1       7.4426883884      12.0000000000
607 1       7.6792290877       9.0000000000
608 1       7.2276061839       8.0000000000
609 1       7.2895864905       9.0000000000
610 1       7.8464358236      13.0000000000
611 1       6.8950825951      10.0000000000
612 1       6.8053037959       9.0000000000
613 1       7.0450004070      14.0000000000
614 1       7.9569869487      10.0000000000
615 1       7.0791350140       9.0000000000
616 1       7.5599333841       9.0000000000
617 1       6.8243613645       8.0000000000
618 1       7.0708446923       8.0000000000
619 1       7.6610353548       9.0000000000
620 1       7.1634275828      11.0000000000
621 1       7.4856557056       8.0000000000
622 1       7.4541801936       9.0000000000
623 1       7.5109380636      11.0000000000
624 1       6.9802035707      12.0000000000
625 1       7.0224437347       8.0000000000
626 1       7.7300475023      12.0000000000
627 1       7.3623501912       8.0000000000
628 1       7.2353178398      10.0000000000
629 1       7.5418277714      11.0000000000
630 1       7.4747496871      11.0000000000
631 1       7.2425051911       8.0000000000
632 1       6.9392191802      10.0000000000
633 1       7.5895577466       8.0000000000
634 1       7.5171507192      10.0000000000
635 1       7.2155334338       9.0000000000
636 1       7.3615246358       9.0000000000
637 1       7.1120023141       8.0000000000
638 1       6.5309346464       9.0000000000
639 1       7.3200515471       9.0000000000
640 1       6.8739307401      11.0000000000
641 1       7.3713003592      12.0000000000
642 1       7.1590230255       9.0000000000
643 1       6.7953229497       8.0000000000
644 1       7.1753563204      11.0000000000
645 1       7.2920815626      10.0000000000
646 1       7.3089043594      10.0000000000
647 1       6.9821917770      10.0000000000
648 1       7.1333095952      10.0000000000
649 1       7.2131886111       7.0000000000
650 1       7.1321877009      11.0000000000
651 1       6.9753865153       9.0000000000
652 1       7.1691858189      11.0000000000
653 1       6.9506907013       7.0000000000
654 1       7.1742863986       9.0000000000
655 1       7.0275539450       9.0000000000
656 1       7.1803874127      11.0000000000
657 1       7.3441699594      10.0000000000
658 1       6.9129788093       7.0000000000
659 1       7.2464439116      10.0000000000
660 1       7.2083076296       8.0000000000
661 1       7.4731681056       9.0000000000
662 1       7.3349224984       9.0000000000
663 1       6.9993402275       9.0000000000
664 1       7.4206154777      10.0000000000
665 1       7.5456802916      10.0000000000
666 1       7.3755031773       9.0000000000
667 1       7.0333583340       8.0000000000
668 1       7.2906180058       9.0000000000
669 1       6.9371440328       8.0000000000
670 1       6.4950500629       9.0000000000
671 1       7.5927053766       9.0000000000
672 1       7.1906268251      11.0000000000
673 1       7.3780236741       9.0000000000
674 1       7.1330219415      11.0000000000
675 1       7.5209843736      10.0000000000
676 1       7.1816167472       7.0000000000
677 1       7.0119799632       8.0000000000
678 1       7.0356858532       8.0000000000
679 1       7.4557380385       7.0000000000
680 1       7.1114381235      10.0000000000
681 1       7.2790645961       8.0000000000
682 1       6.6750957654       7.0000000000
683 1       7.4023483987       9.0000000000
684 1       7.6098806625       7.0000000000
685 1       7.4034235933       8.0000000000
686 1       7.4957355355      10.0000000000
687 1       7.8187317502       8.0000000000
688 1       7.3952270071      10.0000000000
689 1       7.5745573563       9.0000000000
690 1       7.2087522581      11.0000000000
691 1       7.5368209412       8.0000000000
692 1       7.2543697831       7.0000000000
693 1       8.0556776535      10.0000000000
694 1       7.3902072180       9.0000000000
695 1       7.4251723105      11.0000000000
696 1       7.5080623806       9.0000000000
697 1       7.1728098608       9.0000000000
698 1       7.4121201971      11.0000000000
699 1       6.8536434392      11.0000000000
700 1       7.2101457702      10.0000000000
701 1       7.0767103499       8.0000000000
702 1       7.5722180302      10.0000000000
703 1       7.6301386481       8.0000000000
704 1       6.9655716281      10.0000000000
705 1       6.8798345453       8.0000000000
706 1       7.4868753703       8.0000000000
707 1       7.9695365361      11.0000000000
708 1       7.3498633152      10.0000000000
709 1       7.6900973512       7.0000000000
710 1       7.1237801687      11.0000000000
711 1       6.6530531070      10.0000000000
712 1       6.8106353735      10.0000000000
713 1       8.1794854699       9.0000000000
714 1       6.6170515391       9.0000000000
715 1       7.9132117661      11.0000000000
716 1       7.2222726292       7.0000000000
717 1       7.7618620773      11.0000000000
718 1       7.5461425287       9.0000000000
719 1       7.2801501847       8.0000000000
720 1       7.2425827099       9.0000000000
721 1       7.2527847338      11.0000000000
722 1       7.1646342350       9.0000000000
723 1       7.2022063998       9.0000000000
724 1       7.7748342899      12.0000000000
725 1       7.0387606142       8.0000000000
726 1       7.3753756973      10.0000000000
727 1       7.0828610979       8.0000000000
728 1       7.8716892190      10.0000000000
729 1       7.1268432101       9.0000000000
730 1       7.1507527488      11.0000000000
731 1       7.7416781924      12.0000000000
732 1       6.9054708413       9.0000000000
733 1       6.9617151210      10.0000000000
734 1       6.8683694042       7.0000000000
735 1       7.3035735846       9.0000000000
736 1       7.1377878837       9.0000000000
737 1       7.1427922417       8.0000000000
738 1       6.9324158448       8.0000000000
739 1       7.0800154565      10.0000000000
740 1       7.3053319420       9.0000000000
741 1       7.2341208509       7.0000000000
742 1       7.3676691741      11.0000000000
743 1       7.0214288550      10.0000000000
744 1       7.3965619216       9.0000000000
745 1       7.4942140760      10.0000000000
746 1       7.2465322002       9.0000000000
747 1       7.2575846465       9.0000000000
748 1       7.1926391822       8.0000000000
749 1       8.0604866458       9.0000000000
750 1       7.3558357909      10.0000000000
751 1       7.1585789464      11.0000000000
752 1       6.7698820542       9.0000000000
753 1       7.1649110951       9.0000000000
754 1       7.0733274141      12.0000000000
755 1       7.1061546288       8.0000000000
756 1       7.3670224388      10.0000000000
757 1       7.1097955820      10.0000000000
758 1       7.3534253402      10.0000000000
759 1       7.4872830733       8.0000000000
760 1       7.7685114260      10.0000000000
761 1       7.1815442986      10.0000000000
762 1       7.4328284838      11.0000000000
763 1       7.3446289904      10.0000000000
764 1       7.2832783816       8.0000000000
765 1       7.1927995995       7.0000000000
766 1       7.4294207276       9.0000000000
767 1       7.3149812374       9.0000000000
768 1       7.0074163401       7.0000000000
769 1       7.1529079331       9.0000000000
770 1       7.7846989731       7.0000000000
771 1       7.1085830914      12.0000000000
772 1       7.1424117313       9.0000000000
773 1       7.8696962418      10.0000000000
774 1       7.1643752016       8.0000000000
775 1       6.5115044149       8.0000000000
776 1       7.0451492262      10.0000000000
777 1       7.1975552884       9.0000000000
778 1       7.2860505492      11.0000000000
779 1       7.0637114097      10.0000000000
780 1       7.2204577182       6.0000000000
781 1       7.3991999025      11.0000000000
782 1       6.8056805854      10.0000000000
783 1       7.1760134692      10.0000000000
784 1       6.8060365231       9.0000000000
785 1       6.8972662941      10.0000000000
786 1       7.4991055130      10.0000000000
787 1       7.3898000983      10.0000000000
788 1       7.3104086459       8.0000000000
789 1       7.2773890429       9.0000000000
790 1       7.2698205724      11.0000000000
791 1       7.6256741376      12.0000000000
792 1       7.3366704839      10.0000000000
793 1       7.2334045418      10.0000000000
794 1       7.1203265309      10.0000000000
795 1       7.1619900616       7.0000000000
796 1       7.6563685812       9.0000000000
797 1       7.7468745371       8.0000000000
798 1       6.8113651745       9.0000000000
799 1       7.3198486566      10.0000000000
800 1       7.3747976527       9.0000000000
801 1       6.6561442282       8.0000000000
802 1       7.2517791282       9.0000000000
803 1       7.4614301051      10.0000000000
804 1       6.9182480349       9.0000000000
805 1       7.1907383488      10.0000000000
806 1       7.6976037207       9.0000000000
807 1       6.9105448774       9.0000000000
808 1       7.3495602412      10.0000000000
809 1       7.2107195220      10.0000000000
810 1       7.1089544883       9.0000000000
811 1       7.4617625099       9.0000000000
812 1       7.1658926440       8.0000000000
813 1       7.1602330835      11.0000000000
814 1       6.9257199772       7.0000000000
815 1       7.4422677829      10.0000000000
816 1       7.4489395412       9.0000000000
817 1       7.2884359732      10.0000000000
818 1       7.2117209485       8.0000000000
819 1       7.3775645623       8.0000000000
820 1       7.1497803688      10.0000000000
821 1       7.3905887701       8.0000000000
822 1       7.4511421470      10.0000000000
823 1       7.1302506526       9.0000000000
824 1       6.5750145126       7.0000000000
825 1       6.6063326501      10.0000000000
826 1       7.2425446969       9.0000000000
827 1       7.3874570363       9.0000000000
828 1       7.4086586009       8.0000000000
829 1       7.1016540960       9.0000000000
830 1       7.6718801812       9.0000000000
831 1       7.2560151944       9.0000000000
832 1       7.3243774611       9.0000000000
833 1       6.8302098880       9.0000000000
834 1       6.8645717302      10.0000000000
835 1       7.6204018584       9.0000000000
836 1       8.0173931978      12.0000000000
837 1       6.9745244487      11.0000000000
838 1       7.4264428879       9.0000000000
839 1       7.2312991957       8.0000000000
840 1       7.4430234331       9.0000000000
841 1       7.1439883251       9.0000000000
842 1       7.3824061776       7.0000000000
843 1       7.3551291474       9.0000000000
844 1       7.4692530531       7.0000000000
845 1       7.5865315631       9.0000000000
846 1       7.6916858125      12.0000000000
847 1       6.9188439456       9.0000000000
848 1       7.1844291856       8.0000000000
849 1       7.5601434601       8.0000000000
850 1       6.8064425221       6.0000000000
851 1       7.5868366473      10.0000000000
852 1       8.2086587515       9.0000000000
853 1       6.7618559518       8.0000000000
854 1       7.9142938462      10.0000000000
855 1       7.0783114060      11.0000000000
856 1       6.7664204219       8.0000000000
857 1       6.9089707458      10.0000000000
858 1       7.2356372324      12.0000000000
859 1       7.2065031387      10.0000000000
860 1       7.2060407157       6.0000000000
861 1       7.3308145888       9.0000000000
862 1       6.7307571265       8.0000000000
863 1       6.8918984517      12.0000000000
864 1       7.8338743897       9.0000000000
865 1       6.9047313081      10.0000000000
866 1       7.0347980584      11.0000000000
867 1       7.2031661957      14.0000000000
868 1       7.2854669800      10.0000000000
869 1       7.5233076038      14.0000000000
870 1       6.7246528998       9.0000000000
871 1       7.1059099061       8.0000000000
872 1       7.2174826636      10.0000000000
873 1       7.1074170097      11.0000000000
874 1       7.4237455613       9.0000000000
875 1       7.3835297342       9.0000000000
876 1       7.3528494970       8.0000000000
877 1       6.6515415170      10.0000000000
878 1       7.0750069766       8.0000000000
879 1       7.3003710404       9.0000000000
880 1       7.8792910344      10.0000000000
881 1       7.6240427163       9.0000000000
882 1       6.9078976455      10.0000000000
883 1       6.8982176224      10.0000000000
884 1       7.0950876382       9.0000000000
885 1       7.6997775142       9.0000000000
886 1       7.6565597363       9.0000000000
887 1       7.2630960499       9.0000000000
888 1       7.5716711615      11.0000000000
889 1       6.6475018843       8.0000000000
890 1       7.3473477448       9.0000000000
891 1       7.1016854041      13.0000000000
892 1       6.7321589032       9.0000000000
893 1       7.1770523108      10.0000000000
894 1       6.9630450981       9.0000000000
895 1       7.5267758056       9.0000000000
896 1       7.6102701998      10.0000000000
897 1       7.8056377337      11.0000000000
898 1       7.0122919821      11.0000000000
899 1       7.3872678278      11.0000000000
900 1       7.0959386415      13.0000000000
901 1       7.1018362718       9.0000000000
902 1       7.7982973793      10.0000000000
903 1       7.5087078245       9.0000000000
904 1       7.5481334045      10.0000000000
905 1       7.8791145318      10.0000000000
906 1       7.2796743205       9.0000000000
907 1       6.9483694711       8.0000000000
908 1       7.3377683285      11.0000000000
909 1       7.4115456115       9.0000000000
910 1       7.0027424003       9.0000000000
911 1       7.1678703392       9.0000000000
912 1       6.9593860811      10.0000000000
913 1       6.9243952510       9.0000000000
914 1       7.2449796039      12.0000000000
915 1       6.9217676398      10.0000000000
916 1       7.2797089001      11.0000000000
917 1       6.7721137791       8.0000000000
918 1       7.2864979776      10.0000000000
919 1       7.2558243597      10.0000000000
920 1       7.2917104413      10.0000000000
921 1       7.4556178286       8.0000000000
922 1       6.4759772004      10.0000000000
923 1       7.6788050299      12.0000000000
924 1       7.4694071199       8.0000000000
925 1       6.7781478874       9.0000000000
926 1       7.4009294787      10.0000000000
927 1       7.3496218297      10.0000000000
928 1       7.5412104649       9.0000000000
929 1       7.9495904124      10.0000000000
930 1       7.6908099657      11.0000000000
931 1       7.3792939876       8.0000000000
932 1       7.3979381904       8.0000000000
933 1       7.4335925043       9.0000000000
934 1       7.1856585262      10.0000000000
935 1       7.4020408971      12.0000000000
936 1       6.9056249329      12.0000000000
937 1       7.7046409198      10.0000000000
938 1       7.6577985468      10.0000000000
939 1       7.4837632188      10.0000000000
940 1       7.5826390152      11.0000000000
941 1       7.3230212544       9.0000000000
942 1       7.8656187919      10.0000000000
943 1       7.0405596601       9.0000000000
944 1       6.9972955092      10.0000000000
945 1       6.6583865238       8.0000000000
946 1       7.1372591415      11.0000000000
947 1       6.7331984102       8.0000000000
948 1       7.5466229422      10.0000000000
949 1       7.3785846919      10.0000000000
950 1       7.2601023545      10.0000000000
951 1       7.2139714481       8.0000000000
952 1       7.1817545160       8.0000000000
953 1       7.4187961063      12.0000000000
954 1       6.9111316555      10.0000000000
955 1       7.4392107382      10.0000000000
956 1       6.6183737799       8.0000000000
957 1       7.7126276265       9.0000000000
958 1       7.3077791494       8.0000000000
959 1       7.7844154954       8.0000000000
960 1       6.8939216277      10.0000000000
961 1       7.8719207793       8.0000000000
962 1       7.4077777728      10.0000000000
963 1       7.4267783956       8.0000000000
964 1       7.1052468232       9.0000000000
965 1       7.2794575387       8.0000000000
966 1       7.2186537545       9.0000000000
967 1       6.7350012654       8.0000000000
968 1       7.5435304191      10.0000000000
969 1       6.9418734785       9.0000000000
970 1       6.8687461474       9.0000000000
971 1       8.3260538742      10.0000000000
972 1       7.1688224944       8.0000000000
973 1       7.7547508800       8.0000000000
974 1       6.6672427738       7.0000000000
975 1       6.9615397598       8.0000000000
976 1       7.7967827224       9.0000000000
977 1       7.5769912338      10.0000000000
978 1       7.2875871935      11.0000000000
979 1       7.0731075132      10.0000000000
980 1       6.7841925515       8.0000000000
981 1       6.9092000715      10.0000000000
982 1       7.6274363951       8.0000000000
983 1       7.7103790513       8.0000000000
984 1       7.0519705300      11.0000000000
985 1       7.0277946116       9.0000000000
986 1       7.3046102763       8.0000000000
987 1       7.1153227710       9.0000000000
988 1       7.8667816144      11.0000000000
989 1       7.4719379022       8.0000000000
990 1       7.0829518878      11.0000000000
991 1       7.4254065536      11.0000000000
992 1       6.8188359202      11.0000000000
993 1       7.1571674440       7.0000000000
994 1       6.9465280887       8.0000000000
995 1       7.5190451963      10.0000000000
996 1       6.8100771903       7.0000000000
997 1       7.4775052805       9.0000000000
998 1       7.5601078588      11.0000000000
999 1       7.7031568526      10.0000000000
1000 1       7.3310588438      10.0000000000
1001 1       7.6536481696       9.0000000000
1002 1       7.2074050823      11.0000000000
1003 1       7.4291385152      10.0000000000
1004 1       7.2325673423       8.0000000000
1005 1       7.5465394493      10.0000000000
1006 1       7.1034594402      10.0000000000
1007 1       7.1605202511       8.0000000000
1008 1       7.2459348938      11.0000000000
1009 1       6.7165272696       8.0000000000
1010 1       6.8951372985       9.0000000000
1011 1       6.8461848490      11.0000000000
1012 1       7.7484272426      10.0000000000
1013 1       7.6807879617       8.0000000000
1014 1       7.7214942771      11.0000000000
1015 1       7.0179753174       8.0000000000
1016 1       7.5023727793      10.0000000000
1017 1       7.2926702293       9.0000000000
1018 1       7.4218555920      10.0000000000
1019 1       6.9619970758       8.0000000000
1020 1       7.1768955471      11.0000000000
1021 1       7.0413910360       9.0000000000
1022 1       7.2961226766      10.0000000000
1023 1       7.0346887964      10.0000000000
1024 1       6.9145098769       9.0000000000
1025 1       7.1628793123       8.0000000000
1026 1       7.4880150348      12.0000000000
1027 1       7.3760378483      10.0000000000
1028 1       7.4738616295      11.0000000000
1029 1       7.6493677357      12.0000000000
1030 1       7.0272859902      10.0000000000
1031 1       7.1417105340      11.0000000000
1032 1       7.1746165570       9.0000000000
1033 1       7.3666354435      11.0000000000
1034 1       7.4773000671      11.0000000000
1035 1       6.7450324091       8.0000000000
1036 1       7.6169828964       8.0000000000
1037 1       7.4222138170      10.0000000000
1038 1       7.0892424813       8.0000000000
1039 1       7.2980469141       9.0000000000
1040 1       6.5432170868       9.0000000000
1041 1       6.7672138535       8.0000000000
1042 1       7.0995725102       9.0000000000
1043 1       7.3482390238      10.0000000000
1044 1       7.1830119623       9.0000000000
1045 1       7.3491310104      10.0000000000
1046 1       6.7900319501      10.0000000000
1047 1       7.1956932519       8.0000000000
1048 1       7.6078616857      13.0000000000
1049 1       7.2163041806       9.0000000000
1050 1       7.9356638827      11.0000000000
1051 1       7.1059129724       9.0000000000
1052 1       7.0110277138      11.0000000000
1053 1       7.3555374271      10.0000000000
1054 1       7.4256809598       8.0000000000
1055 1       7.5452194479      10.0000000000
1056 1       7.2471570230       8.0000000000
1057 1       6.7743365601       8.0000000000
1058 1       7.0375408280      10.0000000000
1059 1       7.9762129494      12.0000000000
1060 1       7.0756475214       7.0000000000
1061 1       6.9091693213       8.0000000000
1062 1       7.2968131770       7.0000000000
1063 1       7.3527290168       7.0000000000
1064 1       7.3294631973       8.0000000000
1065 1       7.1487402106      10.0000000000
1066 1       7.2831025741       9.0000000000
1067 1       7.0067696056       7.0000000000
1068 1       7.4519924977      10.0000000000
1069 1       7.3402533308       9.0000000000
1070 1       7.9465152450       8.0000000000
1071 1       6.9058486228       9.0000000000
1072 1       7.1303081079      11.0000000000
1073 1       6.9232790194      10.0000000000
1074 1       7.6392959240      10.0000000000
1075 1       7.3670926933       9.0000000000
1076 1       7.3632753098      11.0000000000
1077 1       7.4579334522       8.0000000000
1078 1       7.6751471002      10.0000000000
1079 1       7.4996626078       8.0000000000
1080 1       7.1821283859       9.0000000000
1081 1       8.0555328396      11.0000000000
1082 1       7.1519192425       7.0000000000
1083 1       7.2327021541      10.0000000000
1084 1       7.6385756276       9.0000000000
1085 1       7.7061947842       8.0000000000
1086 1       7.7152687137       8.0000000000
1087 1       7.2712862260      10.0000000000
1088 1       6.8083599558       9.0000000000
1089 1       8.0519546515       9.0000000000
1090 1       7.3304356802       9.0000000000
1091 1       6.8248122810       9.0000000000
1092 1       6.8780586528       9.0000000000
1093 1       7.5151998252       9.0000000000
1094 1       7.8163957696       8.0000000000
1095 1       7.2533197647       8.0000000000
1096 1       7.0540041141       9.0000000000
1097 1       6.9957796297       9.0000000000
1098 1       7.0773001048      10.0000000000
1099 1       7.1144023824      11.0000000000
1100 1       7.1792727911      11.0000000000
1101 1       6.5751636772       7.0000000000
1102 1       7.6002239824      12.0000000000
1103 1       6.9006900987      11.0000000000
1104 1       7.1620106244       7.0000000000
1105 1       7.2124405810       8.0000000000
1106 1       7.1498991952      10.0000000000
1107 1       7.3837997450       7.0000000000
1108 1       6.8248468034      11.0000000000
1109 1       7.1864541318       8.0000000000
1110 1       7.1514428412      10.0000000000
1111 1       6.8065993752       9.0000000000
1112 1       7.4806492768       8.0000000000
1113 1       6.9337590042      10.0000000000
1114 1       7.4226940366       8.0000000000
1115 1       6.6825947140      11.0000000000
1116 1       7.6644566168       8.0000000000
1117 1       7.5397760625      10.0000000000
1118 1       7.6984106165      10.0000000000
1119 1       7.8678307174       9.0000000000
1120 1       7.0219334665       8.0000000000
1121 1       6.8863458330       9.0000000000
1122 1       7.2302115882      12.0000000000
1123 1       7.1416313804       8.0000000000
1124 1       7.5797932625       9.0000000000
1125 1       7.9443834024      10.0000000000
1126 1       7.7357318500       9.0000000000
1127 1       6.9946097229       9.0000000000
1128 1       6.5706223591       9.0000000000
1129 1       7.2233132521      11.0000000000
1130 1       7.0857351107      10.0000000000
1131 1       7.1176349810      10.0000000000
1132 1       7.0322357471       9.0000000000
1133 1       7.0565272569       9.0000000000
1134 1       7.4766080383       9.0000000000
1135 1       6.9587512392       9.0000000000
1136 1       7.3769358582       9.0000000000
1137 1       6.4537085866       7.0000000000
1138 1       7.3182596832       9.0000000000
1139 1       7.3526915255       7.0000000000
1140 1       7.1488798053      10.0000000000
1141 1       7.2455276842       9.0000000000
1142 1       6.7980617470      11.0000000000
1143 1       6.8907157375      10.0000000000
1144 1       7.4226707120       8.0000000000
1145 1       7.3597419601       8.0000000000
1146 1       7.0978916965       9.0000000000
1147 1       7.8530838038       9.0000000000
1148 1       7.2615575329       9.0000000000
1149 1       7.3591085846       9.0000000000
1150 1       7.3882396531      12.0000000000
1151 1       7.1749505085       8.0000000000
1152 1       7.2525107548       9.0000000000
1153 1       6.7253157503      10.0000000000
1154 1       7.5315332963       8.0000000000
1155 1       7.3067915629       9.0000000000
1156 1       7.1087924958       8.0000000000
1157 1       7.1302029663      10.0000000000
1158 1       7.0756343861       7.0000000000
1159 1       7.2359252566      10.0000000000
1160 1       7.6037456651       9.0000000000
1161 1       7.4408622554       9.0000000000
1162 1       7.3525222650       9.0000000000
1163 1       7.0460549715       9.0000000000
1164 1       7.3506597852       8.0000000000
1165 1       7.1834553174      13.0000000000
1166 1       6.9657874901       7.0000000000
1167 1       7.2500470337       9.0000000000
1168 1       7.2565814005      11.0000000000
1169 1       7.6516929346       9.0000000000
1170 1       6.6872606808       9.0000000000
1171 1       7.1678938769      10.0000000000
1172 1       7.0755357479       9.0000000000
1173 1       6.5362893662       9.0000000000
1174 1       7.2302514096       8.0000000000
1175 1       7.1843294331       7.0000000000
1176 1       6.7749013516       9.0000000000
1177 1       7.2453369598       9.0000000000
1178 1       7.3270187217       8.0000000000
1179 1       7.0949648834       8.0000000000
1180 1       6.6867817510      10.0000000000
1181 1       7.3459955263       9.0000000000
1182 1       7.8179218452       9.0000000000
1183 1       7.3687683020       8.0000000000
1184 1       7.3165847687      10.0000000000
1185 1       7.3592862654       7.0000000000
1186 1       6.9889103766       9.0000000000
1187 1       7.2698407682      11.0000000000
1188 1       6.6912206439       9.0000000000
1189 1       7.0247390012      10.0000000000
1190 1       7.1039882413       9.0000000000
1191 1       7.2311074116       7.0000000000
1192 1       6.5897252125       8.0000000000
1193 1       7.0852346633       9.0000000000
1194 1       7.2128339759       9.0000000000
1195 1       7.4574236281      12.0000000000
1196 1       6.8999626185      10.0000000000
1197 1       6.8265216204      12.0000000000
1198 1       7.1465418300       8.0000000000
1199 1       7.5957543140      11.0000000000
1200 1       7.4684326953       8.0000000000
1201 1       6.9506650230      10.0000000000
1202 1       7.4444674867      10.0000000000
1203 1       7.5563235438      10.0000000000
1204 1       7.5789347896       9.0000000000
1205 1       7.6442960841      11.0000000000
1206 1       7.3136490653       7.0000000000
1207 1       7.2760198697      10.0000000000
1208 1       7.3830052572      11.0000000000
1209 1       7.1242728839       8.0000000000
1210 1       7.3769826092       9.0000000000
1211 1       6.8965450038      12.0000000000
1212 1       6.9506410714       8.0000000000
1213 1       6.7297354355      10.0000000000
1214 1       7.2751416637      11.0000000000
1215 1       7.2112003425      11.0000000000
1216 1       7.6988300983      12.0000000000
1217 1       7.3932185348      10.0000000000
1218 1       7.2998940633      13.0000000000
1219 1       7.3761903089      11.0000000000
1220 1       7.3464096785       9.0000000000
1221 1       7.8986679125      10.0000000000
1222 1       7.3585941018       7.0000000000
1223 1       6.6894682345       8.0000000000
1224 1       7.0497031765       9.0000000000
1225 1       7.1331736788       7.0000000000
1226 1       7.1849482045       9.0000000000
1227 1       6.8133807492       9.0000000000
1228 1       6.8771000317      12.0000000000
1229 1       7.2756921539       9.0000000000
1230 1       7.0095110936       8.0000000000
1231 1       7.1922273374       9.0000000000
1232 1       7.7062029059      11.0000000000
1233 1       7.2731689649       7.0000000000
1234 1       7.0720700246       9.0000000000
1235 1       7.4139823757       7.0000000000
1236 1       7.4264837386       9.0000000000
1237 1       7.2653636883       8.0000000000
1238 1       7.0934055844       7.0000000000
1239 1       7.1939029263       8.0000000000
1240 1       7.2431459218      12.0000000000
1241 1       6.6076971012       9.0000000000
1242 1       7.2763074752       9.0000000000
1243 1       7.2636287095      10.0000000000
1244 1       7.0536410111       7.0000000000
1245 1       7.3348659368      10.0000000000
1246 1       7.7587020440       9.0000000000
1247 1       7.1584377844      12.0000000000
1248 1       7.1178669298       9.0000000000
1249 1       6.8522799902       7.0000000000
1250 1       7.2416662668      10.0000000000
1251 1       6.8362661341      13.0000000000
1252 1       7.2941711501       8.0000000000
1253 1       7.3920832587      12.0000000000
1254 1       6.4563550359      10.0000000000
1255 1       7.0488821249      10.0000000000
1256 1       7.4626790992      11.0000000000
1257 1       7.2786811993      10.0000000000
1258 1       7.3854396451      11.0000000000
1259 1       6.9530991885       9.0000000000
1260 1       7.0204093849       9.0000000000
1261 1       6.8848185681      12.0000000000
1262 1       7.7090748783      11.0000000000
1263 1       6.9828385813       8.0000000000
1264 1       7.2468246807      10.0000000000
1265 1       6.8461986571      10.0000000000
1266 1       7.3039975516       8.0000000000
1267 1       6.9428333281      10.0000000000
1268 1       7.1211358963      10.0000000000
1269 1       6.9183431133       8.0000000000
1270 1       7.3206637038      10.0000000000
1271 1       6.6894756800       8.0000000000
1272 1       7.7009519648       9.0000000000
1273 1       7.3643710838       9.0000000000
1274 1       7.3849538562      13.0000000000
1275 1       7.4001328858      10.0000000000
1276 1       7.2435631158      11.0000000000
1277 1       7.5756376822      10.0000000000
1278 1       6.7371702476       9.0000000000
1279 1       7.8118759431      13.0000000000
1280 1       7.3276759377      10.0000000000
1281 1       7.4644227853       9.0000000000
1282 1       6.6343200048       9.0000000000
1283 1       6.8321346222       8.0000000000
1284 1       7.4912726480      11.0000000000
1285 1       8.0442821688       9.0000000000
1286 1       7.7320864843      11.0000000000
1287 1       7.7340703411      11.0000000000
1288 1       7.8975424383      12.0000000000
1289 1       7.0145714858      13.0000000000
1290 1       7.0594449484       9.0000000000
1291 1       7.1907148505      10.0000000000
1292 1       6.7240108243       9.0000000000
1293 1       6.6579400682      10.0000000000
1294 1       7.3557120585       9.0000000000
1295 1       7.0006725454       8.0000000000
1296 1       7.2377328454      10.0000000000
1297 1       7.1353412721      10.0000000000
1298 1       7.2257312369       9.0000000000
1299 1       7.1672961775       9.0000000000
1300 1       6.9246907080       9.0000000000
1301 1       7.2962581188       8.0000000000
1302 1       6.7001140836      12.0000000000
1303 1       7.2011609962      10.0000000000
1304 1       7.3482369245       9.0000000000
1305 1       7.3837329629      11.0000000000
1306 1       7.1173809157      10.0000000000
1307 1       7.9750726364      11.0000000000
1308 1       7.6153320402       8.0000000000
1309 1       7.0432285188      11.0000000000
1310 1       6.9876685974      10.0000000000
1311 1       6.8670137119       9.0000000000
1312 1       6.9891155980       8.0000000000
1313 1       7.2842329478      10.0000000000
1314 1       7.4521807425      10.0000000000
1315 1       6.9566490719      12.0000000000
1316 1       7.4946432204      10.0000000000
1317 1       6.8738681338      11.0000000000
1318 1       7.6352770625      11.0000000000
1319 1       7.2227506685      11.0000000000
1320 1       7.2697144457      10.0000000000
1321 1       7.0552070266      10.0000000000
1322 1       6.6252862833      10.0000000000
1323 1       7.1451934648      12.0000000000
1324 1       6.9870401290      10.0000000000
1325 1       7.3493309973       9.0000000000
1326 1       7.1993339359      11.0000000000
1327 1       7.1054288974       8.0000000000
1328 1       7.8339325883      12.0000000000
1329 1       7.1830562726      10.0000000000
1330 1       7.0987913738       9.0000000000
1331 1       7.0301176118       7.0000000000
1332 1       6.9640890475      10.0000000000
1333 1       7.2091966877      10.0000000000
1334 1       7.2884262199      10.0000000000
1335 1       7.1802765411       8.0000000000
1336 1       7.6073485741      11.0000000000
1337 1       6.7285095751       9.0000000000
1338 1       6.9664479581       9.0000000000
1339 1       6.9762585770      13.0000000000
1340 1       7.0335321401       8.0000000000
1341 1       6.9903911171       8.0000000000
1342 1       7.1776501258       9.0000000000
1343 1       7.0296294690       9.0000000000
1344 1       7.3321616645       9.0000000000
1345 1       7.2933299636       9.0000000000
1346 1       7.1278683394       9.0000000000
1347 1       7.3727765524       8.0000000000
1348 1       7.1613122256      11.0000000000
1349 1       6.6757329461       8.0000000000
1350 1       7.2000091135       9.0000000000
1351 1       7.4811553343       9.0000000000
1352 1       7.2571136075      13.0000000000
1353 1       7.3776378665      10.0000000000
1354 1       6.9639507258      11.0000000000
1355 1       7.2597403554       9.0000000000
1356 1       8.0866354632      12.0000000000
1357 1       7.3684795692      10.0000000000
1358 1       7.1627414634      11.0000000000
1359 1       6.9853082932       9.0000000000
1360 1       8.1025250552      12.0000000000
1361 1       6.7742745298       9.0000000000
1362 1       6.9876317226       9.0000000000
1363 1       7.1775644822      11.0000000000
1364 1       7.1966300630       9.0000000000
1365 1       7.0150045406      11.0000000000
1366 1       7.3655324403      11.0000000000
1367 1       7.0352607507       9.0000000000
1368 1       6.9959748394       8.0000000000
1369 1       6.8493869086      10.0000000000
1370 1       7.0290315878      10.0000000000
1371 1       7.6246897959       9.0000000000
1372 1       7.1583500534      10.0000000000
1373 1       7.0540219560       9.0000000000
1374 1       7.5062334225       9.0000000000
1375 1       7.2479056062       9.0000000000
1376 1       7.6947393538       9.0000000000
1377 1       7.4816704371       9.0000000000
1378 1       7.6044817452       7.0000000000
1379 1       7.3188574667      10.0000000000
1380 1       7.3236228356      10.0000000000
1381 1       6.7955814545       9.0000000000
1382 1       6.9536567921       9.0000000000
1383 1       7.7576846228      11.0000000000
1384 1       7.2556226129       9.0000000000
1385 1       7.6127873034       8.0000000000
1386 1       7.4819673726      13.0000000000
1387 1       7.3733021554       9.0000000000
1388 1       7.0237279683       9.0000000000
1389 1       7.4599546016       8.0000000000
1390 1       7.4264233932       8.0000000000
1391 1       7.0939093715       8.0000000000
1392 1       7.4711401453       9.0000000000
1393 1       7.1076629593       7.0000000000
1394 1       7.5285941382      11.0000000000
1395 1       7.3050935528      12.0000000000
1396 1       7.4964263861      11.0000000000
1397 1       6.9396101892      10.0000000000
1398 1       7.2479030910      11.0000000000
1399 1       7.3494907347       7.0000000000
1400 1       7.1903985139       9.0000000000
1401 1       7.4376166039       8.0000000000
1402 1       7.0052291347      11.0000000000
1403 1       7.3895258264      12.0000000000
1404 1       7.4958364176      11.0000000000
1405 1       7.1145855700       9.0000000000
1406 1       7.3533834613       8.0000000000
1407 1       7.1070747127       7.0000000000
1408 1       6.9252693760      12.0000000000
1409 1       6.8779240813       9.0000000000
1410 1       7.1111578331       8.0000000000
1411 1       7.7578568529       7.0000000000
1412 1       7.6594913653      11.0000000000
1413 1       6.8302949903       7.0000000000
1414 1       6.6726460933      11.0000000000
1415 1       7.1028352563       9.0000000000
1416 1       6.9469931476      10.0000000000
1417 1       7.3331117100       8.0000000000
1418 1       7.1641488469       9.0000000000
1419 1       7.0829076286      10.0000000000
1420 1       7.0467035350       9.0000000000
1421 1       7.3949093210       8.0000000000
1422 1       7.4645856146      11.0000000000
1423 1       7.0401965571       8.0000000000
1424 1       6.9389642355       8.0000000000
1425 1       8.2374632571      10.0000000000
1426 1       7.3242007486       9.0000000000
1427 1       7.9896504809       9.0000000000
1428 1       7.2541386163       8.0000000000
1429 1       7.5122937521       9.0000000000
1430 1       6.9745456199      10.0000000000
1431 1       7.7585561880      12.0000000000
1432 1       7.2435445311       8.0000000000
1433 1       7.5444511732       8.0000000000
1434 1       6.9817229508      11.0000000000
1435 1       6.9731395711       7.0000000000
1436 1       7.1786174758      11.0000000000
1437 1       7.2037733057       7.0000000000
1438 1       6.9894843219      11.0000000000
1439 1       7.3362158359      10.0000000000
1440 1       7.1242173462      11.0000000000
1441 1       7.0819665463       7.0000000000
1442 1       7.2115733835       9.0000000000
1443 1       7.7887516043      11.0000000000
1444 1       7.2585501079       8.0000000000
1445 1       7.1950183732      13.0000000000
1446 1       7.1525788514       9.0000000000
1447 1       7.1241844681       7.0000000000
1448 1       7.8592047973      10.0000000000
1449 1       6.7460653826       8.0000000000
1450 1       7.1792909879      10.0000000000
1451 1       7.0655238660      10.0000000000
1452 1       7.2149840557       9.0000000000
1453 1       7.4891944250      10.0000000000
1454 1       7.1381128128       9.0000000000
1455 1       7.2813720997      10.0000000000
1456 1       6.9886300165      10.0000000000
1457 1       6.9997464159       8.0000000000
1458 1       7.3922238931       9.0000000000
1459 1       7.0340965954       8.0000000000
1460 1       7.3789330481       9.0000000000
1461 1       6.9227076892       8.0000000000
1462 1       6.8906320662       8.0000000000
1463 1       7.0133976874      10.0000000000
1464 1       6.8827176346      10.0000000000
1465 1       7.7279752083      11.0000000000
1466 1       7.7746799210       9.0000000000
1467 1       7.1737123410       9.0000000000
1468 1       7.3934316470      12.0000000000
1469 1       7.3298073123      10.0000000000
1470 1       7.0651361470      10.0000000000
1471 1       7.2413524926      10.0000000000
1472 1       7.1991997531      13.0000000000
1473 1       7.2338692312      11.0000000000
1474 1       8.4363562267       9.0000000000
1475 1       7.2560462001      12.0000000000
1476 1       6.9963142201       9.0000000000
1477 1       7.3400438129       9.0000000000
1478 1       7.4375510242      12.0000000000
1479 1       7.1452269246       9.0000000000
1480 1       7.5402769998       9.0000000000
1481 1       7.1832818864       9.0000000000
1482 1       7.5604682263      11.0000000000
1483 1       7.2378521505       8.0000000000
1484 1       7.3051135900       9.0000000000
1485 1       7.6455770341      11.0000000000
1486 1       7.3209422537      10.0000000000
1487 1       6.8423512316      12.0000000000
1488 1       7.2465319595       9.0000000000
1489 1       7.2175924214      10.0000000000
1490 1       7.3731141173       8.0000000000
1491 1       7.2490273077      11.0000000000
1492 1       7.0754937681      10.0000000000
1493 1       7.5980647940      10.0000000000
1494 1       7.4847744745      10.0000000000
1495 1       7.6766379377       9.0000000000
1496 1       7.2458299560      10.0000000000
1497 1       6.9214810374      10.0000000000
1498 1       6.6444828698      10.0000000000
1499 1       7.2910410250       8.0000000000
1500 1       7.4826181493      10.0000000000
1501 1       6.9114335745      10.0000000000
1502 1       6.8969157500      11.0000000000
1503 1       8.0122584806      12.0000000000
1504 1       7.2058888496       9.0000000000
1505 1       6.9721536012       9.0000000000
1506 1       6.9836074802       8.0000000000
1507 1       7.3250165207       7.0000000000
1508 1       6.9681332774       8.0000000000
1509 1       7.6272494175       8.0000000000
1510 1       7.0321950248       8.0000000000
1511 1       6.8433385062       8.0000000000
1512 1       7.3470673887       9.0000000000
1513 1       7.2162868579       9.0000000000
1514 1       6.6347656901       7.0000000000
1515 1       6.9999456965       9.0000000000
1516 1       7.0782638074      11.0000000000
1517 1       7.6864641067       9.0000000000
1518 1       7.6316804451      12.0000000000
1519 1       6.8536854192       7.0000000000
1520 1       6.9723073526       9.0000000000
1521 1       7.2780152946       9.0000000000
1522 1       7.2747065389       8.0000000000
1523 1       8.0212696913       9.0000000000
1524 1       7.2963688006       8.0000000000
1525 1       7.0152104289      10.0000000000
1526 1       7.4709079579       9.0000000000
1527 1       7.8082800920      11.0000000000
1528 1       7.4697954248       9.0000000000
1529 1       7.4881987722      12.0000000000
1530 1       7.5161514375       9.0000000000
1531 1       7.1921677703       8.0000000000
1532 1       7.4533703889       9.0000000000
1533 1       7.0191836568      10.0000000000
1534 1       6.7438940316      10.0000000000
1535 1       7.4197813113      11.0000000000
1536 1       7.3799257287      11.0000000000
1537 1       6.9465534924       8.0000000000
1538 1       6.7491304350      10.0000000000
1539 1       7.9615766973      10.0000000000
1540 1       6.7553117248      12.0000000000
1541 1       7.1677448559      10.0000000000
1542 1       7.2095686824      11.0000000000
1543 1       7.2379042526      11.0000000000
1544 1       7.5581542180       9.0000000000
1545 1       7.1406310112       9.0000000000
1546 1       7.5971338087      11.0000000000
1547 1       6.8742930530      10.0000000000
1548 1       7.3054246915       7.0000000000
1549 1       7.3571584165       9.0000000000
1550 1       7.6440521593      12.0000000000
1551 1       7.4873572985       9.0000000000
1552 1       7.7664366267      11.0000000000
1553 1       7.2858457179       8.0000000000
1554 1       7.6599434613      10.0000000000
1555 1       7.0546607076      10.0000000000
1556 1       7.0417054381       8.0000000000
1557 1       7.5742800971       9.0000000000
1558 1       7.0315887818      11.0000000000
1559 1       7.0558900810      10.0000000000
1560 1       7.2405337651      11.0000000000
1561 1       7.5320539945       9.0000000000
1562 1       6.9701497532       9.0000000000
1563 1       7.3073932790      10.0000000000
1564 1       7.0540879483       8.0000000000
1565 1       7.2154374462       9.0000000000
1566 1       6.7481406127      10.0000000000
1567 1       7.4708683413      10.0000000000
1568 1       7.2439149916      12.0000000000
1569 1       7.3847584395       9.0000000000
1570 1       6.7497875241      10.0000000000
1571 1       6.9559665263       7.0000000000
1572 1       7.3233798533       9.0000000000
1573 1       7.1010597278      10.0000000000
1574 1       7.1876453064      10.0000000000
1575 1       7.0642467757      10.0000000000
1576 1       7.4043773779       9.0000000000
1577 1       7.3466787629       9.0000000000
1578 1       6.8282918039      10.0000000000
1579 1       7.3538347825       8.0000000000
1580 1       6.5739524913       8.0000000000
1581 1       7.5973796368      11.0000000000
1582 1       7.4965673478      12.0000000000
1583 1       7.1660312769       8.0000000000
1584 1       6.7038432859       9.0000000000
1585 1       6.6887561359      12.0000000000
1586 1       6.6598875441       8.0000000000
1587 1       7.1814955216       9.0000000000
1588 1       7.3801749938      10.0000000000
1589 1       7.3065406159       9.0000000000
1590 1       7.4407087128      13.0000000000
1591 1       6.6478429178       9.0000000000
1592 1       6.9445394916       7.0000000000
1593 1       7.2040310359       7.0000000000
1594 1       6.8700541536       9.0000000000
1595 1       7.0341551354       8.0000000000
1596 1       6.9814901571      10.0000000000
1597 1       7.1099346861       8.0000000000
1598 1       7.3887701139      11.0000000000
1599 1       7.8572889309       8.0000000000
1600 1       7.2933856883       9.0000000000
1601 1       7.7367011060       8.0000000000
1602 1       7.1715698876      10.0000000000
1603 1       7.5827491564       9.0000000000
1604 1       6.5473481575      10.0000000000
1605 1       6.9589807997       9.0000000000
1606 1       7.7072809854       9.0000000000
1607 1       7.0554523847       8.0000000000
1608 1       7.9538286952       9.0000000000
1609 1       7.8262521695      10.0000000000
1610 1       7.1755105391      10.0000000000
1611 1       7.3879743389       8.0000000000
1612 1       7.5327246448       9.0000000000
1613 1       7.2805704790       7.0000000000
1614 1       7.3579053867       9.0000000000
1615 1       7.1552439120       8.0000000000
1616 1       7.5839664016      10.0000000000
1617 1       7.7187686882      10.0000000000
1618 1       7.5595448580      11.0000000000
1619 1       7.2573653167      11.0000000000
1620 1       7.5454663727      10.0000000000
1621 1       7.5357334050      12.0000000000
1622 1       7.0269941125      10.0000000000
1623 1       7.1569279520      12.0000000000
1624 1       7.2093249126       9.0000000000
1625 1       7.0476889115      10.0000000000
1626 1       7.1627203069      11.0000000000
1627 1       7.4996497763       7.0000000000
1628 1       7.2201555707      10.0000000000
1629 1       7.2738437819       9.0000000000
1630 1       6.6515188620       8.0000000000
1631 1       6.5822316451       9.0000000000
1632 1       7.2617821587      14.0000000000
1633 1       7.2244163655       9.0000000000
1634 1       7.0610069217       8.0000000000
1635 1       7.2143545507       9.0000000000
1636 1       7.1043196523      11.0000000000
1637 1       7.7570549966       9.0000000000
1638 1       7.6323757625      10.0000000000
1639 1       7.5881884468      10.0000000000
1640 1       7.9245248011       9.0000000000
1641 1       7.4820021528       8.0000000000
1642 1       7.1973014409       7.0000000000
1643 1       7.1530225780      11.0000000000
1644 1       6.6778905450       9.0000000000
1645 1       6.9815490797       8.0000000000
1646 1       7.2398057846      12.0000000000
1647 1       7.0295622743      11.0000000000
1648 1       7.1310071996       7.0000000000
1649 1       7.5040841258      10.0000000000
1650 1       7.1978278238      11.0000000000
1651 1       7.2538563589       8.0000000000
1652 1       7.9840257930      11.0000000000
1653 1       6.6725681253       9.0000000000
1654 1       7.5871708587      10.0000000000
1655 1       7.7345269672      13.0000000000
1656 1       7.2904380482      13.0000000000
1657 1       7.4247065876       9.0000000000
1658 1       7.4380150035       9.0000000000
1659 1       7.3654244492       9.0000000000
1660 1       7.1966853796       9.0000000000
1661 1       7.1414229105      10.0000000000
1662 1       7.4291130654      11.0000000000
1663 1       6.9504222609       9.0000000000
1664 1       7.5595616157       9.0000000000
1665 1       6.9338896002       8.0000000000
1666 1       7.0304093188       8.0000000000
1667 1       6.8777517255       9.0000000000
1668 1       7.5059666861       8.0000000000
1669 1       7.1954974191       9.0000000000
1670 1       7.5378740392      11.0000000000
1671 1       7.0414817838       7.0000000000
1672 1       6.9162377365       9.0000000000
1673 1       7.1616528264       8.0000000000
1674 1       7.6214805359      10.0000000000
1675 1       7.1644513229       8.0000000000
1676 1       7.5343371249       8.0000000000
1677 1       6.9892803358       9.0000000000
1678 1       7.6906559133      12.0000000000
1679 1       7.3086920396      10.0000000000
1680 1       7.0167565753      10.0000000000
1681 1       7.4691532596      10.0000000000
1682 1       7.3600951874       9.0000000000
1683 1       7.9700729598      11.0000000000
1684 1       8.0057975199       7.0000000000
1685 1       7.5834367416       7.0000000000
1686 1       7.0883600015       9.0000000000
1687 1       7.3941152487       9.0000000000
1688 1       7.2138391338      12.0000000000
1689 1       7.2913227385       9.0000000000
1690 1       7.7664588791      12.0000000000
1691 1       8.1765984037      11.0000000000
1692 1       7.6600222108      12.0000000000
1693 1       6.7912629081       7.0000000000
1694 1       7.4074526265      10.0000000000
1695 1       7.6143773501       9.0000000000
1696 1       6.6176444403      10.0000000000
1697 1       7.4146041312       9.0000000000
1698 1       7.5097452376       9.0000000000
1699 1       7.1014727625       9.0000000000
1700 1       7.5322151559       9.0000000000
1701 1       7.4980058228       9.0000000000
1702 1       7.3707558781      10.0000000000
1703 1       7.2585669692       7.0000000000
1704 1       7.6195472771      11.0000000000
1705 1       6.7957451815       8.0000000000
1706 1       6.8690208629      10.0000000000
1707 1       7.0532287685       8.0000000000
1708 1       6.9841936531       8.0000000000
1709 1       6.9387696548       8.0000000000
1710 1       7.2238367961       8.0000000000
1711 1       7.6628480024       8.0000000000
1712 1       7.5040377770       8.0000000000
1713 1       7.1286190035       7.0000000000
1714 1       7.0752917697       9.0000000000
1715 1       6.7863373457       8.0000000000
1716 1       7.0606140465       9.0000000000
1717 1       6.9521656741       9.0000000000
1718 1       7.1648574249       9.0000000000
1719 1       7.2591430848       9.0000000000
1720 1       6.9851478823      10.0000000000
1721 1       6.8409421093      10.0000000000
1722 1       7.7401592180      10.0000000000
1723 1       7.3355013894      10.0000000000
1724 1       7.6564424827      10.0000000000
1725 1       7.0228413932       9.0000000000
1726 1       7.3346600911      11.0000000000
1727 1       7.4285383855      10.0000000000
1728 1       7.3990021851      11.0000000000
1729 1       7.0041709112       9.0000000000
1730 1       7.5750558135       9.0000000000
1731 1       7.3837059215      10.0000000000
1732 1       7.4736300785      12.0000000000
1733 1       6.6615949526       9.0000000000
1734 1       7.5690697482      10.0000000000
1735 1       7.2340015512       8.0000000000
1736 1       7.2364498981       9.0000000000
1737 1       7.6463169534       9.0000000000
1738 1       7.6518069055       8.0000000000
1739 1       7.5253133240      10.0000000000
1740 1       7.5584194765       9.0000000000
1741 1       7.2123647514       9.0000000000
1742 1       7.4593708724      12.0000000000
1743 1       7.1910068317      11.0000000000
1744 1       7.1151539989       9.0000000000
1745 1       7.7317890742      12.0000000000
1746 1       6.8462810551       7.0000000000
1747 1       7.2609678650       8.0000000000
1748 1       7.4242991308       9.0000000000
1749 1       8.1159817510       8.0000000000
1750 1       7.4174623015      12.0000000000
1751 1       6.9478589434       9.0000000000
1752 1       7.8224162922       8.0000000000
1753 1       7.6365083208      10.0000000000
1754 1       6.9950499542       9.0000000000
1755 1       7.0996775472       8.0000000000
1756 1       7.3963836266      11.0000000000
1757 1       7.1781436627       8.0000000000
1758 1       7.6799838696      11.0000000000
1759 1       7.4704726362       8.0000000000
1760 1       7.4012666991       9.0000000000
1761 1       7.5417259503      12.0000000000
1762 1       7.2714812870       9.0000000000
1763 1       7.4456948760       9.0000000000
1764 1       7.2010713240       9.0000000000
1765 1       7.0588898127      10.0000000000
1766 1       6.6131573099       8.0000000000
1767 1       7.2865586424       7.0000000000
1768 1       7.0620559560      11.0000000000
1769 1       7.5266392289       7.0000000000
1770 1       6.9458127328       8.0000000000
1771 1       7.1989230544       9.0000000000
1772 1       7.2650864766      10.0000000000
1773 1       7.0181565876       9.0000000000
1774 1       7.5680408098       9.0000000000
1775 1       7.1311250395      12.0000000000
1776 1       7.3565929337      11.0000000000
1777 1       6.7269639956       8.0000000000
1778 1       7.3915251280      11.0000000000
1779 1       7.0520433721       8.0000000000
1780 1       7.2522999220       9.0000000000
1781 1       7.3031112717       8.0000000000
1782 1       7.3748299698       8.0000000000
1783 1       7.0671050958       9.0000000000
1784 1       7.2232187848      10.0000000000
1785 1       7.4506358665       8.0000000000
1786 1       7.1828011255      12.0000000000
1787 1       7.4604946999       9.0000000000
1788 1       6.9301450303      11.0000000000
1789 1       6.8832906720       9.0000000000
1790 1       7.0929614683       8.0000000000
1791 1       7.0339803418       9.0000000000
1792 1       7.9702263648      10.0000000000
1793 1       7.8025394758       7.0000000000
1794 1       7.0055528190       8.0000000000
1795 1       6.9621847132       8.0000000000
1796 1       7.2679008420      11.0000000000
1797 1       6.6160027058       8.0000000000
1798 1       7.6120454513      12.0000000000
1799 1       7.3998016145      10.0000000000
1800 1       6.7355987842       9.0000000000
1801 1       6.8935914126       9.0000000000
1802 1       7.2014748987      10.0000000000
1803 1       7.4260018921       9.0000000000
1804 1       6.8530761244      11.0000000000
1805 1       7.6511024466       9.0000000000
1806 1       7.5724096048      13.0000000000
1807 1       7.2291457241      11.0000000000
1808 1       7.6555432158      12.0000000000
1809 1       7.2988986521      11.0000000000
1810 1       6.9668624522       8.0000000000
1811 1       7.7440180245      10.0000000000
1812 1       7.6182566608       8.0000000000
1813 1       6.7828552212       9.0000000000
1814 1       7.2981694466      10.0000000000
1815 1       7.0889665503      10.0000000000
1816 1       7.0045283253       9.0000000000
1817 1       7.2628881437      10.0000000000
1818 1       7.6879616258      10.0000000000
1819 1       7.2472697590       8.0000000000
1820 1       7.2803072640       9.0000000000
1821 1       7.0352229652       9.0000000000
1822 1       7.4391371853       9.0000000000
1823 1       7.0120458196      11.0000000000
1824 1       7.8411279163       9.0000000000
1825 1       6.5998738594       8.0000000000
1826 1       7.5047407632      11.0000000000
1827 1       7.7798368609       8.0000000000
1828 1       7.6849477627       8.0000000000
1829 1       7.1424557895       8.0000000000
1830 1       6.6852216748       8.0000000000
1831 1       7.1979330604      14.0000000000
1832 1       6.8059259359       9.0000000000
1833 1       6.7815806231       9.0000000000
1834 1       7.6049129386      10.0000000000
1835 1       7.9562545942      13.0000000000
1836 1       7.4079561106      10.0000000000
1837 1       7.3452164234       8.0000000000
1838 1       7.5218230166       9.0000000000
1839 1       7.0430601534      11.0000000000
1840 1       7.6962257459       7.0000000000
1841 1       7.3562961880      10.0000000000
1842 1       7.4368476786       9.0000000000
1843 1       7.5815853906       9.0000000000
1844 1       7.2745831225      10.0000000000
1845 1       7.0358202277       9.0000000000
1846 1       6.9181769238       9.0000000000
1847 1       7.6492408354      10.0000000000
1848 1       7.8404521422      11.0000000000
1849 1       7.5965379720      10.0000000000
1850 1       7.6939095482      10.0000000000
1851 1       7.3977288407      10.0000000000
1852 1       7.7695435158      10.0000000000
1853 1       7.6865816821      11.0000000000
1854 1       7.2381215627      10.0000000000
1855 1       7.5067475763      10.0000000000
1856 1       7.2062174138       9.0000000000
1857 1       7.5482769375       9.0000000000
1858 1       7.4281875115      11.0000000000
1859 1       7.0963166212      10.0000000000
1860 1       7.3257275241      10.0000000000
1861 1       8.0657256358       9.0000000000
1862 1       6.7764641678       8.0000000000
1863 1       7.0674630760       8.0000000000
1864 1       6.8359476772       8.0000000000
1865 1       7.3629454900       8.0000000000
1866 1       7.1768434550       7.0000000000
1867 1       7.2969836457       7.0000000000
1868 1       7.3929394548      10.0000000000
1869 1       7.1543094056      11.0000000000
1870 1       7.2881519982      11.0000000000
1871 1       6.9913015975      14.0000000000
1872 1       7.2025431465       9.0000000000
1873 1       7.2349599430       8.0000000000
1874 1       7.5779373127      10.0000000000
1875 1       7.7700435364      10.0000000000
1876 1       7.7962538179       7.0000000000
1877 1       7.5195994257       9.0000000000
1878 1       7.5098693404      12.0000000000
1879 1       7.2205099685      10.0000000000
1880 1       6.8454733315       9.0000000000
1881 1       7.4780054970      11.0000000000
1882 1       7.5241747153      10.0000000000
1883 1       6.6084307233       8.0000000000
1884 1       7.1914032895       9.0000000000
1885 1       6.5158889631       8.0000000000
1886 1       7.3327295145       9.0000000000
1887 1       7.8612054987      13.0000000000
1888 1       7.3940860493       9.0000000000
1889 1       6.5517044756       9.0000000000
1890 1       7.1483533308      10.0000000000
1891 1       7.3409296901       9.0000000000
1892 1       7.3060263597      11.0000000000
1893 1       7.1854003700       9.0000000000
1894 1       6.8330487070       9.0000000000
1895 1       7.0178263487       9.0000000000
1896 1       7.3828546564      11.0000000000
1897 1       7.3727288983       7.0000000000
1898 1       7.3889162429       9.0000000000
1899 1       7.0417108604       9.0000000000
1900 1       7.3448611735       8.0000000000
1901 1       7.2916814463       8.0000000000
1902 1       7.3519466041      10.0000000000
1903 1       6.6522602241      10.0000000000
1904 1       7.1267853441       7.0000000000
1905 1       7.5990680467       9.0000000000
1906 1       6.6009721895       9.0000000000
1907 1       7.6491572554      10.0000000000
1908 1       7.3623287666       7.0000000000
1909 1       7.4775091690       9.0000000000
1910 1       7.0453037310      11.0000000000
1911 1       7.5105907400       7.0000000000
1912 1       7.0185021649       9.0000000000
1913 1       6.8130299536       8.0000000000
1914 1       7.1671371631       9.0000000000
1915 1       7.1393044046       7.0000000000
1916 1       7.5178644107       9.0000000000
1917 1       7.0197566723       8.0000000000
1918 1       7.4642286889      11.0000000000
1919 1       7.3684751188      12.0000000000
1920 1       7.2062852827      10.0000000000
1921 1       7.1630265935      13.0000000000
1922 1       7.0965468032      11.0000000000
1923 1       6.8818902084      10.0000000000
1924 1       7.4579676158       9.0000000000
1925 1       7.3596147496       7.0000000000
1926 1       7.2261192950       7.0000000000
1927 1       7.5162701900      10.0000000000
1928 1       7.2039093096      11.0000000000
1929 1       7.8318838826       9.0000000000
1930 1       7.4861830604      10.0000000000
1931 1       6.9600727726       9.0000000000
1932 1       7.6044072408      11.0000000000
1933 1       7.0480481233      11.0000000000
1934 1       7.3331390044       9.0000000000
1935 1       7.3225700449       7.0000000000
1936 1       7.6904215816      10.0000000000
1937 1       7.8526161197      11.0000000000
1938 1       7.3705298599      10.0000000000
1939 1       7.4441454990      10.0000000000
1940 1       7.1294827819      13.0000000000
1941 1       7.4603080068       9.0000000000
1942 1       7.4455599247      11.0000000000
1943 1       7.1707876632      10.0000000000
1944 1       7.2919948081       9.0000000000
1945 1       7.1128225250      12.0000000000
1946 1       7.1433351577       8.0000000000
1947 1       6.9241656573      10.0000000000
1948 1       7.3885207837       9.0000000000
1949 1       7.3776275794       9.0000000000
1950 1       6.3363928664      10.0000000000
1951 1       7.3145893943       8.0000000000
1952 1       7.0749254914      10.0000000000
1953 1       7.4347744591       9.0000000000
1954 1       7.0970166761       9.0000000000
1955 1       7.0866342610       9.0000000000
1956 1       7.6635035532       9.0000000000
1957 1       7.4491353287       9.0000000000
1958 1       7.1995385544      10.0000000000
1959 1       6.8759457907      10.0000000000
1960 1       7.2344370656       8.0000000000
1961 1       7.6363052074       8.0000000000
1962 1       7.3727295074       9.0000000000
1963 1       7.0047845200       8.0000000000
1964 1       6.8384080973       8.0000000000
1965 1       7.5356632903       8.0000000000
1966 1       7.0971455438      10.0000000000
1967 1       7.4327855396       9.0000000000
1968 1       7.0148504095       9.0000000000
1969 1       7.0119524760      12.0000000000
1970 1       6.6691852397       9.0000000000
1971 1       7.9159145023       9.0000000000
1972 1       6.7696000548      10.0000000000
1973 1       7.4005178222       9.0000000000
1974 1       7.1907799642       7.0000000000
1975 1       6.8650070074       9.0000000000
1976 1       7.8383165562      10.0000000000
1977 1       7.3882814368      11.0000000000
1978 1       6.8164554605       9.0000000000
1979 1       7.0413714020       9.0000000000
1980 1       7.1169745830      10.0000000000
1981 1       7.4389760221      11.0000000000
1982 1       7.1340886965      10.0000000000
1983 1       7.3319020900      10.0000000000
1984 1       7.2545430298       9.0000000000
1985 1       7.0920234629      10.0000000000
1986 1       6.8915685894       9.0000000000
1987 1       8.1786788613       9.0000000000
1988 1       7.3300297322       9.0000000000
1989 1       7.0341847488      11.0000000000
1990 1       7.3716921805      11.0000000000
1991 1       7.0809813634       8.0000000000
1992 1       7.5393090375       7.0000000000
1993 1       7.2803985925       8.0000000000
1994 1       7.1125596927      10.0000000000
1995 1       7.1994399185      11.0000000000
1996 1       8.0655041743       9.0000000000
1997 1       7.0030747621       8.0000000000
1998 1       7.3364639248      10.0000000000
1999 1       7.3990061175      12.0000000000
2000 1       8.0926554932      10.0000000000
2001 1       7.3707431956       8.0000000000
2002 1       6.8895799892      10.0000000000
2003 1       6.9138564695      10.0000000000
2004 1       7.7317328526      12.0000000000
2005 1       7.3721331651       8.0000000000
2006 1       7.0353178360      10.0000000000
2007 1       7.7074158157      10.0000000000
2008 1       7.8047871501       7.0000000000
2009 1       7.3481323976       8.0000000000
2010 1       6.9264370614       8.0000000000
2011 1       7.6429092302       8.0000000000
2012 1       7.4238580060      10.0000000000
2013 1       7.5836491179      10.0000000000
2014 1       7.1164580491      10.0000000000
2015 1       7.1290544244       9.0000000000
2016 1       7.5369108378      11.0000000000
2017 1       7.6480642680      10.0000000000
2018 1       7.5145115449       9.0000000000
2019 1       7.2693105766       9.0000000000
2020 1       7.5159182534      12.0000000000
2021 1       7.6819120876       9.0000000000
2022 1       7.4926184826      11.0000000000
2023 1       6.9524394938      10.0000000000
2024 1       7.6092725705       9.0000000000
2025 1       7.5678911681       9.0000000000
2026 1       6.7999045628       7.0000000000
2027 1       7.9511203013       9.0000000000
2028 1       7.2469030254      12.0000000000
2029 1       7.4195770446       8.0000000000
2030 1       6.7228661073      10.0000000000
2031 1       7.2939343176       8.0000000000
2032 1       7.1938385845      10.0000000000
2033 1       7.6654663814      10.0000000000
2034 1       7.4482643406      12.0000000000
2035 1       7.0001007844       8.0000000000
2036 1       7.0967426270      10.0000000000
2037 1       7.2458928029       8.0000000000
2038 1       7.3561928341       9.0000000000
2039 1       7.4395136794       9.0000000000
2040 1       6.9358966550       8.0000000000
2041 1       7.2243101435       7.0000000000
2042 1       6.8498606080       9.0000000000
2043 1       7.6586902331       7.0000000000
2044 1       7.1372680558      10.0000000000
2045 1       7.2450578611       7.0000000000
2046 1       8.0231711907       9.0000000000
2047 1       6.6607009684       9.0000000000
2048 1       7.1131005578      11.0000000000
2049 1       7.4443514872       9.0000000000
2050 1       6.6836966192       9.0000000000
2051 1       7.3547473353       9.0000000000
2052 1       7.7627767853       8.0000000000
2053 1       7.2340427704      11.0000000000
2054 1       6.5247262468      10.0000000000
2055 1       7.3921211489       7.0000000000
2056 1       6.7061093807       8.0000000000
2057 1       7.4048013969       9.0000000000
2058 1       6.9272706306       9.0000000000
2059 1       7.7566841371       9.0000000000
2060 1       7.5839780105      12.0000000000
2061 1       7.1698860778      11.0000000000
2062 1       7.4981271839       7.0000000000
2063 1       7.5781826138       9.0000000000
2064 1       7.0164669089       9.0000000000
2065 1       6.8670379179       8.0000000000
2066 1       7.6920692712       9.0000000000
2067 1       6.8728598239       9.0000000000
2068 1       6.8927208199      10.0000000000
2069 1       6.9158378671       9.0000000000
2070 1       7.1584404221       8.0000000000
2071 1       7.0194720837       8.0000000000
2072 1       7.3226953777      10.0000000000
2073 1       7.3908248406       8.0000000000
2074 1       7.1982906637       9.0000000000
2075 1       7.4220853047      10.0000000000
2076 1       6.4482820881      10.0000000000
2077 1       7.2898773178      11.0000000000
2078 1       7.6579703951      10.0000000000
2079 1       7.4373902203       9.0000000000
2080 1       7.3260887406      13.0000000000
2081 1       7.0991371481      10.0000000000
2082 1       7.0359535111      10.0000000000
2083 1       7.0728665430       9.0000000000
2084 1       7.0823950129       9.0000000000
2085 1       6.7436553173       8.0000000000
2086 1       7.5482385713      11.0000000000
2087 1       7.5190198021       8.0000000000
2088 1       7.2836502423      11.0000000000
2089 1       6.9395550459       8.0000000000
2090 1       7.5408313751       8.0000000000
2091 1       6.8760956268      10.0000000000
2092 1       7.3387915716       8.0000000000
2093 1       7.0917768283      11.0000000000
2094 1       7.4475655509       9.0000000000
2095 1       6.8012353578       7.0000000000
2096 1       7.2272147300       8.0000000000
2097 1       7.6488315122      12.0000000000
2098 1       7.3597000062       8.0000000000
2099 1       7.4275363569      10.0000000000
2100 1       6.6135511599       7.0000000000
2101 1       7.3661037700       6.0000000000
2102 1       7.2316971695      11.0000000000
2103 1       7.1292702111      10.0000000000
2104 1       7.1249526347       9.0000000000
2105 1       6.8162272541       7.0000000000
2106 1       7.5244271037       9.0000000000
2107 1       6.6795197833       6.0000000000
2108 1       7.4716800983       9.0000000000
2109 1       7.5587863651      10.0000000000
2110 1       7.6696751922      12.0000000000
2111 1       7.2694660818       9.0000000000
2112 1       7.0040086869      10.0000000000
2113 1       6.8176712519       8.0000000000
2114 1       7.4330770472      12.0000000000
2115 1       7.3324334683       9.0000000000
2116 1       7.8875137155       9.0000000000
2117 1       7.1658824536       9.0000000000
2118 1       7.3364479863      10.0000000000
2119 1       6.9468757801       8.0000000000
2120 1       6.9839313787       8.0000000000
2121 1       7.5224578395      11.0000000000
2122 1       7.7961378864       8.0000000000
2123 1       7.4650544600       8.0000000000
2124 1       6.6915714238       8.0000000000
2125 1       7.1774163745       8.0000000000
2126 1       7.5029358803      11.0000000000
2127 1       7.4764928124      10.0000000000
2128 1       7.3093128966       9.0000000000
2129 1       6.9588199703       8.0000000000
2130 1       7.5187549769      11.0000000000
2131 1       6.7586361190       9.0000000000
2132 1       7.0004969083       8.0000000000
2133 1       7.6981619688      10.0000000000
2134 1       7.2339821210       8.0000000000
2135 1       7.1911315821      11.0000000000
2136 1       7.4884846658      12.0000000000
2137 1       7.0989684345       8.0000000000
2138 1       7.3379040702      10.0000000000
2139 1       7.4102655676      10.0000000000
2140 1       7.1065427602       7.0000000000
2141 1       8.3400208325      11.0000000000
2142 1       7.1579115658       9.0000000000
2143 1       8.0316503187      10.0000000000
2144 1       7.1253627368      10.0000000000
2145 1       7.5966178776       9.0000000000
2146 1       7.4962172906      10.0000000000
2147 1       7.0388851620       9.0000000000
2148 1       7.3922821782      10.0000000000
2149 1       6.8230224390      10.0000000000
2150 1       7.1033168693      10.0000000000
2151 1       7.2250110077      10.0000000000
2152 1       7.0476652376      10.0000000000
2153 1       7.6510708476      10.0000000000
2154 1       6.6859403414       8.0000000000
2155 1       6.8585963420      11.0000000000
2156 1       7.9032663867       9.0000000000
2157 1       7.2824660886      10.0000000000
2158 1       7.3976331820      11.0000000000
2159 1       8.0039883447      10.0000000000
2160 1       8.2010004659      10.0000000000
2161 1       7.2288576124       9.0000000000
2162 1       7.2798611259       8.0000000000
2163 1       7.3939095254      11.0000000000
2164 1       6.7740643820       8.0000000000
2165 1       7.0602842201       9.0000000000
2166 1       7.3870045885      10.0000000000
2167 1       6.7468292650       8.0000000000
2168 1       7.3351050913       8.0000000000
2169 1       7.3881791188      10.0000000000
2170 1       6.9095591684       9.0000000000
2171 1       7.2217832801      11.0000000000
2172 1       7.3316482850       8.0000000000
2173 1       7.0187720969      10.0000000000
2174 1       6.4214951880       8.0000000000
2175 1       7.8330543224      10.0000000000
2176 1       7.6081920014       7.0000000000
2177 1       7.1434932463       9.0000000000
2178 1       7.4752712260      10.0000000000
2179 1       7.4207807004      12.0000000000
2180 1       7.5476068497      11.0000000000
2181 1       7.2848674486       8.0000000000
2182 1       7.0683285406       9.0000000000
2183 1       7.1618988928       8.0000000000
2184 1       6.9743501317      10.0000000000
2185 1       7.3537244750       8.0000000000
2186 1       7.1033386675       8.0000000000
2187 1       7.1876903102       8.0000000000
2188 1       6.7076701723       8.0000000000
2189 1       7.9159594241       9.0000000000
2190 1       7.4690736817       9.0000000000
2191 1       7.5698732260      10.0000000000
2192 1       6.7705860616       9.0000000000
2193 1       7.4125922077      11.0000000000
2194 1       7.4868941165      10.0000000000
2195 1       7.0454712781       9.0000000000
2196 1       6.8546602791       7.0000000000
2197 1       7.3457738180       8.0000000000
2198 1       7.4955541164      10.0000000000
2199 1       6.8941863232       8.0000000000
2200 1       6.9417809132      13.0000000000
2201 1       7.9979340727       9.0000000000
2202 1       6.7515667893      10.0000000000
2203 1       7.2889390382       9.0000000000
2204 1       7.4092984370      11.0000000000
2205 1       6.7147959524       7.0000000000
2206 1       7.0101136530       7.0000000000
2207 1       7.3991979024      10.0000000000
2208 1       7.7667369359      10.0000000000
2209 1       8.0323365434       8.0000000000
2210 1       7.3087028373       8.0000000000
2211 1       6.4165139582       7.0000000000
2212 1       7.4464068094       9.0000000000
2213 1       7.4144325758       9.0000000000
2214 1       7.2570360848      10.0000000000
2215 1       7.3168865467      10.0000000000
2216 1       6.8088230344       9.0000000000
2217 1       7.3797397946       9.0000000000
2218 1       7.8316206971       8.0000000000
2219 1       6.9170056166      12.0000000000
2220 1       6.7007982130       9.0000000000
2221 1       7.0482218853      11.0000000000
2222 1       7.0560214145       8.0000000000
2223 1       7.3410848744      11.0000000000
2224 1       7.2120532034      10.0000000000
2225 1       7.4640122266       9.0000000000
2226 1       7.7328673225      10.0000000000
2227 1       7.0255623316       9.0000000000
2228 1       7.2177211364       9.0000000000
2229 1       6.8794732288       9.0000000000
2230 1       7.0801921935       8.0000000000
2231 1       7.0073302353      10.0000000000
2232 1       7.7215802167       9.0000000000
2233 1       7.3924658584      10.0000000000
2234 1       7.1844836781       9.0000000000
2235 1       7.6558795357      10.0000000000
2236 1       7.3626758451       9.0000000000
2237 1       7.4282662126       8.0000000000
2238 1       7.2064593378       7.0000000000
2239 1       7.1652932054       8.0000000000
2240 1       6.8675654484       8.0000000000
2241 1       6.9430522077       8.0000000000
2242 1       7.5605760270       9.0000000000
2243 1       7.5739958258      10.0000000000
2244 1       7.5078518093      13.0000000000
2245 1       8.1153107043      12.0000000000
2246 1       7.6172744119       9.0000000000
2247 1       7.4693113568       9.0000000000
2248 1       7.3063824638      12.0000000000
2249 1       7.8490357018      12.0000000000
2250 1       7.3510236321       9.0000000000
2251 1       6.7623391898       8.0000000000
2252 1       7.0360536663       8.0000000000
2253 1       7.0462455812      10.0000000000
2254 1       7.0870791679       9.0000000000
2255 1       7.5969178248       8.0000000000
2256 1       6.9015095697       8.0000000000
2257 1       7.3139951930       9.0000000000
2258 1       7.1109447969      10.0000000000
2259 1       7.2575975642      11.0000000000
2260 1       7.4159819596      14.0000000000
2261 1       8.0279284956      10.0000000000
2262 1       7.3978014592       8.0000000000
2263 1       7.1701572570       9.0000000000
2264 1       7.2081470380      11.0000000000
2265 1       7.2054380593      10.0000000000
2266 1       6.9787248476      10.0000000000
2267 1       7.6274674479       9.0000000000
2268 1       7.3055178511      12.0000000000
2269 1       8.1648871709      14.0000000000
2270 1       7.1781005176       9.0000000000
2271 1       7.2972497040       8.0000000000
2272 1       8.0865928300       8.0000000000
2273 1       6.9586345406      13.0000000000
2274 1       7.0774018313      12.0000000000
2275 1       7.4707878072       8.0000000000
2276 1       7.2325573966      11.0000000000
2277 1       7.1246561714       9.0000000000
2278 1       7.2030551046      10.0000000000
2279 1       6.9618791650       8.0000000000
2280 1       7.2638855843       7.0000000000
2281 1       7.0391572467       8.0000000000
2282 1       7.3660620018      10.0000000000
2283 1       6.8659176089      10.0000000000
2284 1       6.8464951960       9.0000000000
2285 1       7.2563578938      10.0000000000
2286 1       7.2186751934      10.0000000000
2287 1       7.6320258733      10.0000000000
2288 1       7.2058772885      10.0000000000
2289 1       7.2574196280       9.0000000000
2290 1       7.4027295166       8.0000000000
2291 1       6.9305126886       8.0000000000
2292 1       7.1556522232       9.0000000000
2293 1       8.1965861206       9.0000000000
2294 1       7.3448635255       9.0000000000
2295 1       7.4575320213       8.0000000000
2296 1       7.4472779428      13.0000000000
2297 1       7.4471043470       8.0000000000
2298 1       7.5521940739       9.0000000000
2299 1       6.7724805305       8.0000000000
2300 1       7.4390963973      10.0000000000
2301 1       7.7126122516       9.0000000000
2302 1       7.3647632749       9.0000000000
2303 1       7.7404211333       9.0000000000
2304 1       7.6998384131       8.0000000000
2305 1       6.9163296739       7.0000000000
2306 1       7.4553813124      10.0000000000
2307 1       6.8129109968      10.0000000000
2308 1       7.3913667104      12.0000000000
2309 1       7.4872527554       8.0000000000
2310 1       6.6963744943       7.0000000000
2311 1       7.1314036019       8.0000000000
2312 1       7.3392309980      10.0000000000
2313 1       7.3752798562      10.0000000000
2314 1       6.9829106151       8.0000000000
2315 1       7.3752703196      10.0000000000
2316 1       7.3301350835       7.0000000000
2317 1       6.9526038991       9.0000000000
2318 1       7.5215879511      14.0000000000
2319 1       7.5665096105      10.0000000000
2320 1       7.8607867307       8.0000000000
2321 1       7.1919335682      10.0000000000
2322 1       7.3387725050       9.0000000000
2323 1       7.2623907316      11.0000000000
2324 1       7.1455987498      12.0000000000
2325 1       7.5192976391       9.0000000000
2326 1       7.1641436225      10.0000000000
2327 1       6.5049193223       8.0000000000
2328 1       7.5284307179      12.0000000000
2329 1       7.4297428945      11.0000000000
2330 1       7.0708862651      10.0000000000
2331 1       7.2877069378       8.0000000000
2332 1       6.9818403820       8.0000000000
2333 1       7.4035621663       9.0000000000
2334 1       7.4675449243       9.0000000000
2335 1       6.9133186507      11.0000000000
2336 1       7.5632024675      10.0000000000
2337 1       7.2932333707      12.0000000000
2338 1       7.2102416047       9.0000000000
2339 1       7.2048191780       9.0000000000
2340 1       6.9336296560       8.0000000000
2341 1       7.6464977807      12.0000000000
2342 1       7.8706713131       9.0000000000
2343 1       7.0292418714      11.0000000000
2344 1       7.9764646662       9.0000000000
2345 1       7.0113877082       9.0000000000
2346 1       6.9471626363       9.0000000000
2347 1       7.6192048880       9.0000000000
2348 1       7.0328545686      11.0000000000
2349 1       7.4011064308      12.0000000000
2350 1       7.0837232306       9.0000000000
2351 1       7.2504310735       8.0000000000
2352 1       6.7320393767       8.0000000000
2353 1       6.6756101899       9.0000000000
2354 1       7.5830594807       8.0000000000
2355 1       7.2139128214       9.0000000000
2356 1       7.4002568273      10.0000000000
2357 1       7.1794934313      12.0000000000
2358 1       7.6588936523      11.0000000000
2359 1       7.1790798130      11.0000000000
2360 1       7.3625754512       8.0000000000
2361 1       7.5647774755      10.0000000000
2362 1       7.5144224601      10.0000000000
2363 1       7.5178867702       9.0000000000
2364 1       6.4515615646      10.0000000000
2365 1       7.2326802343       9.0000000000
2366 1       6.8577201768       8.0000000000
2367 1       7.0756483838      10.0000000000
2368 1       7.1052996638      10.0000000000
2369 1       7.5226414089       9.0000000000
2370 1       7.4273042556      11.0000000000
2371 1       7.6465197550       9.0000000000
2372 1       7.4649964502      10.0000000000
2373 1       7.3876701904       9.0000000000
2374 1       6.9826591237       9.0000000000
2375 1       6.9224622615       8.0000000000
2376 1       7.2112487954      10.0000000000
2377 1       6.9010598990      10.0000000000
2378 1       7.1712961856       8.0000000000
2379 1       7.6486720584      10.0000000000
2380 1       7.1771698151       8.0000000000
2381 1       7.2698952759       9.0000000000
2382 1       7.1554813290       9.0000000000
2383 1       6.7946151193      12.0000000000
2384 1       7.3068478993       8.0000000000
2385 1       6.7956438669       8.0000000000
2386 1       6.9196773417      10.0000000000
2387 1       7.0272625983      10.0000000000
2388 1       7.3759420133       9.0000000000
2389 1       6.8057451165       9.0000000000
2390 1       7.2563714688      10.0000000000
2391 1       7.4242718696       7.0000000000
2392 1       7.0463296840       8.0000000000
2393 1       7.1282572799       9.0000000000
2394 1       7.8864136903      11.0000000000
2395 1       7.3773591439       9.0000000000
2396 1       6.4368003481       8.0000000000
2397 1       7.2252407437       8.0000000000
2398 1       7.4421893363       9.0000000000
2399 1       7.0567661969       8.0000000000
2400 1       7.1037200014      11.0000000000
2401 1       7.6635485013      11.0000000000
2402 1       7.3353784774      10.0000000000
2403 1       7.9460481317       9.0000000000
2404 1       7.1438238450       9.0000000000
2405 1       7.2327275411       9.0000000000
2406 1       7.2054601756       9.0000000000
2407 1       7.2633732697       9.0000000000
2408 1       6.9778555660       9.0000000000
2409 1       7.3016196285      11.0000000000
2410 1       7.7579256852       9.0000000000
2411 1       7.0071783864       9.0000000000
2412 1       7.2711636016       8.0000000000
2413 1       7.0976444903       9.0000000000
2414 1       6.9156926748       6.0000000000
2415 1       7.0586456514      10.0000000000
2416 1       7.1514437368      10.0000000000
2417 1       7.4765620211       8.0000000000
2418 1       7.0910897135       8.0000000000
2419 1       7.4740513657      13.0000000000
2420 1       7.6926054985      10.0000000000
2421 1       6.8031042263      10.0000000000
2422 1       7.7820703734      10.0000000000
2423 1       7.0475219476      10.0000000000
2424 1       7.0041666819       8.0000000000
2425 1       7.2858764355      11.0000000000
2426 1       6.9473244709      10.0000000000
2427 1       7.6785456636      11.0000000000
2428 1       6.7190244034       8.0000000000
2429 1       7.1046207196       7.0000000000
2430 1       7.8129381201       9.0000000000
2431 1       7.3652379789       6.0000000000
2432 1       8.1883665995      11.0000000000
2433 1       7.3807349244      12.0000000000
2434 1       6.8606565571       9.0000000000
2435 1       7.1818575097       9.0000000000
2436 1       7.5159570983       8.0000000000
2437 1       7.7711674621       8.0000000000
2438 1       7.1404886443      10.0000000000
2439 1       7.3309498401      10.0000000000
2440 1       7.1009822147      10.0000000000
2441 1       7.7461416313      10.0000000000
2442 1       7.7387554691       9.0000000000
2443 1       6.8150866498       8.0000000000
2444 1       6.7802765740       9.0000000000
2445 1       7.1113530250      10.0000000000
2446 1       7.6447970984       9.0000000000
2447 1       7.0684885253       9.0000000000
2448 1       7.2071969333      10.0000000000
2449 1       7.2443917642       9.0000000000
2450 1       7.3305228228       8.0000000000
2451 1       6.5500935598       9.0000000000
2452 1       7.2203016384      11.0000000000
2453 1       7.4502109911       9.0000000000
2454 1       7.6582456444      10.0000000000
2455 1       7.4584055921      11.0000000000
2456 1       7.4067655090      13.0000000000
2457 1       6.6927356332      11.0000000000
2458 1       7.1315725764       8.0000000000
2459 1       6.9370431991       8.0000000000
2460 1       7.4513660960      11.0000000000
2461 1       7.6136471444       9.0000000000
2462 1       6.9980272397       9.0000000000
2463 1       7.6016998267      11.0000000000
2464 1       7.0067736803       8.0000000000
2465 1       7.3326505905      11.0000000000
2466 1       8.3322458189      11.0000000000
2467 1       7.3118882187       8.0000000000
2468 1       6.8338085706      10.0000000000
2469 1       7.0219799923       9.0000000000
2470 1       7.6887918893       9.0000000000
2471 1       7.9242007855      12.0000000000
2472 1       7.8703975617      10.0000000000
2473 1       7.2710908737       9.0000000000
2474 1       7.0941308922      10.0000000000
2475 1       7.0747761905       9.0000000000
2476 1       7.4078831201       9.0000000000
2477 1       7.5986153868      10.0000000000
2478 1       7.5064795724       9.0000000000
2479 1       7.4565010236       8.0000000000
2480 1       7.1690925548      10.0000000000
2481 1       7.0120547399      11.0000000000
2482 1       7.1654371559       8.0000000000
2483 1       7.1239958777      11.0000000000
2484 1       7.1326134877       7.0000000000
2485 1       7.7824319235      10.0000000000
2486 1       7.5436510734       9.0000000000
2487 1       7.5326634216      11.0000000000
2488 1       6.3106539390       8.0000000000
2489 1       7.2722970389       9.0000000000
2490 1       7.4456240232      12.0000000000
2491 1       6.9683449601       8.0000000000
2492 1       7.5477996296       7.0000000000
2493 1       7.7145800961      10.0000000000
2494 1       7.2993742972       9.0000000000
2495 1       7.1683564134       8.0000000000
2496 1       7.1424217793      11.0000000000
2497 1       7.4459004910      10.0000000000
2498 1       6.8660637780       9.0000000000
2499 1       7.3926682230       8.0000000000
2500 1       6.8741110823       8.0000000000
2501 1       7.0864628830      10.0000000000
2502 1       7.2691932036      11.0000000000
2503 1       7.2221883112      10.0000000000
2504 1       7.0506990572      10.0000000000
2505 1       7.3462967301       9.0000000000
2506 1       6.6166917848      10.0000000000
2507 1       6.5853030512       8.0000000000
2508 1       6.9170025315      10.0000000000
2509 1       6.7092469047       8.0000000000
2510 1       7.3004764030      10.0000000000
2511 1       6.7463352540      10.0000000000
2512 1       7.2145198546      11.0000000000
2513 1       7.3030978667      11.0000000000
2514 1       7.5648343694      10.0000000000
2515 1       7.3070706265      10.0000000000
2516 1       8.0922083806      10.0000000000
2517 1       7.4864002491      12.0000000000
2518 1       6.8817960019       8.0000000000
2519 1       7.1264007659      11.0000000000
2520 1       7.8671587676       9.0000000000
2521 1       7.3340910369      11.0000000000
2522 1       7.2230106747       9.0000000000
2523 1       8.5241400564      10.0000000000
2524 1       7.6374961010       9.0000000000
2525 1       6.9498145688       9.0000000000
2526 1       6.9494493940       8.0000000000
2527 1       7.5492735650       9.0000000000
2528 1       7.5755786224      11.0000000000
2529 1       7.2251167435       8.0000000000
2530 1       7.7728462648      10.0000000000
2531 1       7.5704662872       9.0000000000
2532 1       7.1259931299       9.0000000000
2533 1       7.0392695471       8.0000000000
2534 1       6.7054757004       8.0000000000
2535 1       7.0240038231      10.0000000000
2536 1       7.3104938584       9.0000000000
2537 1       6.7434417586       9.0000000000
2538 1       7.5231651530       8.0000000000
2539 1       7.2990560531      10.0000000000
2540 1       7.2675440827      11.0000000000
2541 1       6.6011750954       8.0000000000
2542 1       7.4380422943      14.0000000000
2543 1       7.5819521682       8.0000000000
2544 1       6.8673095626       8.0000000000
2545 1       7.3508615504      10.0000000000
2546 1       7.4311337385      10.0000000000
2547 1       7.8642256515       9.0000000000
2548 1       6.8254005000       7.0000000000
2549 1       7.3734490280      11.0000000000
2550 1       7.5944864624      12.0000000000
2551 1       7.2786615990       8.0000000000
2552 1       7.0379006661      11.0000000000
2553 1       7.1634343972      11.0000000000
2554 1       7.0762987231       8.0000000000
2555 1       6.9164755352       9.0000000000
2556 1       6.8125060833       9.0000000000
2557 1       7.7930921101       8.0000000000
2558 1       7.0193910292      10.0000000000
2559 1       7.0730875300      10.0000000000
2560 1       7.1533261472       9.0000000000
2561 1       7.9164777202      11.0000000000
2562 1       7.0608577133       9.0000000000
2563 1       7.1107527754      11.0000000000
2564 1       7.2387860685      10.0000000000
2565 1       7.1399483458       9.0000000000
2566 1       7.0602563062       9.0000000000
2567 1       7.2371498357       9.0000000000
2568 1       6.9718794169       7.0000000000
2569 1       6.7104504126       8.0000000000
2570 1       7.6745566429      10.0000000000
2571 1       7.2185020384      10.0000000000
2572 1       8.2089382648      11.0000000000
2573 1       7.4757822149       9.0000000000
2574 1       7.3187789885      10.0000000000
2575 1       7.2092032144      10.0000000000
2576 1       7.4387849532       9.0000000000
2577 1       7.0408954323       9.0000000000
2578 1       6.8091903896       8.0000000000
2579 1       7.0787348867      10.0000000000
2580 1       7.3153319920       9.0000000000
2581 1       7.2953827436       9.0000000000
2582 1       7.1202017054      10.0000000000
2583 1       6.8617608350      13.0000000000
2584 1       7.6223215562      12.0000000000
2585 1       7.2442922889       9.0000000000
2586 1       7.1154862919       8.0000000000
2587 1       7.1902259364      10.0000000000
2588 1       7.2250279416      10.0000000000
2589 1       6.9838251639      10.0000000000
2590 1       6.8957038625      10.0000000000
2591 1       7.3768821588       8.0000000000
2592 1       6.9216535394      10.0000000000
2593 1       7.8517791887      11.0000000000
2594 1       7.7027444466       8.0000000000
2595 1       7.2543884207      12.0000000000
2596 1       7.4099506838       9.0000000000
2597 1       7.4403696803       9.0000000000
2598 1       6.4187928763       7.0000000000
2599 1       7.3929661812       9.0000000000
2600 1       7.1643700065       9.0000000000
2601 1       7.5655579827      10.0000000000
2602 1       7.0261599280      10.0000000000
2603 1       7.2854151458       9.0000000000
2604 1       7.4596485211      10.0000000000
2605 1       7.4762488097       9.0000000000
2606 1       6.7300700482       9.0000000000
2607 1       7.1141573324      10.0000000000
2608 1       7.2202829871       8.0000000000
2609 1       7.3894611734      10.0000000000
2610 1       6.7385286726       9.0000000000
2611 1       7.5376118477      10.0000000000
2612 1       7.2472751435      11.0000000000
2613 1       7.8170084854       9.0000000000
2614 1       6.7430327209       6.0000000000
2615 1       7.1580712115       8.0000000000
2616 1       7.2843888381       8.0000000000
2617 1       7.1076957175       7.0000000000
2618 1       7.3984607330      10.0000000000
2619 1       7.3368020206      10.0000000000
2620 1       6.6368939580       9.0000000000
2621 1       6.9059950951       8.0000000000
2622 1       6.8818872148      10.0000000000
2623 1       7.5134893215       9.0000000000
2624 1       6.7398258158       9.0000000000
2625 1       6.6815585756       8.0000000000
2626 1       7.2950615222       9.0000000000
2627 1       7.3738067572      10.0000000000
2628 1       7.2619381790      10.0000000000
2629 1       7.3422059602       9.0000000000
2630 1       7.0352631724      10.0000000000
2631 1       7.4416165854       7.0000000000
2632 1       7.4513806455       9.0000000000
2633 1       7.0010219652       9.0000000000
2634 1       6.6167925911      11.0000000000
2635 1       7.1961494557       9.0000000000
2636 1       7.4970920163       9.0000000000
2637 1       7.4640402675      10.0000000000
2638 1       7.2122534854       8.0000000000
2639 1       7.6979082188      10.0000000000
2640 1       6.9623105701       9.0000000000
2641 1       7.5430823379      12.0000000000
2642 1       7.1651558383       7.0000000000
2643 1       7.5544620702       9.0000000000
2644 1       8.0197452015       9.0000000000
2645 1       7.4680224690      10.0000000000
2646 1       7.4784791532       9.0000000000
2647 1       7.3759935212      12.0000000000
2648 1       7.1001077012      11.0000000000
2649 1       7.8441192859       9.0000000000
2650 1       7.2974419029      11.0000000000
2651 1       7.1348862880       9.0000000000
2652 1       7.0435222385       8.0000000000
2653 1       6.9883002947      10.0000000000
2654 1       6.6610523843      10.0000000000
2655 1       6.8551061655       8.0000000000
2656 1       7.4229522143      13.0000000000
2657 1       7.2376962088       8.0000000000
2658 1       7.1471926437      11.0000000000
2659 1       7.0776966085      12.0000000000
2660 1       7.0359811555       9.0000000000
2661 1       7.0109120644       7.0000000000
2662 1       7.2168270771      11.0000000000
2663 1       7.1367493527      11.0000000000
2664 1       7.4559979421       8.0000000000
2665 1       7.4209993462       9.0000000000
2666 1       7.1600953976       9.0000000000
2667 1       7.1501033652      13.0000000000
2668 1       7.2874449613       8.0000000000
2669 1       7.2078265510      10.0000000000
2670 1       7.6544965361      11.0000000000
2671 1       7.4653171014      12.0000000000
2672 1       6.9894307721       7.0000000000
2673 1       6.5165246938       8.0000000000
2674 1       7.5247219983       8.0000000000
2675 1       7.9222843116       8.0000000000
2676 1       6.7371802485      11.0000000000
2677 1       6.9487922707       9.0000000000
2678 1       7.1589470029      10.0000000000
2679 1       7.3572343999       8.0000000000
2680 1       7.1366929095       9.0000000000
2681 1       7.3152335016      10.0000000000
2682 1       7.2823662205      12.0000000000
2683 1       6.9731303387       8.0000000000
2684 1       7.3158464912       9.0000000000
2685 1       7.2658632098      13.0000000000
2686 1       6.8667922317       9.0000000000
2687 1       7.1735120267      11.0000000000
2688 1       6.8930552075       8.0000000000
2689 1       7.6746665643       9.0000000000
2690 1       7.0417246612      11.0000000000
2691 1       7.2547334248      11.0000000000
2692 1       7.1994916930      11.0000000000
2693 1       6.7929109855       9.0000000000
2694 1       7.9322180167      10.0000000000
2695 1       7.2308879566       9.0000000000
2696 1       7.0679349897       7.0000000000
2697 1       7.2948654249      10.0000000000
2698 1       7.4170403459       9.0000000000
2699 1       7.4286110469       9.0000000000
2700 1       7.1709557357      11.0000000000
2701 1       6.9193383229       7.0000000000
2702 1       6.9104397807       7.0000000000
2703 1       8.3008583419      13.0000000000
2704 1       7.1120976020      12.0000000000
2705 1       7.0360531122      10.0000000000
2706 1       7.1227618689       9.0000000000
2707 1       7.2741629119       9.0000000000
2708 1       7.1839283218       8.0000000000
2709 1       7.6142143942      12.0000000000
2710 1       7.2958692433      11.0000000000
2711 1       7.7635684176      10.0000000000
2712 1       7.4145453461      11.0000000000
2713 1       7.3121937564      10.0000000000
2714 1       6.8371589258       8.0000000000
2715 1       7.2766621194      10.0000000000
2716 1       6.9073805487       7.0000000000
2717 1       7.4238116904       8.0000000000
2718 1       7.4565715984      10.0000000000
2719 1       7.1546447127       9.0000000000
2720 1       7.2080801004      10.0000000000
2721 1       6.9517998572      10.0000000000
2722 1       7.1110949036       9.0000000000
2723 1       7.6611742597       9.0000000000
2724 1       7.0968390715      11.0000000000
2725 1       7.2232763695      11.0000000000
2726 1       7.3651156578       9.0000000000
2727 1       7.1768246213       8.0000000000
2728 1       6.6026656197       9.0000000000
2729 1       7.2210420447       8.0000000000
2730 1       7.0433336144      11.0000000000
2731 1       7.7309438278      10.0000000000
2732 1       6.9295560176       9.0000000000
2733 1       7.5436692323       9.0000000000
2734 1       7.3146615138      10.0000000000
2735 1       7.3439864990       9.0000000000
2736 1       7.4579718060       9.0000000000
2737 1       7.1130035079      10.0000000000
2738 1       7.0845853309       9.0000000000
2739 1       7.9670957186      10.0000000000
2740 1       7.3515916110      11.0000000000
2741 1       7.6367793981      10.0000000000
2742 1       7.2981516541       8.0000000000
2743 1       7.3000671606      11.0000000000
2744 1       7.0477703002      11.0000000000
2745 1       7.1770828495      12.0000000000
2746 1       7.2864585331       8.0000000000
2747 1       7.0634535002       8.0000000000
2748 1       7.4526851407      11.0000000000
2749 1       7.0002567576       8.0000000000
2750 1       7.6327564668      12.0000000000
2751 1       6.6981724249       8.0000000000
2752 1       6.7018986121       8.0000000000
2753 1       7.0581298287      12.0000000000
2754 1       7.4357369550      12.0000000000
2755 1       7.5272590171       9.0000000000
2756 1       7.2575285947       9.0000000000
2757 1       7.5017306533       9.0000000000
2758 1       6.8461389801      12.0000000000
2759 1       7.1293625104      10.0000000000
2760 1       7.0203790412      10.0000000000
2761 1       7.5220615688      10.0000000000
2762 1       7.1907034445       9.0000000000
2763 1       7.4524185697       9.0000000000
2764 1       6.9959292237      11.0000000000
2765 1       6.9988300704      10.0000000000
2766 1       7.3841669019       9.0000000000
2767 1       7.5409887307       9.0000000000
2768 1       7.0920285306       9.0000000000
2769 1       7.0843550596      10.0000000000
2770 1       7.1387645369      10.0000000000
2771 1       7.5904314896       8.0000000000
2772 1       7.5272022025       8.0000000000
2773 1       7.6088194596      10.0000000000
2774 1       7.7172963839       8.0000000000
2775 1       7.1299949166       8.0000000000
2776 1       7.7352511915      13.0000000000
2777 1       6.4753675060       9.0000000000
2778 1       7.5993827945       9.0000000000
2779 1       7.4971156809      10.0000000000
2780 1       6.9908908667       8.0000000000
2781 1       8.1896861599       9.0000000000
2782 1       7.8815720007       9.0000000000
2783 1       7.0294292819       9.0000000000
2784 1       7.2410762271       9.0000000000
2785 1       7.6811158166      10.0000000000
2786 1       7.1142422676      10.0000000000
2787 1       7.4083381111      12.0000000000
2788 1       7.1057691265      10.0000000000
2789 1       8.1650197552       8.0000000000
2790 1       7.6088325543      10.0000000000
2791 1       7.2549143249      10.0000000000
2792 1       7.6407728217       9.0000000000
2793 1       7.6729164902      11.0000000000
2794 1       7.0205522842       7.0000000000
2795 1       6.9736788802       9.0000000000
2796 1       7.4815874427      10.0000000000
2797 1       6.7589486370      10.0000000000
2798 1       7.2611294871       9.0000000000
2799 1       7.1593937503      11.0000000000
2800 1       7.4706421820      11.0000000000
2801 1       6.7482717987       8.0000000000
2802 1       7.4371914172      11.0000000000
2803 1       7.0776693592       9.0000000000
2804 1       7.0672234880       8.0000000000
2805 1       7.0339067095       8.0000000000
2806 1       7.4893776334      10.0000000000
2807 1       7.3168693765       7.0000000000
2808 1       7.4304710503      13.0000000000
2809 1       7.7077705697      10.0000000000
2810 1       7.7228628834      13.0000000000
2811 1       7.1078828052      11.0000000000
2812 1       6.8246812956       9.0000000000
2813 1       6.9652297949       8.0000000000
2814 1       7.8004944666      11.0000000000
2815 1       7.2225102757       8.0000000000
2816 1       6.8959503087      10.0000000000
2817 1       7.0748875191      12.0000000000
2818 1       7.2857655391      11.0000000000
2819 1       7.4909746415      11.0000000000
2820 1       7.4023512320      13.0000000000
2821 1       7.3108349635      10.0000000000
2822 1       7.6850948189       8.0000000000
2823 1       7.6232411346      13.0000000000
2824 1       7.0471300558      10.0000000000
2825 1       7.0077262648      10.0000000000
2826 1       6.9692714021      10.0000000000
2827 1       7.3471939990      12.0000000000
2828 1       7.1408211698       8.0000000000
2829 1       7.2524240424       8.0000000000
2830 1       6.7552943448       9.0000000000
2831 1       7.5805787004       8.0000000000
2832 1       7.2336883365       8.0000000000
2833 1       7.4086399999       9.0000000000
2834 1       7.1728444085       8.0000000000
2835 1       7.3707677821      10.0000000000
2836 1       6.6620263799       9.0000000000
2837 1       6.9731525904       9.0000000000
2838 1       7.0044359637      10.0000000000
2839 1       6.9414908632      11.0000000000
2840 1       7.2162657283       9.0000000000
2841 1       7.6299438579       9.0000000000
2842 1       6.9982966356       7.0000000000
2843 1       7.0876142740      10.0000000000
2844 1       7.2718723264       7.0000000000
2845 1       7.2218075189       9.0000000000
2846 1       7.2594640695       8.0000000000
2847 1       7.3216266990      10.0000000000
2848 1       7.1399812082      11.0000000000
2849 1       7.3493431761      10.0000000000
2850 1       7.4552431187      10.0000000000
2851 1       7.4241369648      12.0000000000
2852 1       7.2393639035       9.0000000000
2853 1       7.2475216610      10.0000000000
2854 1       7.9447936653      11.0000000000
2855 1       6.8721692647      10.0000000000
2856 1       7.8776796035       9.0000000000
2857 1       6.8970387078      11.0000000000
2858 1       7.6524263599       9.0000000000
2859 1       7.0103973832      13.0000000000
2860 1       7.3316475255       9.0000000000
2861 1       7.1262699579      13.0000000000
2862 1       7.6016554983      10.0000000000
2863 1       7.6313226678      12.0000000000
2864 1       7.0616323734       7.0000000000
2865 1       7.3580922923      10.0000000000
2866 1       7.5070479177       9.0000000000
2867 1       7.3542612290       8.0000000000
2868 1       7.4971703189       8.0000000000
2869 1       7.0546441613      12.0000000000
2870 1       7.0442616093      10.0000000000
2871 1       7.5625192220       8.0000000000
2872 1       6.9254663716       8.0000000000
2873 1       7.3398326328       9.0000000000
2874 1       7.3789920352      13.0000000000
2875 1       7.8605483978       8.0000000000
2876 1       7.3776155950       8.0000000000
2877 1       7.5084301924      10.0000000000
2878 1       7.3220278679      10.0000000000
2879 1       6.8694065843       8.0000000000
2880 1       7.0692835779      10.0000000000
2881 1       6.7226667235       9.0000000000
2882 1       7.9593764795       8.0000000000
2883 1       6.7748094527       9.0000000000
2884 1       7.1646517992      10.0000000000
2885 1       7.3837638075       7.0000000000
2886 1       7.2433423597      11.0000000000
2887 1       7.5735250292       9.0000000000
2888 1       7.3137582112       8.0000000000
2889 1       7.2091427885       9.0000000000
2890 1       7.2504520351      10.0000000000
2891 1       6.8228284126       8.0000000000
2892 1       7.3331601676       8.0000000000
2893 1       6.9739547914      12.0000000000
2894 1       7.6847340343      11.0000000000
2895 1       6.9709871577       8.0000000000
2896 1       7.5379356458      12.0000000000
2897 1       7.5230649417       8.0000000000
2898 1       6.9976885258      10.0000000000
2899 1       7.7443701092      10.0000000000
2900 1       7.2060675889      10.0000000000
2901 1       7.4950228424      11.0000000000
2902 1       7.2512216401      13.0000000000
2903 1       7.3411985490       9.0000000000
2904 1       7.4057729593      10.0000000000
2905 1       7.4387515339       9.0000000000
2906 1       7.3571417076       9.0000000000
2907 1       7.2396376791       9.0000000000
2908 1       6.9182715215      10.0000000000
2909 1       6.9082080540       6.0000000000
2910 1       7.4463625531       9.0000000000
2911 1       7.1550822064      10.0000000000
2912 1       6.9883900080       9.0000000000
2913 1       7.9617799363      10.0000000000
2914 1       6.9719547315       8.0000000000
2915 1       8.1114473708      12.0000000000
2916 1       7.3897207163      10.0000000000
2917 1       7.3722467933      11.0000000000
2918 1       7.2658954653       9.0000000000
2919 1       6.9774365338       9.0000000000
2920 1       6.8891141074      10.0000000000
2921 1       7.3817712529       9.0000000000
2922 1       7.2047521137       9.0000000000
2923 1       8.2036707171      12.0000000000
2924 1       6.8111095239      11.0000000000
2925 1       7.1422793270       9.0000000000
2926 1       7.5203065503       9.0000000000
2927 1       7.8041897873      11.0000000000
2928 1       7.2018786152      10.0000000000
2929 1       6.7472861227      11.0000000000
2930 1       7.2811014628       8.0000000000
2931 1       7.1398157598       8.0000000000
2932 1       7.6262083597      11.0000000000
2933 1       6.6272937713       7.0000000000
2934 1       6.9762926795      10.0000000000
2935 1       7.3722125350       8.0000000000
2936 1       7.2051891461       8.0000000000
2937 1       7.4320593568       8.0000000000
2938 1       7.0331797187      10.0000000000
2939 1       7.4933717421       7.0000000000
2940 1       7.2602212528      11.0000000000
2941 1       7.7116272229      12.0000000000
2942 1       6.9108524248      11.0000000000
2943 1       8.1587223531      10.0000000000
2944 1       7.7174891349       9.0000000000
2945 1       7.2560103812       8.0000000000
2946 1       7.4583640815       9.0000000000
2947 1       6.9750797851       9.0000000000
2948 1       7.3415860683       8.0000000000
2949 1       7.3910912126       8.0000000000
2950 1       6.9077582267       9.0000000000
2951 1       7.1443079901      10.0000000000
2952 1       6.7913142317      11.0000000000
2953 1       6.9225155701       8.0000000000
2954 1       7.2710181534      10.0000000000
2955 1       7.2592827901      10.0000000000
2956 1       7.6933723083       9.0000000000
2957 1       6.5613750674       9.0000000000
2958 1       7.2468734550      10.0000000000
2959 1       7.3090907865      12.0000000000
2960 1       7.5776302760       8.0000000000
2961 1       7.0359357034       9.0000000000
2962 1       7.4547763857       9.0000000000
2963 1       7.4337008568      10.0000000000
2964 1       7.6977000800       8.0000000000
2965 1       6.8849094343       7.0000000000
2966 1       6.9668319431       8.0000000000
2967 1       7.0949317573       9.0000000000
2968 1       7.2514883950      11.0000000000
2969 1       7.7001878663       9.0000000000
2970 1       8.3978826202       8.0000000000
2971 1       7.0066209663       9.0000000000
2972 1       7.4972636344       9.0000000000
2973 1       7.1877974155       9.0000000000
2974 1       6.8488722382       9.0000000000
2975 1       7.4090780984      11.0000000000
2976 1       7.4327766006      10.0000000000
2977 1       7.3470027104      10.0000000000
2978 1       7.7004946790      10.0000000000
2979 1       7.4751609599       9.0000000000
2980 1       7.8562967677      10.0000000000
2981 1       7.0523833383       7.0000000000
2982 1       7.3964948129      12.0000000000
2983 1       8.0538658918      12.0000000000
2984 1       7.1619128691      10.0000000000
2985 1       7.6563529178       9.0000000000
2986 1       7.5656606135      11.0000000000
2987 1       6.7977073985       7.0000000000
2988 1       7.1574450282      10.0000000000
2989 1       6.9936952012      10.0000000000
2990 1       7.5930306972       9.0000000000
2991 1       7.1547792034      10.0000000000
2992 1       7.4443757235      10.0000000000
2993 1       7.4551390416       9.0000000000
2994 1       7.0278331817      11.0000000000
2995 1       7.2886311642       9.0000000000
2996 1       7.7341918947       8.0000000000
2997 1       7.1278947108      10.0000000000
2998 1       7.8127003053      10.0000000000
2999 1       6.9368782514       8.0000000000
3000 1       7.3564548815       9.0000000000
3001 1       6.7761802964      10.0000000000
3002 1       7.2630821865       8.0000000000
3003 1       7.4465149930       8.0000000000
3004 1       6.8723451094       9.0000000000
3005 1       7.1109458345       7.0000000000
3006 1       6.9706378245       8.0000000000
3007 1       7.7663603501       8.0000000000
3008 1       7.0769593113      10.0000000000
3009 1       7.4840352075       8.0000000000
3010 1       7.2553072674       9.0000000000
3011 1       7.2443896935      10.0000000000
3012 1       7.8118576743      10.0000000000
3013 1       7.4875708381       8.0000000000
3014 1       7.3492212424       9.0000000000
3015 1       7.3021320279      10.0000000000
3016 1       6.9601947073       9.0000000000
3017 1       7.6262903400       8.0000000000
3018 1       7.1438698424      11.0000000000
3019 1       7.1567165148      10.0000000000
3020 1       7.7178425966       9.0000000000
3021 1       7.6034872147       9.0000000000
3022 1       7.3197696110       7.0000000000
3023 1       7.4873605026       7.0000000000
3024 1       7.2352018180      10.0000000000
3025 1       7.1617883361       8.0000000000
3026 1       6.8807150687      10.0000000000
3027 1       6.7295588731       8.0000000000
3028 1       7.4718282507       9.0000000000
3029 1       7.0633658720       9.0000000000
3030 1       6.7999915942      10.0000000000
3031 1       7.0065234410       8.0000000000
3032 1       7.2390471741       9.0000000000
3033 1       7.2545181517      10.0000000000
3034 1       7.3702259510       9.0000000000
3035 1       7.0838805786       9.0000000000
3036 1       7.8105055814      10.0000000000
3037 1       7.4446086688      10.0000000000
3038 1       7.1628361037       8.0000000000
3039 1       6.9483289607       9.0000000000
3040 1       7.6050840587       7.0000000000
3041 1       7.3758091362       8.0000000000
3042 1       7.1702187083       7.0000000000
3043 1       6.9278665186       9.0000000000
3044 1       6.6197738054       9.0000000000
3045 1       7.6587169719       9.0000000000
3046 1       7.2313324660       9.0000000000
3047 1       6.9418642189      10.0000000000
3048 1       7.8198623181       8.0000000000
3049 1       7.0794022112       9.0000000000
3050 1       7.4756258814      10.0000000000
3051 1       7.0434624575      11.0000000000
3052 1       6.5803099229       9.0000000000
3053 1       7.6633450671      11.0000000000
3054 1       7.1051622717      10.0000000000
3055 1       7.3286621863       8.0000000000
3056 1       7.3005227801       9.0000000000
3057 1       7.3555483530       8.0000000000
3058 1       6.7002294593       9.0000000000
3059 1       7.4401444582      11.0000000000
3060 1       6.9349887833       9.0000000000
3061 1       7.0874544104       8.0000000000
3062 1       6.5367822907       8.0000000000
3063 1       8.1204728280       9.0000000000
3064 1       6.9842395221       9.0000000000
3065 1       7.0195838857       9.0000000000
3066 1       7.0429449929       8.0000000000
3067 1       7.2727870615       8.0000000000
3068 1       7.1543722640      11.0000000000
3069 1       7.3657109287       8.0000000000
3070 1       7.0863883566      10.0000000000
3071 1       7.5236591579       8.0000000000
3072 1       7.2234339434       9.0000000000
3073 1       7.0135307966      10.0000000000
3074 1       7.4753035134       8.0000000000
3075 1       7.3563132978       9.0000000000
3076 1       7.5099700893       9.0000000000
3077 1       7.0886935646       8.0000000000
3078 1       7.3980681071      10.0000000000
3079 1       7.5619031247      10.0000000000
3080 1       7.2541993052       9.0000000000
3081 1       7.0084306271      10.0000000000
3082 1       7.3594861507       9.0000000000
3083 1       7.0546602335       9.0000000000
3084 1       7.9679594578       8.0000000000
3085 1       7.3893324128       9.0000000000
3086 1       7.6071330099       8.0000000000
3087 1       7.3204955701      11.0000000000
3088 1       7.4196405360       9.0000000000
3089 1       7.2420186489       7.0000000000
3090 1       7.6113607738      11.0000000000
3091 1       7.4087020284       9.0000000000
3092 1       7.7410002969      10.0000000000
3093 1       6.9660228248       8.0000000000
3094 1       7.0920387323      11.0000000000
3095 1       6.8770989293       7.0000000000
3096 1       7.1938117729       9.0000000000
3097 1       6.7595215283       8.0000000000
3098 1       7.5343073895      11.0000000000
3099 1       7.3981465533       9.0000000000
3100 1       7.8723519797      10.0000000000
3101 1       7.6244998905       9.0000000000
3102 1       6.9749347355       8.0000000000
3103 1       7.5249990408      11.0000000000
3104 1       6.8882908649       9.0000000000
3105 1       7.7495859376       9.0000000000
3106 1       6.8578526579      12.0000000000
3107 1       7.2253475260       8.0000000000
3108 1       7.2432222090      10.0000000000
3109 1       7.2546579347       9.0000000000
3110 1       7.0514664621       8.0000000000
3111 1       7.5124805088       9.0000000000
3112 1       6.8602785153       9.0000000000
3113 1       7.4798955222      13.0000000000
3114 1       7.4717350574      10.0000000000
3115 1       7.3503427098      10.0000000000
3116 1       7.0645212129       9.0000000000
3117 1       7.3348642373      10.0000000000
3118 1       7.1609179681       9.0000000000
3119 1       7.3762876464      13.0000000000
3120 1       7.3239211688      10.0000000000
3121 1       7.0659304092       9.0000000000
3122 1       7.3528376585      10.0000000000
3123 1       6.7654811781       8.0000000000
3124 1       6.9989974108       9.0000000000
3125 1       7.7151646550      10.0000000000
3126 1       7.3881643486      11.0000000000
3127 1       7.3950004980      10.0000000000
3128 1       8.0057077256      11.0000000000
3129 1       6.9939285106       9.0000000000
3130 1       7.0424295467       8.0000000000
3131 1       7.0346209262      10.0000000000
3132 1       7.4022757324      12.0000000000
3133 1       7.1410037686       8.0000000000
3134 1       7.0264124424      10.0000000000
3135 1       7.2612232076      12.0000000000
3136 1       7.2683937595       7.0000000000
3137 1       7.3276154194       9.0000000000
3138 1       7.6394251891       9.0000000000
3139 1       7.4883833739       9.0000000000
3140 1       7.6510932560      11.0000000000
3141 1       6.4696880494       9.0000000000
3142 1       7.5936372510      12.0000000000
3143 1       7.0853354622       9.0000000000
3144 1       7.6078474356      11.0000000000
3145 1       7.6191672672      10.0000000000
3146 1       6.9459422372       9.0000000000
3147 1       7.5213878670       9.0000000000
3148 1       7.3433826840      11.0000000000
3149 1       7.9497371946      11.0000000000
3150 1       6.9831481946       9.0000000000
3151 1       7.2739896101       8.0000000000
3152 1       7.1776455337      10.0000000000
3153 1       7.4439707782       8.0000000000
3154 1       7.0468664609       7.0000000000
3155 1       7.2506012852      10.0000000000
3156 1       7.4565477554      10.0000000000
3157 1       7.2629374445      11.0000000000
3158 1       7.4387787350       9.0000000000
3159 1       7.4427104810      11.0000000000
3160 1       7.0273119228       9.0000000000
3161 1       7.4596958138       9.0000000000
3162 1       7.2421320148      10.0000000000
3163 1       8.2138269722      10.0000000000
3164 1       7.0154886713       8.0000000000
3165 1       6.5031488086       9.0000000000
3166 1       7.6317584730       9.0000000000
3167 1       6.8138892734       8.0000000000
3168 1       7.0562895811       8.0000000000
3169 1       7.2088954286      10.0000000000
3170 1       7.7207856625      10.0000000000
3171 1       7.2921494929       9.0000000000
3172 1       7.2814708659       9.0000000000
3173 1       6.7381011587       8.0000000000
3174 1       7.0747741122       9.0000000000
3175 1       6.8868237589      10.0000000000
3176 1       7.4639742064      10.0000000000
3177 1       7.2925470486       8.0000000000
3178 1       7.3213074040      10.0000000000
3179 1       7.5886601852       8.0000000000
3180 1       7.3233074812       9.0000000000
3181 1       8.4061361719      10.0000000000
3182 1       7.7654362322      12.0000000000
3183 1       8.0450973504      10.0000000000
3184 1       7.6844152384       9.0000000000
3185 1       6.8032667782       8.0000000000
3186 1       7.6607743019      10.0000000000
3187 1       8.0054442596      10.0000000000
3188 1       7.3214920578       9.0000000000
3189 1       7.2350015170       8.0000000000
3190 1       7.4227340200       7.0000000000
3191 1       6.7976484395       6.0000000000
3192 1       7.3011336108       8.0000000000
3193 1       7.2604596737      10.0000000000
3194 1       7.0278757479       6.0000000000
3195 1       7.5248396499       9.0000000000
3196 1       7.5495380401      11.0000000000
3197 1       6.9044410157      10.0000000000
3198 1       7.2903177849      10.0000000000
3199 1       7.5470248419      12.0000000000
3200 1       6.9718717172       8.0000000000
3201 1       6.9759347801       9.0000000000
3202 1       7.0142251645       8.0000000000
3203 1       7.3769742558       9.0000000000
3204 1       7.1026082490       8.0000000000
3205 1       7.1470410217       8.0000000000
3206 1       7.0897413399       9.0000000000
3207 1       7.2461605079       9.0000000000
3208 1       7.7106366274      11.0000000000
3209 1       6.7536388628       9.0000000000
3210 1       7.0930125627      11.0000000000
3211 1       6.9656257489      11.0000000000
3212 1       7.6248010860      11.0000000000
3213 1       6.9415301819      10.0000000000
3214 1       7.4293076209      10.0000000000
3215 1       7.0203469552       8.0000000000
3216 1       7.7283691244      10.0000000000
3217 1       7.3753841828       9.0000000000
3218 1       7.7198723252       9.0000000000
3219 1       8.3762168179      10.0000000000
3220 1       6.8475437370       9.0000000000
3221 1       6.7505320295       8.0000000000
3222 1       6.9762334382       9.0000000000
3223 1       7.1906062938      10.0000000000
3224 1       6.8222412638      10.0000000000
3225 1       7.2314685181       9.0000000000
3226 1       6.8656560431       7.0000000000
3227 1       6.7896467083       7.0000000000
3228 1       7.4721045563      11.0000000000
3229 1       7.6185615885      11.0000000000
3230 1       6.6696860049      10.0000000000
3231 1       7.0194470847      10.0000000000
3232 1       6.8602408206      12.0000000000
3233 1       7.4133715671       8.0000000000
3234 1       7.4403636629      10.0000000000
3235 1       6.8122092923      10.0000000000
3236 1       6.9667610542       8.0000000000
3237 1       6.7637811412       9.0000000000
3238 1       7.8607266215       9.0000000000
3239 1       6.9196072261       9.0000000000
3240 1       6.8193121326       8.0000000000
3241 1       6.8054682678       8.0000000000
3242 1       7.4837115075      11.0000000000
3243 1       6.8719644449       9.0000000000
3244 1       7.2725318192       9.0000000000
3245 1       7.6622735860       9.0000000000
3246 1       7.2121793691       9.0000000000
3247 1       7.8308761060       9.0000000000
3248 1       7.4748243796       8.0000000000
3249 1       7.4372578780      10.0000000000
3250 1       7.2289957145       8.0000000000
3251 1       7.1429054129       8.0000000000
3252 1       6.9458027922       7.0000000000
3253 1       7.6007458580      11.0000000000
3254 1       7.2912928089       8.0000000000
3255 1       7.4116594640       8.0000000000
3256 1       6.8198987789       7.0000000000
3257 1       6.6925821997      10.0000000000
3258 1       7.3215694357       8.0000000000
3259 1       7.3986442332       8.0000000000
3260 1       7.0114558515      11.0000000000
3261 1       6.3424397732      11.0000000000
3262 1       6.9885454524       9.0000000000
3263 1       7.3726769010       8.0000000000
3264 1       8.1227791318       9.0000000000
3265 1       7.3052404314      10.0000000000
3266 1       6.7045739439       9.0000000000
3267 1       7.3884078383      10.0000000000
3268 1       7.1475546316      10.0000000000
3269 1       7.7674619794      11.0000000000
3270 1       7.4274037922      11.0000000000
3271 1       7.2004101461       9.0000000000
3272 1       7.2718003530       9.0000000000
3273 1       7.5415590856      10.0000000000
3274 1       7.0141999001      10.0000000000
3275 1       7.3887104498      10.0000000000
3276 1       7.3482164340      11.0000000000
3277 1       7.2884692985      12.0000000000
3278 1       7.1437037169       8.0000000000
3279 1       6.8479949403      10.0000000000
3280 1       7.1667351146       8.0000000000
3281 1       7.0011693939       9.0000000000
3282 1       7.9856561791      13.0000000000
3283 1       7.3193137083       9.0000000000
3284 1       7.3731283463      10.0000000000
3285 1       7.3188390307       9.0000000000
3286 1       7.6467413628       9.0000000000
3287 1       7.1133702116       8.0000000000
3288 1       7.8607895556       9.0000000000
3289 1       7.3526028521      10.0000000000
3290 1       7.4850330021       9.0000000000
3291 1       6.8627720461       9.0000000000
3292 1       7.7861950060      11.0000000000
3293 1       7.4425286081      10.0000000000
3294 1       7.4010907451       8.0000000000
3295 1       6.9621394117       9.0000000000
3296 1       6.5592374587       8.0000000000
3297 1       6.9624178923      11.0000000000
3298 1       7.4821058289      10.0000000000
3299 1       7.3735498579       8.0000000000
3300 1       7.2518647922       8.0000000000
3301 1       7.0766433621      10.0000000000
3302 1       6.9066513067      11.0000000000
3303 1       6.9800535877       8.0000000000
3304 1       8.0297820247      12.0000000000
3305 1       7.2751413571       8.0000000000
3306 1       6.9707107398       9.0000000000
3307 1       6.6621860552      11.0000000000
3308 1       6.9905302115       9.0000000000
3309 1       7.4407052358       7.0000000000
3310 1       7.3856279086       9.0000000000
3311 1       6.8194239879      10.0000000000
3312 1       7.0169660683       9.0000000000
3313 1       7.8670183140       9.0000000000
3314 1       7.8241379179      11.0000000000
3315 1       7.3199558452       7.0000000000
3316 1       7.3499135853       8.0000000000
3317 1       6.9102881679       9.0000000000
3318 1       7.2794683597      11.0000000000
3319 1       6.8514549932       8.0000000000
3320 1       7.1217181639       8.0000000000
3321 1       7.3915294664      12.0000000000
3322 1       7.4464449369      11.0000000000
3323 1       7.5314050501       8.0000000000
3324 1       7.4928297404       7.0000000000
3325 1       6.9112987349       8.0000000000
3326 1       7.3048719080       8.0000000000
3327 1       7.4215500827      10.0000000000
3328 1       6.7672741041      10.0000000000
3329 1       7.6907667919       6.0000000000
3330 1       6.9071035629       9.0000000000
3331 1       6.9567183938       9.0000000000
3332 1       7.0292309449       8.0000000000
3333 1       7.2768751722      11.0000000000
3334 1       6.9349528937       9.0000000000
3335 1       7.4367929169      12.0000000000
3336 1       7.4288141893      10.0000000000
3337 1       6.9938524297      10.0000000000
3338 1       7.3873313408       8.0000000000
3339 1       7.0392439365      10.0000000000
3340 1       6.8715737402       9.0000000000
3341 1       7.4340030472      10.0000000000
3342 1       6.9907107183       9.0000000000
3343 1       7.7806394911      12.0000000000
3344 1       6.8233673740      10.0000000000
3345 1       7.3529873894       9.0000000000
3346 1       7.3376220212       9.0000000000
3347 1       7.2742540782      11.0000000000
3348 1       7.4923175362      11.0000000000
3349 1       7.1218747579      12.0000000000
3350 1       6.9289238740       9.0000000000
3351 1       7.4470018666       7.0000000000
3352 1       7.7229048470       9.0000000000
3353 1       7.6098552465       9.0000000000
3354 1       7.3570104063      11.0000000000
3355 1       6.8787210265      11.0000000000
3356 1       7.3962217517       9.0000000000
3357 1       7.0863303896      10.0000000000
3358 1       8.0104693147       9.0000000000
3359 1       7.9721694928      11.0000000000
3360 1       7.3079434674       8.0000000000
3361 1       7.3108258935       8.0000000000
3362 1       7.5257592776       9.0000000000
3363 1       7.0202422065      10.0000000000
3364 1       7.1426895989      10.0000000000
3365 1       7.1929569656      10.0000000000
3366 1       6.8097589175      10.0000000000
3367 1       8.1522043451      10.0000000000
3368 1       7.3646907988       8.0000000000
3369 1       7.4040897297      13.0000000000
3370 1       7.0060309957       8.0000000000
3371 1       6.9281423658       8.0000000000
3372 1       6.4893977411      10.0000000000
3373 1       7.0343050025       9.0000000000
3374 1       7.0792567178      11.0000000000
3375 1       7.5749254892      12.0000000000
3376 1       7.2099000851       8.0000000000
3377 1       7.2357250999       9.0000000000
3378 1       7.2493210115       8.0000000000
3379 1       7.4750013558       9.0000000000
3380 1       7.6114759611       8.0000000000
3381 1       7.9236119246      10.0000000000
3382 1       7.5632510049      10.0000000000
3383 1       7.7029523207       9.0000000000
3384 1       7.4451168005      11.0000000000
3385 1       7.0524752987       9.0000000000
3386 1       7.5310399694      10.0000000000
3387 1       7.5199987868      11.0000000000
3388 1       7.2030923544      10.0000000000
3389 1       7.3293378545       9.0000000000
3390 1       7.5575517139      11.0000000000
3391 1       7.2324223705       9.0000000000
3392 1       6.8822556764       7.0000000000
3393 1       7.2482582713      13.0000000000
3394 1       6.8676255993       9.0000000000
3395 1       7.4187376176      10.0000000000
3396 1       7.6461386509      10.0000000000
3397 1       7.7364238254      10.0000000000
3398 1       7.9173264488       9.0000000000
3399 1       7.3655407480       8.0000000000
3400 1       6.8830397058       9.0000000000
3401 1       7.7627969186      11.0000000000
3402 1       7.6132562613      11.0000000000
3403 1       7.2473496132       9.0000000000
3404 1       7.5110331165       9.0000000000
3405 1       6.9567212776       8.0000000000
3406 1       7.1316646501       9.0000000000
3407 1       7.2592649888       9.0000000000
3408 1       6.7919370950       9.0000000000
3409 1       7.4277074669       7.0000000000
3410 1       7.4115931138      13.0000000000
3411 1       7.2014800238       9.0000000000
3412 1       6.8391345537       8.0000000000
3413 1       7.3922222564      10.0000000000
3414 1       8.4846965475       9.0000000000
3415 1       6.5623164783       9.0000000000
3416 1       7.5557818991      10.0000000000
3417 1       7.1715655573       9.0000000000
3418 1       7.3785795940      11.0000000000
3419 1       7.3235656403      11.0000000000
3420 1       7.1070489028      10.0000000000
3421 1       6.9943187963       8.0000000000
3422 1       7.5995501821       8.0000000000
3423 1       7.2957437883       9.0000000000
3424 1       7.1984769334       8.0000000000
3425 1       7.2277184616      11.0000000000
3426 1       7.2903775961      11.0000000000
3427 1       7.1432618239      11.0000000000
3428 1       6.9260162060      10.0000000000
3429 1       7.2195007373      11.0000000000
3430 1       7.9847132358      10.0000000000
3431 1       7.9209816096      10.0000000000
3432 1       7.1263508646       9.0000000000
3433 1       6.9166263237       9.0000000000
3434 1       7.2682515838      10.0000000000
3435 1       6.7123457197       9.0000000000
3436 1       8.1870745737      11.0000000000
3437 1       7.1181723701      10.0000000000
3438 1       7.3238071056      10.0000000000
3439 1       7.4866093087       8.0000000000
3440 1       7.3659660660      10.0000000000
3441 1       7.1163553587      10.0000000000
3442 1       7.3847026379      13.0000000000
3443 1       7.3811547707       8.0000000000
3444 1       7.3678069970      11.0000000000
3445 1       6.9017692748       8.0000000000
3446 1       6.9188343644       9.0000000000
3447 1       7.5280084432      11.0000000000
3448 1       6.9314370641      10.0000000000
3449 1       7.4123520847      10.0000000000
3450 1       7.2082093939       9.0000000000
3451 1       7.6715837117       8.0000000000
3452 1       6.6639265621       9.0000000000
3453 1       7.1061692589       8.0000000000
3454 1       7.0445977862      10.0000000000
3455 1       6.8714635938      10.0000000000
3456 1       6.9595876237       8.0000000000
3457 1       7.1898705936       9.0000000000
3458 1       6.4152495960      11.0000000000
3459 1       6.8297694904      10.0000000000
3460 1       7.1689135018      10.0000000000
3461 1       7.7170797031       9.0000000000
3462 1       6.7372963068      10.0000000000
3463 1       7.7772505303       9.0000000000
3464 1       6.9232088807      10.0000000000
3465 1       7.0723457046      12.0000000000
3466 1       7.6345961268       9.0000000000
3467 1       7.6257384218      11.0000000000
3468 1       7.6827501215      10.0000000000
3469 1       6.8713039729      11.0000000000
3470 1       7.5701662856       8.0000000000
3471 1       7.1142644915       9.0000000000
3472 1       8.5248865358      11.0000000000
3473 1       7.2872135120       9.0000000000
3474 1       6.8089157175       9.0000000000
3475 1       6.9454732474       8.0000000000
3476 1       7.1888990476      10.0000000000
3477 1       7.1876844028       8.0000000000
3478 1       7.6342980314      11.0000000000
3479 1       7.0119387369       9.0000000000
3480 1       7.4784231272       8.0000000000
3481 1       7.2178113369       9.0000000000
3482 1       6.8345496421       9.0000000000
3483 1       7.2748015464       9.0000000000
3484 1       7.5883876692      11.0000000000
3485 1       6.9658053902       9.0000000000
3486 1       7.8028568998      13.0000000000
3487 1       7.0418256809      11.0000000000
3488 1       6.9751386246       9.0000000000
3489 1       6.9827638878       9.0000000000
3490 1       7.0807980764      10.0000000000
3491 1       7.6966102018      10.0000000000
3492 1       7.6715619405      10.0000000000
3493 1       7.0229403542      10.0000000000
3494 1       7.2609850368      10.0000000000
3495 1       6.8514358124       8.0000000000
3496 1       7.1313770635       9.0000000000
3497 1       7.3238468737      10.0000000000
3498 1       7.2176501704      10.0000000000
3499 1       7.5461564588      11.0000000000
3500 1       7.8019163195      10.0000000000
3501 1       7.5664693228       9.0000000000
3502 1       7.4440305624      11.0000000000
3503 1       7.1851741912      11.0000000000
3504 1       7.5481366717       8.0000000000
3505 1       7.2902758576       8.0000000000
3506 1       7.4595930952       9.0000000000
3507 1       7.0059820022       9.0000000000
3508 1       7.2315337324       8.0000000000
3509 1       6.9566061425      10.0000000000
3510 1       6.8819298871       8.0000000000
3511 1       6.7108556285       7.0000000000
3512 1       7.4354675236       9.0000000000
3513 1       7.1773074061       9.0000000000
3514 1       7.3597738616       8.0000000000
3515 1       7.1942134060      11.0000000000
3516 1       7.4833945880      11.0000000000
3517 1       7.1879838322       9.0000000000
3518 1       7.3724283730       8.0000000000
3519 1       7.4257690054       9.0000000000
3520 1       7.2851753103      10.0000000000
3521 1       7.3256997395       9.0000000000
3522 1       7.4158262811      11.0000000000
3523 1       7.2837875746      12.0000000000
3524 1       7.1296756467      10.0000000000
3525 1       7.4449400221      11.0000000000
3526 1       7.0991228491      11.0000000000
3527 1       6.9468566982       9.0000000000
3528 1       7.1724823674      10.0000000000
3529 1       7.3364536078      10.0000000000
3530 1       7.0092420572      10.0000000000
3531 1       6.8141985778      13.0000000000
3532 1       7.1694244865      10.0000000000
3533 1       7.0891149427      10.0000000000
3534 1       6.8871842863      11.0000000000
3535 1       7.1288830294       8.0000000000
3536 1       7.3744005031      10.0000000000
3537 1       6.8878504119       7.0000000000
3538 1       7.4256689914       8.0000000000
3539 1       7.6564829135      10.0000000000
3540 1       6.9719563912       9.0000000000
3541 1       7.4468507065       9.0000000000
3542 1       7.2179169494      11.0000000000
3543 1       7.1152468955       9.0000000000
3544 1       6.9455366843       8.0000000000
3545 1       6.9926647226      12.0000000000
3546 1       7.6385194765       8.0000000000
3547 1       7.7377033884       9.0000000000
3548 1       7.4520680736      10.0000000000
3549 1       7.3415065675       9.0000000000
3550 1       7.7037636194       8.0000000000
3551 1       7.4150347166       9.0000000000
3552 1       7.2328982770      11.0000000000
3553 1       7.2989101867       8.0000000000
3554 1       7.3864483510      11.0000000000
3555 1       6.9428967606       9.0000000000
3556 1       6.9151131000       7.0000000000
3557 1       7.3472926591       8.0000000000
3558 1       7.5725452257      10.0000000000
3559 1       7.3766817260       9.0000000000
3560 1       6.6251942537       9.0000000000
3561 1       7.9526667632      10.0000000000
3562 1       7.0312891391       8.0000000000
3563 1       7.6217453034      10.0000000000
3564 1       7.4484048032      11.0000000000
3565 1       7.0148098757       9.0000000000
3566 1       7.3029657044       7.0000000000
3567 1       7.5272100670       9.0000000000
3568 1       6.9824553062       8.0000000000
3569 1       7.3494643716       9.0000000000
3570 1       6.8642071827       8.0000000000
3571 1       7.5065332762      11.0000000000
3572 1       7.2528762108       9.0000000000
3573 1       6.6235424617       9.0000000000
3574 1       7.1318448107      10.0000000000
3575 1       7.2376767595      10.0000000000
3576 1       7.3248401066      10.0000000000
3577 1       7.4624156245       9.0000000000
3578 1       7.1297295198      12.0000000000
3579 1       7.2441862578       7.0000000000
3580 1       7.2102930452       9.0000000000
3581 1       7.0806849209      10.0000000000
3582 1       7.3613950836      10.0000000000
3583 1       7.5315199354       9.0000000000
3584 1       7.1061643781      12.0000000000
3585 1       7.5857890891       9.0000000000
3586 1       7.4973941244       8.0000000000
3587 1       7.1357977951      13.0000000000
3588 1       7.4818509227      12.0000000000
3589 1       7.6437642722      10.0000000000
3590 1       7.4501735230      10.0000000000
3591 1       7.1154724003      10.0000000000
3592 1       7.0746897387       8.0000000000
3593 1       7.0724516718       9.0000000000
3594 1       7.4261963451      10.0000000000
3595 1       7.3021578861      11.0000000000
3596 1       6.8780676885       9.0000000000
3597 1       7.4555400660      10.0000000000
3598 1       7.3813396560       9.0000000000
3599 1       7.5762631069       9.0000000000
3600 1       7.7622905469      11.0000000000
3601 1       7.6394191453      12.0000000000
3602 1       7.9243345699      10.0000000000
3603 1       7.1374916112       8.0000000000
3604 1       6.5962981978       9.0000000000
3605 1       8.0863958967      10.0000000000
3606 1       6.8606043369      10.0000000000
3607 1       7.3734537710      10.0000000000
3608 1       7.6019833249      11.0000000000
3609 1       6.8796239561      11.0000000000
3610 1       6.8542586284      10.0000000000
3611 1       7.0277987635      10.0000000000
3612 1       6.9550220063      11.0000000000
3613 1       6.8361890721      10.0000000000
3614 1       6.8758574526       9.0000000000
3615 1       7.1391705141       8.0000000000
3616 1       6.8163105654       9.0000000000
3617 1       7.0881885860       8.0000000000
3618 1       6.8508360634       9.0000000000
3619 1       7.0065748300       9.0000000000
3620 1       7.2428575750       8.0000000000
3621 1       7.3026635840       8.0000000000
3622 1       7.0054958003       8.0000000000
3623 1       7.9019681465      12.0000000000
3624 1       7.2122497714       9.0000000000
3625 1       7.1854827927      13.0000000000
3626 1       7.2556869435       7.0000000000
3627 1       6.9652208291      11.0000000000
3628 1       7.4041560582       9.0000000000
3629 1       7.3886854461      12.0000000000
3630 1       7.2795601456       9.0000000000
3631 1       6.9789066921       9.0000000000
3632 1       7.2554351831      10.0000000000
3633 1       7.4358300581       9.0000000000
3634 1       7.1584582409       9.0000000000
3635 1       8.0950026763       7.0000000000
3636 1       7.1894546062       9.0000000000
3637 1       7.4156078069       9.0000000000
3638 1       7.2679827755       9.0000000000
3639 1       7.6212471694      11.0000000000
3640 1       7.1603709492       9.0000000000
3641 1       7.2897964071      11.0000000000
3642 1       7.5148944055      12.0000000000
3643 1       7.7035888489       9.0000000000
3644 1       6.9086594314       9.0000000000
3645 1       7.8130074118      10.0000000000
3646 1       6.8540791000      10.0000000000
3647 1       6.5043218848       9.0000000000
3648 1       6.7840719782       9.0000000000
3649 1       7.5787504213       9.0000000000
3650 1       7.4234774614      10.0000000000
3651 1       6.7558880434       8.0000000000
3652 1       6.8142891110      11.0000000000
3653 1       6.9925222133       9.0000000000
3654 1       7.2192682697      10.0000000000
3655 1       7.0968623621       9.0000000000
3656 1       7.8064401529      10.0000000000
3657 1       7.4550502249      10.0000000000
3658 1       7.5214151179      11.0000000000
3659 1       7.0950836655       9.0000000000
3660 1       6.8624865968       8.0000000000
3661 1       7.4428057303       9.0000000000
3662 1       7.4299977637       9.0000000000
3663 1       6.9898146785       8.0000000000
3664 1       6.7717805778      10.0000000000
3665 1       6.8788755402       8.0000000000
3666 1       6.7238133082      11.0000000000
3667 1       6.5615129616       8.0000000000
3668 1       7.0056155626      11.0000000000
3669 1       7.7309249004      10.0000000000
3670 1       6.9806358579       8.0000000000
3671 1       6.8329545908      11.0000000000
3672 1       7.2711671667      10.0000000000
3673 1       7.3678571989       9.0000000000
3674 1       7.9588084994      11.0000000000
3675 1       7.0419976680       9.0000000000
3676 1       7.0920078933       8.0000000000
3677 1       7.0469832793      10.0000000000
3678 1       7.0703111804       8.0000000000
3679 1       7.6195351030       9.0000000000
3680 1       7.0988112062       9.0000000000
3681 1       7.2554867139       9.0000000000
3682 1       7.5519549277      10.0000000000
3683 1       6.9866450870       9.0000000000
3684 1       7.1455097162       9.0000000000
3685 1       7.3043942345      11.0000000000
3686 1       7.3210378230      10.0000000000
3687 1       7.5509154476       8.0000000000
3688 1       7.1931671197      10.0000000000
3689 1       7.4566994476      11.0000000000
3690 1       7.4237244880      10.0000000000
3691 1       7.6725601376      10.0000000000
3692 1       6.9530950633      11.0000000000
3693 1       7.1901628278      10.0000000000
3694 1       6.9027233631      10.0000000000
3695 1       7.3966314226       9.0000000000
3696 1       7.1092280577      11.0000000000
3697 1       6.8899880904      11.0000000000
3698 1       7.0722005320       9.0000000000
3699 1       7.6440954990      10.0000000000
3700 1       7.9599733346      13.0000000000
3701 1       6.9460099566       9.0000000000
3702 1       7.1429669294       8.0000000000
3703 1       7.1203023221       9.0000000000
3704 1       7.3666504996      11.0000000000
3705 1       7.1811893478       8.0000000000
3706 1       7.3415885985       7.0000000000
3707 1       6.7571865338       7.0000000000
3708 1       7.0171900642      11.0000000000
3709 1       7.0188534853       8.0000000000
3710 1       7.3186701098       9.0000000000
3711 1       7.5868701689       8.0000000000
3712 1       6.9468228342       8.0000000000
3713 1       7.4597805847       9.0000000000
3714 1       7.3559085172       8.0000000000
3715 1       6.9116029768      11.0000000000
3716 1       7.4636311336      10.0000000000
3717 1       6.9844127289       9.0000000000
3718 1       6.9012865599      10.0000000000
3719 1       7.2740691624      10.0000000000
3720 1       7.2807577828       8.0000000000
3721 1       6.9595313352      10.0000000000
3722 1       7.4953874875      10.0000000000
3723 1       7.3422921508       8.0000000000
3724 1       7.1454546726       8.0000000000
3725 1       6.8378224758       8.0000000000
3726 1       7.4291377709       8.0000000000
3727 1       7.5496600218       9.0000000000
3728 1       7.0196390895      10.0000000000
3729 1       7.5935560002       9.0000000000
3730 1       7.7550131976      11.0000000000
3731 1       7.6082402761       9.0000000000
3732 1       7.0908751550      10.0000000000
3733 1       6.7774264931       8.0000000000
3734 1       7.4711744353      12.0000000000
3735 1       7.3736133718      10.0000000000
3736 1       7.6473035199      10.0000000000
3737 1       7.5583541766       9.0000000000
3738 1       7.7554202833      11.0000000000
3739 1       7.1959664538       9.0000000000
3740 1       7.9184715371      10.0000000000
3741 1       7.4767602313       9.0000000000
3742 1       7.1512600664      10.0000000000
3743 1       7.3216902245      10.0000000000
3744 1       7.2662229813      10.0000000000
3745 1       6.6239818459       8.0000000000
3746 1       7.2657778332       8.0000000000
3747 1       7.0718696791       9.0000000000
3748 1       7.7244224161      10.0000000000
3749 1       7.0623658074       8.0000000000
3750 1       6.7366120906      11.0000000000
3751 2      18.5152276950      22.0000000000
3752 2      13.9929883360      17.0000000000
3753 2      14.4076244975      18.0000000000
3754 2      14.5570507351      19.0000000000
3755 2      18.7213197052      20.0000000000
3756 2      14.3684339795      18.0000000000
3757 2      13.0049228433      15.0000000000
3758 2      13.7394509777      16.0000000000
3759 2      12.6634001396      16.0000000000
3760 2      12.8045124001      12.0000000000
3761 2      13.9707439476      14.0000000000
3762 2      14.6701487266      18.0000000000
3763 2      12.8984664757      17.0000000000
3764 2      14.0882922722      19.0000000000
3765 2      13.9160683186      18.0000000000
3766 2      14.7977275611      19.0000000000
3767 2      16.6168270256      21.0000000000
3768 2      14.1750218388      18.0000000000
3769 2      16.3054666353      16.0000000000
3770 2      14.2122774627      17.0000000000
3771 2      14.5052297657      19.0000000000
3772 2      12.8406801932      16.0000000000
3773 2      14.2986602612      16.0000000000
3774 2      17.3090379970      19.0000000000
3775 2      17.0070164339      21.0000000000
3776 2      12.9724782099      18.0000000000
3777 2      14.8616386254      18.0000000000
3778 2      12.4226598867      15.0000000000
3779 2      17.2965165581      22.0000000000
3780 2      14.2919697345      16.0000000000
3781 2      11.0967408993      13.0000000000
3782 2      14.3939254841      20.0000000000
3783 2      15.2708348335      22.0000000000
3784 2      10.9789429551      15.0000000000
3785 2      13.0445335608      15.0000000000
3786 2      14.4495616762      19.0000000000
3787 2      16.1880129964      21.0000000000
3788 2      13.1066960124      18.0000000000
3789 2      14.3582873331      18.0000000000
3790 2      13.0950116356      15.0000000000
3791 2      12.6378657644      21.0000000000
3792 2      15.1051713243      20.0000000000
3793 2      13.3634163041      16.0000000000
3794 2      15.4530335968      20.0000000000
3795 2      13.8210810433      20.0000000000
3796 2      15.9534685549      20.0000000000
3797 2      16.2857569223      18.0000000000
3798 2      14.5954373917      16.0000000000
3799 2      14.3363554061      19.0000000000
3800 2      14.8228979238      19.0000000000
3801 2      15.6456192130      18.0000000000
3802 2      14.2129576496      17.0000000000
3803 2      16.0018982117      21.0000000000
3804 2      16.2905524927      18.0000000000
3805 2      15.0330342016      19.0000000000
3806 2      12.9959610527      17.0000000000
3807 2      14.0056184072      19.0000000000
3808 2      14.1623179452      19.0000000000
3809 2      13.2974122350      19.0000000000
3810 2      15.2244675222      20.0000000000
3811 2      13.5882523905      19.0000000000
3812 2      16.2285062506      21.0000000000
3813 2      12.2089764178      17.0000000000
3814 2      12.3858444829      15.0000000000
3815 2      13.5295688587      16.0000000000
3816 2      12.2066787508      17.0000000000
3817 2      13.8312615613      19.0000000000
3818 2      15.8770313936      18.0000000000
3819 2      13.9202618902      19.0000000000
3820 2      16.6257861290      20.0000000000
3821 2      14.8866554573      16.0000000000
3822 2      13.7675883646      16.0000000000
3823 2      15.7520427057      22.0000000000
3824 2      12.8086543772      17.0000000000
3825 2      14.1164321935      20.0000000000
3826 2      13.5189981236      14.0000000000
3827 2      14.7011892095      18.0000000000
3828 2      14.1124354717      15.0000000000
3829 2      14.0990186054      17.0000000000
3830 2      13.9997277035      15.0000000000
3831 2      11.9178138868      18.0000000000
3832 2      14.7909010014      17.0000000000
3833 2      14.8116520293      19.0000000000
3834 2      15.1935782327      18.0000000000
3835 2      18.0846750573      20.0000000000
3836 2      12.0549518731      18.0000000000
3837 2      14.6229801451      19.0000000000
3838 2      13.8180214964      16.0000000000
3839 2      13.9422112367      18.0000000000
3840 2      14.6423363714      14.0000000000
3841 2      15.8984153067      18.0000000000
3842 2      13.0585806676      15.0000000000
3843 2      15.1817044780      18.0000000000
3844 2      10.6723671607      14.0000000000
3845 2      12.6907182835      13.0000000000
3846 2      15.3171303387      16.0000000000
3847 2      12.8103913639      16.0000000000
3848 2      15.7511608193      17.0000000000
3849 2      13.2045090450      17.0000000000
3850 2      16.0640876001      21.0000000000
3851 2      13.4668088209      19.0000000000
3852 2      14.7703242060      18.0000000000
3853 2      15.4128096404      19.0000000000
3854 2      17.1942533774      16.0000000000
3855 2      15.5544243186      18.0000000000
3856 2      14.1957278206      19.0000000000
3857 2      14.7544022821      23.0000000000
3858 2      14.7587434370      15.0000000000
3859 2      14.5394519338      19.0000000000
3860 2      13.3726941725      16.0000000000
3861 2      15.3143290930      21.0000000000
3862 2      13.3412980741      16.0000000000
3863 2      18.9351029170      21.0000000000
3864 2      14.6186381937      20.0000000000
3865 2      14.8015251310      21.0000000000
3866 2      13.2415501940      17.0000000000
3867 2      15.0730401590      19.0000000000
3868 2      15.7459144332      14.0000000000
3869 2      14.5266780599      16.0000000000
3870 2      14.2499940663      20.0000000000
3871 2      14.3035148240      18.0000000000
3872 2      14.7067241401      17.0000000000
3873 2      13.4363183031      17.0000000000
3874 2      12.3414800355      17.0000000000
3875 2      17.4675719464      20.0000000000
3876 2      15.2674381221      16.0000000000
3877 2      15.2065464749      17.0000000000
3878 2      13.9183722487      18.0000000000
3879 2      16.4845149967      22.0000000000
3880 2      13.3600558115      17.0000000000
3881 2      13.8143515925      16.0000000000
3882 2      14.8241883057      18.0000000000
3883 2      12.3822650024      17.0000000000
3884 2      14.5986611152      19.0000000000
3885 2      12.2631439998      13.0000000000
3886 2      13.9414278401      17.0000000000
3887 2      14.6476345816      19.0000000000
3888 2      13.2953459937      20.0000000000
3889 2      18.6897959447      22.0000000000
3890 2      16.6060225520      22.0000000000
3891 2      12.7437724544      17.0000000000
3892 2      13.9845414037      17.0000000000
3893 2      15.8096615316      19.0000000000
3894 2      15.1486370619      20.0000000000
3895 2      15.3169969486      18.0000000000
3896 2      13.1021200178      16.0000000000
3897 2      14.4675591575      14.0000000000
3898 2      12.7995303835      20.0000000000
3899 2      15.8163744529      15.0000000000
3900 2      13.8002169284      17.0000000000
3901 2      14.5276235622      19.0000000000
3902 2      17.9424079926      18.0000000000
3903 2      14.8480821894      15.0000000000
3904 2      14.3009275647      15.0000000000
3905 2      12.5298524177      18.0000000000
3906 2      16.5296095995      18.0000000000
3907 2      16.5303393514      21.0000000000
3908 2      12.1266909395      15.0000000000
3909 2      15.7465208810      18.0000000000
3910 2      15.8258187610      21.0000000000
3911 2      15.0516358023      20.0000000000
3912 2      12.4229618703      16.0000000000
3913 2      13.7428114570      16.0000000000
3914 2      11.4212978700      14.0000000000
3915 2      12.7485693543      18.0000000000
3916 2      18.8774697680      20.0000000000
3917 2      16.3216211461      18.0000000000
3918 2      17.7447760645      20.0000000000
3919 2      14.1564289563      18.0000000000
3920 2      14.3447771067      19.0000000000
3921 2      16.7897471460      18.0000000000
3922 2      15.1295934115      19.0000000000
3923 2      15.5897543598      18.0000000000
3924 2      15.2200507831      16.0000000000
3925 2      15.0045038858      20.0000000000
3926 2      13.6007253118      18.0000000000
3927 2      13.9978817077      15.0000000000
3928 2      13.8840147799      17.0000000000
3929 2      14.0377785952      17.0000000000
3930 2      12.3885999488      18.0000000000
3931 2      14.6223871107      13.0000000000
3932 2      13.6450826665      15.0000000000
3933 2      12.4185709930      15.0000000000
3934 2      13.7913810059      18.0000000000
3935 2      13.8424552535      14.0000000000
3936 2      12.6667529587      19.0000000000
3937 2      16.9817562940      27.0000000000
3938 2      16.9916538943      20.0000000000
3939 2      15.9117436147      21.0000000000
3940 2      17.7738494616      19.0000000000
3941 2      15.5733380964      19.0000000000
3942 2      15.3523022752      19.0000000000
3943 2      14.0358354687      20.0000000000
3944 2      14.4418489241      15.0000000000
3945 2      14.6156701916      19.0000000000
3946 2      14.5532709430      18.0000000000
3947 2      14.3916274260      14.0000000000
3948 2      13.7314424784      16.0000000000
3949 2      13.2519776991      14.0000000000
3950 2      13.7537343901      16.0000000000
3951 2      13.4623724752      18.0000000000
3952 2      14.0862787533      20.0000000000
3953 2      13.5742784801      19.0000000000
3954 2      12.8926696261      17.0000000000
3955 2      14.5809471098      20.0000000000
3956 2      16.1944846237      19.0000000000
3957 2      15.2403577275      14.0000000000
3958 2      12.5538546310      13.0000000000
3959 2      15.8687845990      17.0000000000
3960 2      16.1165944209      18.0000000000
3961 2      13.6581965146      17.0000000000
3962 2      14.4485456563      18.0000000000
3963 2      13.9468555339      18.0000000000
3964 2      13.7328392915      19.0000000000
3965 2      14.9856789439      18.0000000000
3966 2      17.3115627637      22.0000000000
3967 2      16.8768154540      19.0000000000
3968 2      14.4189519552      17.0000000000
3969 2      15.8884348426      19.0000000000
3970 2      16.1023068773      18.0000000000
3971 2      17.1101523909      18.0000000000
3972 2      12.8633468207      17.0000000000
3973 2      12.4011145358      16.0000000000
3974 2      13.4068100088      16.0000000000
3975 2      15.1861861831      18.0000000000
3976 2      16.2369327763      18.0000000000
3977 2      16.0771159640      20.0000000000
3978 2      14.8492878196      20.0000000000
3979 2      14.1572502312      17.0000000000
3980 2      11.8110945752      13.0000000000
3981 2      14.3475789418      20.0000000000
3982 2      13.5253242798      17.0000000000
3983 2      18.2440344624      21.0000000000
3984 2      17.1888235184      20.0000000000
3985 2      13.2583922305      19.0000000000
3986 2      12.2374066666      16.0000000000
3987 2      14.7125301617      16.0000000000
3988 2      13.0405041895      14.0000000000
3989 2      14.9259754898      19.0000000000
3990 2      15.5517096223      19.0000000000
3991 2      13.5583212638      16.0000000000
3992 2      14.9292361347      19.0000000000
3993 2      14.6782937047      18.0000000000
3994 2      13.5821547233      17.0000000000
3995 2      16.5277450418      20.0000000000
3996 2      14.7524740915      15.0000000000
3997 2      13.9875388342      14.0000000000
3998 2      13.7740862004      20.0000000000
3999 2      18.9705571243      21.0000000000
4000 2      17.0362205495      22.0000000000
4001 2      16.0560738599      19.0000000000
4002 2      14.0463930085      18.0000000000
4003 2      13.7583251087      17.0000000000
4004 2      13.8055442917      19.0000000000
4005 2      14.9244785196      17.0000000000
4006 2      15.7991802172      20.0000000000
4007 2      17.8933205968      22.0000000000
4008 2      13.8231610012      20.0000000000
4009 2      13.1809773966      20.0000000000
4010 2      14.4588500220      17.0000000000
4011 2      14.5315267982      18.0000000000
4012 2      13.9390180922      19.0000000000
4013 2      15.7985659479      20.0000000000
4014 2      13.9002891726      17.0000000000
4015 2      13.4196040336      17.0000000000
4016 2      14.2163384436      18.0000000000
4017 2      12.6361130606      17.0000000000
4018 2      13.5115783954      21.0000000000
4019 2      13.3464162669      17.0000000000
4020 2      15.7200413784      20.0000000000
4021 2      14.6886013556      21.0000000000
4022 2      14.5820600082      18.0000000000
4023 2      15.7290493280      17.0000000000
4024 2      15.4062308391      19.0000000000
4025 2      14.3791409137      18.0000000000
4026 2      13.1744477674      14.0000000000
4027 2      15.1746269222      18.0000000000
4028 2      17.6863491157      25.0000000000
4029 2      12.9899895454      17.0000000000
4030 2      13.0914427432      13.0000000000
4031 2      13.7959877662      17.0000000000
4032 2      13.0595575626      15.0000000000
4033 2      11.5991470141      15.0000000000
4034 2      15.3114716156      20.0000000000
4035 2      18.1576150454      22.0000000000
4036 2      14.5998595968      18.0000000000
4037 2      12.9435620829      17.0000000000
4038 2      14.3817035322      18.0000000000
4039 2      15.4150753822      17.0000000000
4040 2      12.8492317350      16.0000000000
4041 2      18.1393229943      19.0000000000
4042 2      13.3981543368      18.0000000000
4043 2      16.5621516703      20.0000000000
4044 2      16.6567716325      20.0000000000
4045 2      17.0721261413      23.0000000000
4046 2      17.0924569265      20.0000000000
4047 2      15.1039223927      16.0000000000
4048 2      14.8287662944      18.0000000000
4049 2      15.6424628647      17.0000000000
4050 2      11.7380252503      15.0000000000
4051 2      16.1524900030      25.0000000000
4052 2      15.3814732256      19.0000000000
4053 2      12.9554690365      16.0000000000
4054 2      15.4497680973      19.0000000000
4055 2      16.7062041677      22.0000000000
4056 2      15.3203491404      18.0000000000
4057 2      17.3431075534      19.0000000000
4058 2      15.2615727526      20.0000000000
4059 2      13.6781807927      16.0000000000
4060 2      13.1921216415      15.0000000000
4061 2      14.7723392519      20.0000000000
4062 2      14.2322264610      21.0000000000
4063 2      15.5571298735      19.0000000000
4064 2      16.3582348231      21.0000000000
4065 2      13.3740088218      18.0000000000
4066 2      16.6687874162      18.0000000000
4067 2      14.5385175563      17.0000000000
4068 2      14.8949394467      16.0000000000
4069 2      15.0464496617      16.0000000000
4070 2      13.2902884524      19.0000000000
4071 2      14.2398017717      17.0000000000
4072 2      13.8777461622      16.0000000000
4073 2      15.1076011888      18.0000000000
4074 2      15.7639553515      18.0000000000
4075 2      13.9282744179      19.0000000000
4076 2      13.5964152415      14.0000000000
4077 2      14.3960659585      22.0000000000
4078 2      11.8992603047      15.0000000000
4079 2      14.6071788409      18.0000000000
4080 2      15.6481808726      21.0000000000
4081 2      14.6201489867      15.0000000000
4082 2      13.8146372927      16.0000000000
4083 2      12.8467490851      19.0000000000
4084 2      15.9452272587      16.0000000000
4085 2      14.7800153347      19.0000000000
4086 2      13.3580490744      16.0000000000
4087 2      14.7248357181      20.0000000000
4088 2      14.6708035220      18.0000000000
4089 2      14.7194950122      18.0000000000
4090 2      13.7151357596      17.0000000000
4091 2      13.3431291752      15.0000000000
4092 2      14.6210215687      15.0000000000
4093 2      14.7391898657      19.0000000000
4094 2      15.4296626393      17.0000000000
4095 2      13.3582781205      17.0000000000
4096 2      17.0077266072      19.0000000000
4097 2      14.0340699446      19.0000000000
4098 2      14.1127850797      18.0000000000
4099 2      14.6513398407      20.0000000000
4100 2      16.1244097207      18.0000000000
4101 2      14.4438422187      16.0000000000
4102 2      14.6949204293      17.0000000000
4103 2      13.2127652381      17.0000000000
4104 2      15.4782621286      19.0000000000
4105 2      13.3095651628      16.0000000000
4106 2      15.3379050106      20.0000000000
4107 2      12.7036795869      18.0000000000
4108 2      16.0145848258      20.0000000000
4109 2      13.7102151366      18.0000000000
4110 2      13.5939524954      18.0000000000
4111 2      14.9564837721      19.0000000000
4112 2      12.3158044417      15.0000000000
4113 2      12.1434463207      13.0000000000
4114 2      15.1896746452      16.0000000000
4115 2      19.3780902323      20.0000000000
4116 2      16.5732516523      21.0000000000
4117 2      15.0105831949      19.0000000000
4118 2      16.8750556321      21.0000000000
4119 2      16.1285752230      22.0000000000
4120 2      13.4465561618      17.0000000000
4121 2      15.2532021680      16.0000000000
4122 2      14.7934083867      17.0000000000
4123 2      14.8613563979      23.0000000000
4124 2      15.4794462415      18.0000000000
4125 2      14.5301158972      20.0000000000
4126 2      13.4854469872      16.0000000000
4127 2      13.1220553847      14.0000000000
4128 2      13.2748944913      15.0000000000
4129 2      16.2898283663      23.0000000000
4130 2      16.2664234991      23.0000000000
4131 2      17.5059851731      23.0000000000
4132 2      16.7038616260      23.0000000000
4133 2      15.4093437135      18.0000000000
4134 2      14.6759980717      19.0000000000
4135 2      14.9466617319      16.0000000000
4136 2      11.4118474040      12.0000000000
4137 2      16.6031553850      20.0000000000
4138 2      15.9668567482      19.0000000000
4139 2      14.3937030316      17.0000000000
4140 2      16.1236421533      18.0000000000
4141 2      14.8249687686      16.0000000000
4142 2      14.6448211909      20.0000000000
4143 2      14.9765328209      22.0000000000
4144 2      13.4355951240      18.0000000000
4145 2      14.5444972995      14.0000000000
4146 2      14.1552662199      21.0000000000
4147 2      15.4061454214      19.0000000000
4148 2      16.4571277939      20.0000000000
4149 2      15.0296292199      21.0000000000
4150 2      12.6394913071      17.0000000000
4151 2      14.6379395684      15.0000000000
4152 2      13.2073452109      17.0000000000
4153 2      15.8074984551      17.0000000000
4154 2      17.1864420576      22.0000000000
4155 2      14.7813687478      19.0000000000
4156 2      11.8551525408      14.0000000000
4157 2      15.3109064079      20.0000000000
4158 2      12.4837516000      16.0000000000
4159 2      14.6483394764      18.0000000000
4160 2      16.7179362117      25.0000000000
4161 2      16.3020251798      17.0000000000
4162 2      16.2864501818      21.0000000000
4163 2      12.9023709091      17.0000000000
4164 2      13.9523500514      16.0000000000
4165 2      14.3798680520      17.0000000000
4166 2      15.8493744776      19.0000000000
4167 2      16.9771554012      26.0000000000
4168 2      12.4453404251      17.0000000000
4169 2      15.4377007649      22.0000000000
4170 2      15.3191369542      18.0000000000
4171 2      16.7102384873      17.0000000000
4172 2      14.7819208906      16.0000000000
4173 2      15.6831638976      20.0000000000
4174 2      14.3198781736      18.0000000000
4175 2      15.6499610941      17.0000000000
4176 2      18.1814873706      17.0000000000
4177 2      13.2541703809      17.0000000000
4178 2      14.7468956354      16.0000000000
4179 2      16.0863911151      17.0000000000
4180 2      17.1443411200      20.0000000000
4181 2      12.4161626793      12.0000000000
4182 2      17.4054923393      19.0000000000
4183 2      13.4465006583      15.0000000000
4184 2      14.6492453258      13.0000000000
4185 2      13.6853852859      17.0000000000
4186 2      15.8082972704      18.0000000000
4187 2      12.8833736528      17.0000000000
4188 2      13.8729774160      16.0000000000
4189 2      15.1234111354      18.0000000000
4190 2      14.2099910640      16.0000000000
4191 2      14.7133291653      15.0000000000
4192 2      11.7104965207      17.0000000000
4193 2      13.3860395581      20.0000000000
4194 2      13.2783397349      15.0000000000
4195 2      14.7333193896      17.0000000000
4196 2      15.1693230302      20.0000000000
4197 2      13.1578713476      18.0000000000
4198 2      17.1719959015      20.0000000000
4199 2      12.9653589192      16.0000000000
4200 2      17.2727251289      20.0000000000
4201 2      14.3482709505      18.0000000000
4202 2      17.5266219887      18.0000000000
4203 2      16.6459006053      20.0000000000
4204 2      15.4733182135      18.0000000000
4205 2      12.9477391846      16.0000000000
4206 2      14.1658686058      18.0000000000
4207 2      13.7405638344      21.0000000000
4208 2      16.8070208889      18.0000000000
4209 2      16.1820416260      20.0000000000
4210 2      14.3217462268      18.0000000000
4211 2      15.7654877743      17.0000000000
4212 2      13.6097513188      14.0000000000
4213 2      12.8914950035      15.0000000000
4214 2      13.6514575694      19.0000000000
4215 2      12.9255749030      18.0000000000
4216 2      15.9383972022      18.0000000000
4217 2      11.9298282568      16.0000000000
4218 2      14.4798459983      17.0000000000
4219 2      16.0426581758      19.0000000000
4220 2      18.9551410800      18.0000000000
4221 2      16.0116065986      21.0000000000
4222 2      15.8982445739      20.0000000000
4223 2      14.1085322698      21.0000000000
4224 2      16.0374350346      20.0000000000
4225 2      15.9171713867      17.0000000000
4226 2      17.3023253129      20.0000000000
4227 2      16.1633782144      19.0000000000
4228 2      16.1987376833      16.0000000000
4229 2      13.0073556355      20.0000000000
4230 2      14.1273056570      16.0000000000
4231 2      14.6978726071      17.0000000000
4232 2      12.5387025376      14.0000000000
4233 2      14.9212379912      16.0000000000
4234 2      14.0063752890      18.0000000000
4235 2      15.9144436660      16.0000000000
4236 2      13.7872688167      15.0000000000
4237 2      13.4485312400      17.0000000000
4238 2      13.7765510887      17.0000000000
4239 2      15.7884198499      16.0000000000
4240 2      16.6622847393      20.0000000000
4241 2      13.5581328336      15.0000000000
4242 2      14.0837275525      19.0000000000
4243 2      14.6360039672      19.0000000000
4244 2      12.7465223702      16.0000000000
4245 2      16.1992271198      21.0000000000
4246 2      15.0067283555      19.0000000000
4247 2      14.6545427684      21.0000000000
4248 2      13.9170575553      20.0000000000
4249 2      13.6293156018      16.0000000000
4250 2      12.6443496689      15.0000000000
4251 2      11.2053186712      13.0000000000
4252 2      17.3747143086      18.0000000000
4253 2      17.5690727863      23.0000000000
4254 2      15.4117876781      18.0000000000
4255 2      12.0410697826      17.0000000000
4256 2      13.5583753170      16.0000000000
4257 2      13.2832621287      20.0000000000
4258 2      12.7750125542      15.0000000000
4259 2      12.6990067186      16.0000000000
4260 2      15.4450513244      19.0000000000
4261 2      14.2709639933      17.0000000000
4262 2      11.7819093686      16.0000000000
4263 2      17.2647725060      23.0000000000
4264 2      14.9233828527      17.0000000000
4265 2      13.3858162955      18.0000000000
4266 2      14.8861444604      20.0000000000
4267 2      16.1306990718      17.0000000000
4268 2      13.7192825624      16.0000000000
4269 2      14.0772613401      19.0000000000
4270 2      15.7450709870      22.0000000000
4271 2      13.6878062069      19.0000000000
4272 2      13.5620371295      17.0000000000
4273 2      16.0925964341      18.0000000000
4274 2      14.6948810745      18.0000000000
4275 2      15.6015508739      20.0000000000
4276 2      16.5191603383      21.0000000000
4277 2      17.0866630843      17.0000000000
4278 2      18.2025499496      22.0000000000
4279 2      13.3572908081      17.0000000000
4280 2      13.7856418157      19.0000000000
4281 2      15.0438070309      18.0000000000
4282 2      14.9939964991      20.0000000000
4283 2      17.2479778101      22.0000000000
4284 2      14.6884989812      20.0000000000
4285 2      13.5593402811      17.0000000000
4286 2      16.9145040981      20.0000000000
4287 2      14.0511198330      19.0000000000
4288 2      15.2768894735      19.0000000000
4289 2      15.4655894883      22.0000000000
4290 2      12.0477377080      18.0000000000
4291 2      15.8241055837      18.0000000000
4292 2      16.1257196849      15.0000000000
4293 2      13.3609152428      16.0000000000
4294 2      16.1041027063      21.0000000000
4295 2      13.3551941442      16.0000000000
4296 2      15.2700864832      21.0000000000
4297 2      14.8541099374      19.0000000000
4298 2      16.0739016814      21.0000000000
4299 2      14.5457479341      21.0000000000
4300 2      14.9902432684      17.0000000000
4301 2      14.3527302742      21.0000000000
4302 2      14.3234454250      16.0000000000
4303 2      13.2590384416      20.0000000000
4304 2      11.9232233203      14.0000000000
4305 2      12.6842148264      14.0000000000
4306 2      12.8092534327      14.0000000000
4307 2      14.6766151526      21.0000000000
4308 2      17.1649658287      23.0000000000
4309 2      15.6833222054      15.0000000000
4310 2      14.6741304260      16.0000000000
4311 2      16.8970554245      20.0000000000
4312 2      13.1474509106      16.0000000000
4313 2      10.8208055470      13.0000000000
4314 2      13.5470446244      17.0000000000
4315 2      12.7995776499      17.0000000000
4316 2      13.2601401650      17.0000000000
4317 2      12.9445921396      19.0000000000
4318 2      15.9448125620      23.0000000000
4319 2      13.9089493661      14.0000000000
4320 2      13.8788993066      17.0000000000
4321 2      14.1700456270      19.0000000000
4322 2      15.0330030737      16.0000000000
4323 2      11.9635893950      14.0000000000
4324 2      12.8085604898      17.0000000000
4325 2      11.8991145381      19.0000000000
4326 2      17.7617476702      25.0000000000
4327 2      13.5022445148      16.0000000000
4328 2      15.3059168242      18.0000000000
4329 2      15.8758857902      19.0000000000
4330 2      12.7862589652      15.0000000000
4331 2      13.5050774306      17.0000000000
4332 2      16.2595977741      17.0000000000
4333 2      13.8297320439      17.0000000000
4334 2      14.8241850517      20.0000000000
4335 2      15.0282799112      18.0000000000
4336 2      17.8723927022      20.0000000000
4337 2      13.8189697494      15.0000000000
4338 2      16.9997682851      20.0000000000
4339 2      14.3655371900      15.0000000000
4340 2      18.1460283893      19.0000000000
4341 2      12.7547215624      18.0000000000
4342 2      12.6155575567      15.0000000000
4343 2      18.1711109347      24.0000000000
4344 2      15.0538238126      18.0000000000
4345 2      15.2070686116      20.0000000000
4346 2      15.1229376111      20.0000000000
4347 2      12.6847155277      16.0000000000
4348 2      15.6222782723      17.0000000000
4349 2      15.2005025044      16.0000000000
4350 2      15.4943137379      21.0000000000
4351 2      14.8464504723      18.0000000000
4352 2      15.3291116100      22.0000000000
4353 2      13.7458128275      13.0000000000
4354 2      15.7084883832      20.0000000000
4355 2      14.3483164299      18.0000000000
4356 2      13.9275839396      21.0000000000
4357 2      14.5379620711      17.0000000000
4358 2      15.7480510062      18.0000000000
4359 2      15.6467364288      20.0000000000
4360 2      14.2208753911      17.0000000000
4361 2      14.3779713848      14.0000000000
4362 2      14.4171449726      20.0000000000
4363 2      13.4605656933      17.0000000000
4364 2      14.1783343724      16.0000000000
4365 2      13.6379798345      17.0000000000
4366 2      13.8559961420      17.0000000000
4367 2      16.6684665606      19.0000000000
4368 2      12.1854237864      18.0000000000
4369 2      12.5277126976      15.0000000000
4370 2      14.6903135261      16.0000000000
4371 2      13.9343924793      16.0000000000
4372 2      12.4392918936      14.0000000000
4373 2      13.6385158558      19.0000000000
4374 2      15.8022595952      17.0000000000
4375 2      15.8134859699      18.0000000000
4376 2      14.4971394510      21.0000000000
4377 2      14.0377025356      18.0000000000
4378 2      12.6337092252      15.0000000000
4379 2      13.3841314113      15.0000000000
4380 2      12.5007461903      17.0000000000
4381 2      12.6032592393      15.0000000000
4382 2      13.9684598435      16.0000000000
4383 2      14.3368540922      18.0000000000
4384 2      14.1112227918      15.0000000000
4385 2      15.1180331356      18.0000000000
4386 2      14.5076532277      19.0000000000
4387 2      14.3490111621      17.0000000000
4388 2      16.0976798170      17.0000000000
4389 2      16.1280912087      19.0000000000
4390 2      13.5511257379      18.0000000000
4391 2      15.0570454014      19.0000000000
4392 2      12.0276222579      16.0000000000
4393 2      14.5941455312      19.0000000000
4394 2      14.7306450007      20.0000000000
4395 2      15.3063454868      18.0000000000
4396 2      14.3444227732      20.0000000000
4397 2      12.4163024097      14.0000000000
4398 2      14.1516376313      16.0000000000
4399 2      10.9765233132      14.0000000000
4400 2      13.9876460521      19.0000000000
4401 2      17.3523150643      22.0000000000
4402 2      15.3606504210      17.0000000000
4403 2      13.5427636200      16.0000000000
4404 2      13.4542962897      19.0000000000
4405 2      13.7554676792      16.0000000000
4406 2      13.9462699634      18.0000000000
4407 2      14.0677477972      17.0000000000
4408 2      13.9974386378      14.0000000000
4409 2      14.3759563917      20.0000000000
4410 2      15.4588289881      22.0000000000
4411 2      12.8664300962      19.0000000000
4412 2      16.0155631215      16.0000000000
4413 2      14.3174251488      17.0000000000
4414 2      14.9971174637      18.0000000000
4415 2      14.7383597270      20.0000000000
4416 2      12.6817860390      17.0000000000
4417 2      14.5564339439      15.0000000000
4418 2      14.6495212078      21.0000000000
4419 2      11.1762164979      15.0000000000
4420 2      16.1914409494      22.0000000000
4421 2      16.3870034628      17.0000000000
4422 2      14.3740231985      21.0000000000
4423 2      13.2021318019      17.0000000000
4424 2      15.7407225702      19.0000000000
4425 2      16.5276576370      19.0000000000
4426 2      14.9132927467      17.0000000000
4427 2      13.9055879459      15.0000000000
4428 2      16.1477715913      19.0000000000
4429 2      13.5972780345      18.0000000000
4430 2      16.8105417020      18.0000000000
4431 2      12.1189256412      17.0000000000
4432 2      15.2069512653      22.0000000000
4433 2      15.5040928978      16.0000000000
4434 2      14.4753293173      21.0000000000
4435 2      16.1536673143      24.0000000000
4436 2      13.6878688499      18.0000000000
4437 2      15.8690779266      18.0000000000
4438 2      16.3247116416      18.0000000000
4439 2      14.4083083350      15.0000000000
4440 2      12.5876723805      17.0000000000
4441 2      16.8378625090      20.0000000000
4442 2      11.7220800615      14.0000000000
4443 2      14.2981743706      15.0000000000
4444 2      15.6152328958      21.0000000000
4445 2      13.7317862800      17.0000000000
4446 2      14.7372397439      19.0000000000
4447 2      11.8153476529      15.0000000000
4448 2      14.6781126959      20.0000000000
4449 2      16.9023351260      20.0000000000
4450 2      15.0206801208      17.0000000000
4451 2      13.5282557819      16.0000000000
4452 2      14.6113970760      18.0000000000
4453 2      12.4897531989      15.0000000000
4454 2      12.5512195004      13.0000000000
4455 2      11.9561365195      16.0000000000
4456 2      15.2107454085      16.0000000000
4457 2      15.2440640926      18.0000000000
4458 2      14.7670822455      17.0000000000
4459 2      15.7802334405      19.0000000000
4460 2      15.3187654085      17.0000000000
4461 2      15.5105773779      19.0000000000
4462 2      15.3422409596      15.0000000000
4463 2      12.1293765136      14.0000000000
4464 2      14.4517196451      22.0000000000
4465 2      13.8259523568      16.0000000000
4466 2      15.5267022007      19.0000000000
4467 2      12.6484387981      17.0000000000
4468 2      14.8234705733      17.0000000000
4469 2      12.0704160970      16.0000000000
4470 2      15.3505316941      19.0000000000
4471 2      13.3856235123      16.0000000000
4472 2      16.5254573661      18.0000000000
4473 2      16.5456170313      20.0000000000
4474 2      14.0762565669      18.0000000000
4475 2      13.0133499423      15.0000000000
4476 2      15.1475080868      17.0000000000
4477 2      15.9533246060      17.0000000000
4478 2      16.3101601160      20.0000000000
4479 2      12.7270534011      13.0000000000
4480 2      13.3244989163      15.0000000000
4481 2      15.2025200209      21.0000000000
4482 2      15.5075717016      21.0000000000
4483 2      12.3764787072      14.0000000000
4484 2      13.1687464868      18.0000000000
4485 2      11.9733687476      15.0000000000
4486 2      13.4654178814      19.0000000000
4487 2      14.1633370067      20.0000000000
4488 2      16.1304563961      18.0000000000
4489 2      16.2603055435      18.0000000000
4490 2      15.0897213177      22.0000000000
4491 2      15.9824201796      24.0000000000
4492 2      13.5815777093      17.0000000000
4493 2      16.4953383516      16.0000000000
4494 2      12.2352841628      14.0000000000
4495 2      14.7837584404      17.0000000000
4496 2      14.2553357541      17.0000000000
4497 2      15.1668282534      19.0000000000
4498 2      13.8806654227      18.0000000000
4499 2      11.4897899378      13.0000000000
4500 2      11.9289644443      15.0000000000
4501 2      14.7602506551      18.0000000000
4502 2      14.7504825094      20.0000000000
4503 2      13.7298087152      19.0000000000
4504 2      13.9956281258      18.0000000000
4505 2      12.0560152442      14.0000000000
4506 2      13.3917781122      16.0000000000
4507 2      13.8897953519      14.0000000000
4508 2      12.2950664375      15.0000000000
4509 2      13.7558825920      17.0000000000
4510 2      14.9404640354      17.0000000000
4511 2      14.9107849552      21.0000000000
4512 2      14.7744002318      18.0000000000
4513 2      16.1510663207      25.0000000000
4514 2      14.9544708152      17.0000000000
4515 2      13.1578201778      14.0000000000
4516 2      14.8291340954      17.0000000000
4517 2      17.1563497236      20.0000000000
4518 2      15.7782659593      19.0000000000
4519 2      16.0512445166      18.0000000000
4520 2      15.5120225442      20.0000000000
4521 2      16.3171839930      20.0000000000
4522 2      10.7541754031      12.0000000000
4523 2      13.2932233415      18.0000000000
4524 2      17.3387689209      15.0000000000
4525 2      14.1617037246      17.0000000000
4526 2      14.2198656276      19.0000000000
4527 2      16.8063603513      19.0000000000
4528 2      13.2866946074      16.0000000000
4529 2      15.3534426481      16.0000000000
4530 2      14.8334401980      21.0000000000
4531 2      14.2103170307      18.0000000000
4532 2      15.0834010432      21.0000000000
4533 2      15.2783832083      18.0000000000
4534 2      13.7481937632      18.0000000000
4535 2      11.8343212725      11.0000000000
4536 2      15.7812675010      21.0000000000
4537 2      12.3435507342      16.0000000000
4538 2      16.9769774013      19.0000000000
4539 2      14.1624213076      18.0000000000
4540 2      15.3032121285      17.0000000000
4541 2      13.2025037896      14.0000000000
4542 2      15.6278455860      16.0000000000
4543 2      12.5332776254      17.0000000000
4544 2      14.4460692933      17.0000000000
4545 2      14.1821002780      19.0000000000
4546 2      14.0350695384      18.0000000000
4547 2      13.0784800558      17.0000000000
4548 2      15.7329511798      18.0000000000
4549 2      14.6385672868      17.0000000000
4550 2      16.7574187831      19.0000000000
4551 2      15.2959855394      17.0000000000
4552 2      14.6544887374      17.0000000000
4553 2      12.9693569425      18.0000000000
4554 2      14.2485871716      18.0000000000
4555 2      16.5896083306      21.0000000000
4556 2      16.4904488123      18.0000000000
4557 2      14.9256026392      19.0000000000
4558 2      13.2360784866      16.0000000000
4559 2      16.3774835115      19.0000000000
4560 2      15.0700555878      15.0000000000
4561 2      18.3267009883      17.0000000000
4562 2      16.7260205403      17.0000000000
4563 2      15.1313302424      21.0000000000
4564 2      17.7140220197      23.0000000000
4565 2      15.0398350907      17.0000000000
4566 2      14.9021262784      15.0000000000
4567 2      14.4122019809      17.0000000000
4568 2      14.0721171624      19.0000000000
4569 2      12.9893208987      15.0000000000
4570 2      13.3715219599      19.0000000000
4571 2      15.8522545733      17.0000000000
4572 2      14.4123931784      17.0000000000
4573 2      13.1365104410      15.0000000000
4574 2      14.4260248760      19.0000000000
4575 2      13.7599256615      13.0000000000
4576 2      13.6330381336      17.0000000000
4577 2      12.7913638210      15.0000000000
4578 2      16.4815743700      20.0000000000
4579 2      14.7619588952      18.0000000000
4580 2      15.5563756602      18.0000000000
4581 2      15.4303036018      18.0000000000
4582 2      14.4983808869      18.0000000000
4583 2      14.7005796975      22.0000000000
4584 2      16.0350772310      19.0000000000
4585 2      12.1635065359      15.0000000000
4586 2      14.2782711839      14.0000000000
4587 2      17.3291980448      21.0000000000
4588 2      14.3939989330      13.0000000000
4589 2      11.8692416132      15.0000000000
4590 2      14.8642488549      17.0000000000
4591 2      12.6336876201      14.0000000000
4592 2      12.8793215125      17.0000000000
4593 2      14.8593208232      17.0000000000
4594 2      13.6206121770      14.0000000000
4595 2      16.3667580257      21.0000000000
4596 2      14.7602017296      20.0000000000
4597 2      14.4831665366      18.0000000000
4598 2      14.3179792928      16.0000000000
4599 2      17.4751886200      20.0000000000
4600 2      15.6435456951      22.0000000000
4601 2      12.2871214027      18.0000000000
4602 2      18.5501654948      19.0000000000
4603 2      13.6079155378      17.0000000000
4604 2      13.9652900730      17.0000000000
4605 2      16.4084073245      17.0000000000
4606 2      13.8545363794      18.0000000000
4607 2      12.6152009258      18.0000000000
4608 2      15.6292926153      21.0000000000
4609 2      14.9493227119      19.0000000000
4610 2      15.3948088911      22.0000000000
4611 2      14.1172177952      21.0000000000
4612 2      12.9464244294      17.0000000000
4613 2      13.3388925749      15.0000000000
4614 2      12.9857981352      17.0000000000
4615 2      13.6954061399      17.0000000000
4616 2      14.4171413692      17.0000000000
4617 2      14.1144247554      17.0000000000
4618 2      15.5745676245      18.0000000000
4619 2      15.3646762266      19.0000000000
4620 2      13.5716198176      16.0000000000
4621 2      15.5985944644      18.0000000000
4622 2      14.3532998970      21.0000000000
4623 2      11.8182221848      17.0000000000
4624 2      16.0991876715      19.0000000000
4625 2      12.8109179491      18.0000000000
4626 2      16.0276150266      20.0000000000
4627 2      15.5185036494      19.0000000000
4628 2      10.6371793911      14.0000000000
4629 2      14.0018047992      18.0000000000
4630 2      15.0597199396      20.0000000000
4631 2      18.4403160823      23.0000000000
4632 2      15.8559138586      19.0000000000
4633 2      13.9950557296      17.0000000000
4634 2      17.1671434585      22.0000000000
4635 2      13.6393353410      19.0000000000
4636 2      15.9371506944      20.0000000000
4637 2      13.7345859075      20.0000000000
4638 2      14.4874584048      18.0000000000
4639 2      13.8622700689      17.0000000000
4640 2      12.9051586194      18.0000000000
4641 2      15.6445668359      18.0000000000
4642 2      15.0098330353      16.0000000000
4643 2      12.7516557475      18.0000000000
4644 2      14.4998818120      18.0000000000
4645 2      18.0121123896      21.0000000000
4646 2      16.5020361278      18.0000000000
4647 2      14.0928355499      17.0000000000
4648 2      15.6686478296      21.0000000000
4649 2      13.4950254854      19.0000000000
4650 2      13.9851038749      17.0000000000
4651 2      13.9984957105      17.0000000000
4652 2      15.4138337372      20.0000000000
4653 2      15.0045048373      21.0000000000
4654 2      14.9166076227      18.0000000000
4655 2      13.9986481379      17.0000000000
4656 2      14.3779278476      14.0000000000
4657 2      13.8559729167      19.0000000000
4658 2      14.1675090399      19.0000000000
4659 2      13.9038637396      19.0000000000
4660 2      13.1816160668      15.0000000000
4661 2      13.5048284612      18.0000000000
4662 2      12.6876540290      16.0000000000
4663 2      14.7705916368      17.0000000000
4664 2      15.4280524346      20.0000000000
4665 2      13.6266153006      20.0000000000
4666 2      16.1867499549      18.0000000000
4667 2      16.1094432629      16.0000000000
4668 2      12.3214155025      14.0000000000
4669 2      15.9442558707      16.0000000000
4670 2      16.2425494336      15.0000000000
4671 2      14.2261470831      20.0000000000
4672 2      14.4675474123      18.0000000000
4673 2      12.7811030770      17.0000000000
4674 2      12.9002577769      15.0000000000
4675 2      15.4757200692      20.0000000000
4676 2      15.6313237332      16.0000000000
4677 2      14.1233311051      16.0000000000
4678 2      15.8009112379      17.0000000000
4679 2      15.6183453231      21.0000000000
4680 2      12.6348998582      14.0000000000
4681 2      14.7657950286      18.0000000000
4682 2      15.4375318170      18.0000000000
4683 2      15.2718710518      17.0000000000
4684 2      14.8019127462      17.0000000000
4685 2      19.6147963563      25.0000000000
4686 2      14.9031668002      21.0000000000
4687 2      14.7187308887      18.0000000000
4688 2      14.9587230955      19.0000000000
4689 2      13.7294879260      17.0000000000
4690 2      19.0765235037      23.0000000000
4691 2      17.4768414188      20.0000000000
4692 2      13.5849027566      20.0000000000
4693 2      15.6067636045      20.0000000000
4694 2      13.7055438503      16.0000000000
4695 2      14.2506064157      17.0000000000
4696 2      12.0277896391      16.0000000000
4697 2      12.9863446183      18.0000000000
4698 2      15.3557818030      20.0000000000
4699 2      13.6815451927      17.0000000000
4700 2      13.6421688511      20.0000000000
4701 2      15.6602414592      22.0000000000
4702 2      15.6890251967      19.0000000000
4703 2      14.2404933932      19.0000000000
4704 2      13.4796475213      18.0000000000
4705 2      12.1510840118      15.0000000000
4706 2      12.5029956277      19.0000000000
4707 2      12.6544824381      17.0000000000
4708 2      12.8150154206      14.0000000000
4709 2      11.8814997187      18.0000000000
4710 2      14.0986488954      18.0000000000
4711 2      13.2345232530      16.0000000000
4712 2      15.0681106260      21.0000000000
4713 2      14.5397637579      18.0000000000
4714 2      14.2843076839      18.0000000000
4715 2      13.5021947054      14.0000000000
4716 2      13.8822408171      15.0000000000
4717 2      18.3762088834      21.0000000000
4718 2      12.6566540678      17.0000000000
4719 2      12.9022007526      15.0000000000
4720 2      15.4927487450      18.0000000000
4721 2      15.2364844032      16.0000000000
4722 2      13.6081941484      15.0000000000
4723 2      13.7972498694      19.0000000000
4724 2      15.9723687228      21.0000000000
4725 2      13.8463769063      17.0000000000
4726 2      12.5821001904      15.0000000000
4727 2      18.5630039078      22.0000000000
4728 2      11.5919951699      16.0000000000
4729 2      13.5086569369      13.0000000000
4730 2      16.7714002233      20.0000000000
4731 2      15.9032208416      20.0000000000
4732 2      15.7710144682      19.0000000000
4733 2      17.5497059918      20.0000000000
4734 2      16.2733552041      20.0000000000
4735 2      16.8467546462      23.0000000000
4736 2      14.8901814393      18.0000000000
4737 2      12.2496896778      17.0000000000
4738 2      12.0812286099      14.0000000000
4739 2      14.3430461003      17.0000000000
4740 2      15.1727736245      15.0000000000
4741 2      15.1258855359      15.0000000000
4742 2      11.7827616472      15.0000000000
4743 2      12.9744995854      18.0000000000
4744 2      14.1028442758      13.0000000000
4745 2      13.2799470362      17.0000000000
4746 2      17.2654683126      17.0000000000
4747 2      13.2162310831      16.0000000000
4748 2      14.6977905536      16.0000000000
4749 2      15.8440555914      19.0000000000
4750 2      13.9174253868      16.0000000000
4751 2      12.9111790867      14.0000000000
4752 2      14.5211878690      17.0000000000
4753 2      18.0883336619      23.0000000000
4754 2      12.9746117491      19.0000000000
4755 2      15.6796795074      19.0000000000
4756 2      14.5653271656      20.0000000000
4757 2      15.5792034235      17.0000000000
4758 2      15.4702038717      19.0000000000
4759 2      15.0590796998      19.0000000000
4760 2      12.3734735243      15.0000000000
4761 2      14.7065656638      18.0000000000
4762 2      13.9436079251      14.0000000000
4763 2      11.2452281465      17.0000000000
4764 2      16.3549799178      17.0000000000
4765 2      15.6007779541      15.0000000000
4766 2      16.2610917443      20.0000000000
4767 2      11.2637033992      15.0000000000
4768 2      16.8822172911      17.0000000000
4769 2      15.3588145459      21.0000000000
4770 2      14.8551867843      18.0000000000
4771 2      12.4972839172      17.0000000000
4772 2      14.9962813274      18.0000000000
4773 2      19.2945285827      20.0000000000
4774 2      13.2471363345      16.0000000000
4775 2      13.1975332906      15.0000000000
4776 2      13.7667008535      17.0000000000
4777 2      14.5307164713      19.0000000000
4778 2      12.5084102483      20.0000000000
4779 2      13.6413399811      17.0000000000
4780 2      16.6366047032      21.0000000000
4781 2      16.5966785030      23.0000000000
4782 2      13.5754450492      16.0000000000
4783 2      14.0487603330      16.0000000000
4784 2      12.3904484089      15.0000000000
4785 2      15.6452604686      17.0000000000
4786 2      12.7102103119      14.0000000000
4787 2      14.8775568242      20.0000000000
4788 2      14.2786455792      16.0000000000
4789 2      15.9341210441      13.0000000000
4790 2      15.7149123931      21.0000000000
4791 2      14.8229094171      16.0000000000
4792 2      15.5863046021      19.0000000000
4793 2      14.2197903883      17.0000000000
4794 2      12.1618226423      16.0000000000
4795 2      12.7701233104      18.0000000000
4796 2      15.5288395486      16.0000000000
4797 2      17.3891557083      21.0000000000
4798 2      17.7599148817      20.0000000000
4799 2      13.9413734363      14.0000000000
4800 2      13.5604992286      15.0000000000
4801 2      16.0342132440      17.0000000000
4802 2      15.4734928759      17.0000000000
4803 2      12.9222364572      16.0000000000
4804 2      15.9362889641      20.0000000000
4805 2      14.5606882342      15.0000000000
4806 2      16.2647393556      17.0000000000
4807 2      16.8155808089      20.0000000000
4808 2      14.8737049507      21.0000000000
4809 2      15.4863872552      21.0000000000
4810 2      15.3208013260      18.0000000000
4811 2      14.6945995750      15.0000000000
4812 2      11.2457883825      13.0000000000
4813 2      14.9729679221      15.0000000000
4814 2      15.8097464018      20.0000000000
4815 2      17.0741009727      19.0000000000
4816 2      17.7498625149      15.0000000000
4817 2      16.9021102972      18.0000000000
4818 2      16.3039468582      17.0000000000
4819 2      13.8595169174      19.0000000000
4820 2      15.5914138219      18.0000000000
4821 2      13.4280530856      17.0000000000
4822 2      14.7464516750      17.0000000000
4823 2      15.0618396233      19.0000000000
4824 2      14.4007230781      19.0000000000
4825 2      15.5608911992      17.0000000000
4826 2      12.6920725320      13.0000000000
4827 2      14.4509586407      18.0000000000
4828 2      14.1885978938      21.0000000000
4829 2      12.3867084475      20.0000000000
4830 2      12.5451561453      17.0000000000
4831 2      15.7916974254      22.0000000000
4832 2      19.1325871606      22.0000000000
4833 2      14.6839015371      17.0000000000
4834 2      15.5371717576      19.0000000000
4835 2      17.3179817727      19.0000000000
4836 2      15.0578522446      18.0000000000
4837 2      15.6213437989      19.0000000000
4838 2      11.9810282980      15.0000000000
4839 2      13.9668370715      15.0000000000
4840 2      16.9280442978      23.0000000000
4841 2      12.7098416746      13.0000000000
4842 2      13.1489270104      18.0000000000
4843 2      12.7157082523      19.0000000000
4844 2      13.6571791498      15.0000000000
4845 2      13.6193121057      18.0000000000
4846 2      12.2339478499      15.0000000000
4847 2      13.6142800034      15.0000000000
4848 2      14.0467639279      17.0000000000
4849 2      17.1571629228      18.0000000000
4850 2      14.6395562142      17.0000000000
4851 2      15.2290739933      18.0000000000
4852 2      14.5403230729      17.0000000000
4853 2      15.4956847231      18.0000000000
4854 2      11.8908008867      17.0000000000
4855 2      16.3034645164      17.0000000000
4856 2      15.4942294481      15.0000000000
4857 2      13.4798932431      17.0000000000
4858 2      13.4718982863      16.0000000000
4859 2      15.1543526139      19.0000000000
4860 2      12.8714735129      16.0000000000
4861 2      15.9323170580      17.0000000000
4862 2      16.5056921449      17.0000000000
4863 2      14.2984911622      19.0000000000
4864 2      15.2506324545      19.0000000000
4865 2      13.5101423403      19.0000000000
4866 2      11.3462281353      15.0000000000
4867 2      15.1714541343      20.0000000000
4868 2      15.8525504039      16.0000000000
4869 2      17.1732524922      22.0000000000
4870 2      13.7796239877      20.0000000000
4871 2      13.8534118560      14.0000000000
4872 2      15.9018691926      19.0000000000
4873 2      14.2567753325      15.0000000000
4874 2      13.8920158341      17.0000000000
4875 2      15.7111028936      23.0000000000
4876 2      17.4409368416      22.0000000000
4877 2      12.3210936062      15.0000000000
4878 2      15.0878779698      18.0000000000
4879 2      15.0800063535      19.0000000000
4880 2      18.2796975518      23.0000000000
4881 2      13.7635405410      15.0000000000
4882 2      15.6304064665      20.0000000000
4883 2      13.1327739337      15.0000000000
4884 2      17.0067804009      18.0000000000
4885 2      14.9760540765      16.0000000000
4886 2      12.6425837183      14.0000000000
4887 2      15.8081332465      17.0000000000
4888 2      16.1471731538      18.0000000000
4889 2      12.6699513489      18.0000000000
4890 2      15.7703463683      16.0000000000
4891 2      15.9950357734      16.0000000000
4892 2      19.8217443135      18.0000000000
4893 2      12.5659423104      16.0000000000
4894 2      15.0952363610      18.0000000000
4895 2      13.8357289325      17.0000000000
4896 2      15.1756679776      17.0000000000
4897 2      15.6480862786      20.0000000000
4898 2      12.9842232505      17.0000000000
4899 2      16.6364755337      17.0000000000
4900 2      18.3163832183      26.0000000000
4901 2      14.6712480118      20.0000000000
4902 2      15.7948297097      18.0000000000
4903 2      18.0881908655      19.0000000000
4904 2      12.9607251696      16.0000000000
4905 2      15.7937510659      18.0000000000
4906 2      15.1709196431      19.0000000000
4907 2      15.0788200606      19.0000000000
4908 2      13.3944955270      19.0000000000
4909 2      13.3448883514      17.0000000000
4910 2      14.8738352207      16.0000000000
4911 2      16.0282417991      19.0000000000
4912 2      12.5328392677      13.0000000000
4913 2      13.6088990558      17.0000000000
4914 2      14.7385898009      16.0000000000
4915 2      18.5681637104      22.0000000000
4916 2      16.8269927367      18.0000000000
4917 2      16.4239690137      20.0000000000
4918 2      11.5088703968      14.0000000000
4919 2      17.3261051492      21.0000000000
4920 2      15.9036212909      22.0000000000
4921 2      18.4157344892      21.0000000000
4922 2      15.4582914102      17.0000000000
4923 2      16.5384146514      16.0000000000
4924 2      14.2708820331      18.0000000000
4925 2      13.9434666028      18.0000000000
4926 2      13.8975464206      18.0000000000
4927 2      13.8553126696      18.0000000000
4928 2      13.2229025581      14.0000000000
4929 2      16.3441030735      18.0000000000
4930 2      16.0356444351      20.0000000000
4931 2      14.9244024955      15.0000000000
4932 2      14.1896274261      19.0000000000
4933 2      13.4480583675      18.0000000000
4934 2      13.4583713119      15.0000000000
4935 2      15.0283373304      19.0000000000
4936 2      13.6886553475      16.0000000000
4937 2      16.5054182064      22.0000000000
4938 2      17.3908605728      19.0000000000
4939 2      12.9697950048      16.0000000000
4940 2      12.9850807033      16.0000000000
4941 2      13.5441072030      14.0000000000
4942 2      15.7493529076      18.0000000000
4943 2      15.9656599825      20.0000000000
4944 2      18.1401867734      18.0000000000
4945 2      16.4283795710      18.0000000000
4946 2      15.0181591205      19.0000000000
4947 2      14.2661292018      16.0000000000
4948 2      14.2180391804      15.0000000000
4949 2      13.8924255223      17.0000000000
4950 2      14.9224555554      20.0000000000
4951 2      11.5983257894      17.0000000000
4952 2      13.6334766939      18.0000000000
4953 2      10.6573476315      14.0000000000
4954 2      11.1809199854      15.0000000000
4955 2      17.6126225650      20.0000000000
4956 2      14.5362476793      16.0000000000
4957 2      15.1205049156      15.0000000000
4958 2      14.6565596711      16.0000000000
4959 2      18.0763620397      23.0000000000
4960 2      14.0007765575      18.0000000000
4961 2      12.9756463203      18.0000000000
4962 2      16.3732032532      19.0000000000
4963 2      16.6306885474      19.0000000000
4964 2      13.7304130269      16.0000000000
4965 2      16.0120487228      17.0000000000
4966 2      14.7923011092      20.0000000000
4967 2      15.2752733142      21.0000000000
4968 2      11.0143165931      16.0000000000
4969 2      13.1646976548      17.0000000000
4970 2      13.9388938830      18.0000000000
4971 2      14.4274889176      17.0000000000
4972 2      14.5152830698      16.0000000000
4973 2      13.3574922170      17.0000000000
4974 2      11.3146085843      15.0000000000
4975 2      15.9475538267      20.0000000000
4976 2      16.3930532205      19.0000000000
4977 2      12.3357435459      16.0000000000
4978 2      16.1160691715      18.0000000000
4979 2      15.5277337160      22.0000000000
4980 2      13.3349780840      18.0000000000
4981 2      12.7526905999      16.0000000000
4982 2      17.2376437940      23.0000000000
4983 2      12.0849740117      15.0000000000
4984 2      17.0512219801      15.0000000000
4985 2      15.1981236313      19.0000000000
4986 2      13.9526407570      17.0000000000
4987 2      13.9930118764      17.0000000000
4988 2      13.4869394903      18.0000000000
4989 2      18.7534786193      19.0000000000
4990 2      13.7041131008      18.0000000000
4991 2      15.3043988945      18.0000000000
4992 2      15.5353272398      18.0000000000
4993 2      16.7858285198      22.0000000000
4994 2      15.5061164279      17.0000000000
4995 2      13.4438056793      16.0000000000
4996 2      12.7703006054      17.0000000000
4997 2      14.7425428769      15.0000000000
4998 2      12.6063547365      14.0000000000
4999 2      16.5426411311      21.0000000000
5000 2      15.1242787513      17.0000000000
5001 2      17.2798745053      19.0000000000
5002 2      16.2764365632      21.0000000000
5003 2      15.7280399909      18.0000000000
5004 2      15.8144416294      19.0000000000
5005 2      15.5460076018      18.0000000000
5006 2      17.6794661947      19.0000000000
5007 2      12.2503890409      15.0000000000
5008 2      15.6889022579      17.0000000000
5009 2      15.9189844040      18.0000000000
5010 2      14.1846948302      16.0000000000
5011 2      15.4790085099      17.0000000000
5012 2      17.0540718026      17.0000000000
5013 2      14.2651602018      17.0000000000
5014 2      16.2093893052      18.0000000000
5015 2      13.0689646047      15.0000000000
5016 2      14.1236320432      17.0000000000
5017 2      13.9136698275      15.0000000000
5018 2      14.4355866793      14.0000000000
5019 2      13.2282108951      19.0000000000
5020 2      15.9279740405      17.0000000000
5021 2      15.3901597878      19.0000000000
5022 2      12.2453594834      17.0000000000
5023 2      13.4577227715      17.0000000000
5024 2      13.8670632238      19.0000000000
5025 2      16.9154061169      21.0000000000
5026 2      14.6219438633      17.0000000000
5027 2      14.6590349538      18.0000000000
5028 2      17.5279357190      19.0000000000
5029 2      14.6976147280      18.0000000000
5030 2      12.3048202496      17.0000000000
5031 2      15.1306963597      16.0000000000
5032 2      14.6045648100      21.0000000000
5033 2      15.4495849268      19.0000000000
5034 2      15.7780431686      20.0000000000
5035 2      15.2893629474      20.0000000000
5036 2      14.9488795651      21.0000000000
5037 2      14.6082192531      17.0000000000
5038 2      15.4925910555      15.0000000000
5039 2      11.9669842517      17.0000000000
5040 2      12.3951418105      17.0000000000
5041 2      11.2429175926      17.0000000000
5042 2      13.5800206862      14.0000000000
5043 2      15.9172019263      19.0000000000
5044 2      15.3414976432      18.0000000000
5045 2      16.0189466982      19.0000000000
5046 2      15.6560689006      20.0000000000
5047 2      14.0200024092      18.0000000000
5048 2      16.0080676786      23.0000000000
5049 2      15.6670354346      23.0000000000
5050 2      16.1236259793      20.0000000000
5051 2      17.3372730541      18.0000000000
5052 2      17.3454548434      24.0000000000
5053 2      13.0122704916      15.0000000000
5054 2      14.3226478993      18.0000000000
5055 2      12.1927668326      13.0000000000
5056 2      13.5854038087      18.0000000000
5057 2      14.2617499477      15.0000000000
5058 2      13.8076121488      18.0000000000
5059 2      12.7632604028      16.0000000000
5060 2      16.8083873400      20.0000000000
5061 2      14.1367971788      21.0000000000
5062 2      16.2217431637      19.0000000000
5063 2      15.2903187640      16.0000000000
5064 2      13.0803605368      19.0000000000
5065 2      13.7916578198      15.0000000000
5066 2      13.3187617517      19.0000000000
5067 2      11.8219294532      16.0000000000
5068 2      14.4548589351      18.0000000000
5069 2      14.1730573968      15.0000000000
5070 2      13.4221656842      18.0000000000
5071 2      12.7870899071      15.0000000000
5072 2      14.0356223694      17.0000000000
5073 2      15.8875518653      20.0000000000
5074 2      15.3315515589      17.0000000000
5075 2      15.4630009212      18.0000000000
5076 2      13.1021952105      17.0000000000
5077 2      15.6829032635      17.0000000000
5078 2      13.0497848502      16.0000000000
5079 2      13.9328737177      20.0000000000
5080 2      15.2930487293      21.0000000000
5081 2      11.8942184384      16.0000000000
5082 2      15.7628442982      17.0000000000
5083 2      17.7869424290      20.0000000000
5084 2      13.5506191204      13.0000000000
5085 2      16.6491404225      20.0000000000
5086 2      16.4138657715      17.0000000000
5087 2      15.5050956748      19.0000000000
5088 2      15.7416144413      17.0000000000
5089 2      11.4850872259      15.0000000000
5090 2      15.4067386383      18.0000000000
5091 2      16.8925802970      22.0000000000
5092 2      14.5310657288      16.0000000000
5093 2      13.9000958352      18.0000000000
5094 2      14.5902394506      17.0000000000
5095 2      13.2056954285      14.0000000000
5096 2      14.2477228122      18.0000000000
5097 2      14.6286196423      19.0000000000
5098 2      16.6236861099      20.0000000000
5099 2      14.9730237540      19.0000000000
5100 2      15.0557589254      15.0000000000
5101 2      16.8835448928      17.0000000000
5102 2      16.0526595081      18.0000000000
5103 2      16.4069642654      19.0000000000
5104 2      14.4903219495      15.0000000000
5105 2      15.4744168471      17.0000000000
5106 2      15.3849565683      21.0000000000
5107 2      13.0498199339      18.0000000000
5108 2      11.0018362198      15.0000000000
5109 2      14.9261896046      18.0000000000
5110 2      14.2045513338      20.0000000000
5111 2      15.1310687156      19.0000000000
5112 2      15.6464676197      19.0000000000
5113 2      11.6964013206      16.0000000000
5114 2      13.0879620570      20.0000000000
5115 2      13.0067362776      18.0000000000
5116 2      16.0441993391      16.0000000000
5117 2      15.1067975916      18.0000000000
5118 2      14.3769456445      19.0000000000
5119 2      16.5043972769      18.0000000000
5120 2      15.3266635844      19.0000000000
5121 2      13.6596671069      18.0000000000
5122 2      15.4173004600      16.0000000000
5123 2      13.0204944801      16.0000000000
5124 2      13.3609844567      16.0000000000
5125 2      13.5045365608      19.0000000000
5126 2      13.4618824747      14.0000000000
5127 2      15.0503457725      18.0000000000
5128 2      16.1728788265      20.0000000000
5129 2      13.1862277462      17.0000000000
5130 2      14.8437427024      20.0000000000
5131 2      13.1624609189      15.0000000000
5132 2      15.7075412314      17.0000000000
5133 2      11.6949994926      14.0000000000
5134 2      15.3316434029      16.0000000000
5135 2      12.4548219875      17.0000000000
5136 2      13.9221283920      17.0000000000
5137 2      17.8222454054      24.0000000000
5138 2      13.6453060226      17.0000000000
5139 2      16.8406544585      24.0000000000
5140 2      15.0243451252      22.0000000000
5141 2      13.1907937326      15.0000000000
5142 2      13.2201068314      17.0000000000
5143 2      14.7856227245      16.0000000000
5144 2      12.9834859254      14.0000000000
5145 2      15.0375485657      17.0000000000
5146 2      13.1854638188      17.0000000000
5147 2      13.8445259239      17.0000000000
5148 2      14.0085642204      18.0000000000
5149 2      14.1771973237      19.0000000000
5150 2      15.6703990333      20.0000000000
5151 2      14.5631117348      16.0000000000
5152 2      13.3062611992      15.0000000000
5153 2      13.1388132799      19.0000000000
5154 2      14.1570607966      17.0000000000
5155 2      15.2276578430      20.0000000000
5156 2      12.7358272009      18.0000000000
5157 2      13.1797451036      19.0000000000
5158 2      15.2019173863      17.0000000000
5159 2      14.3805810869      17.0000000000
5160 2      16.0615236762      18.0000000000
5161 2      14.1906395002      21.0000000000
5162 2      13.8366746640      17.0000000000
5163 2      12.4450592779      16.0000000000
5164 2      13.7128235724      19.0000000000
5165 2      14.2691817032      18.0000000000
5166 2      13.6718715701      16.0000000000
5167 2      13.6539672505      19.0000000000
5168 2      16.1579876831      19.0000000000
5169 2      16.7638690131      18.0000000000
5170 2      14.9976207956      20.0000000000
5171 2      14.9805495395      21.0000000000
5172 2      12.5500749635      16.0000000000
5173 2      16.4040027873      19.0000000000
5174 2      15.9021771139      22.0000000000
5175 2      14.1793283497      18.0000000000
5176 2      15.1276271810      20.0000000000
5177 2      13.2528541270      16.0000000000
5178 2      13.0317382519      16.0000000000
5179 2      13.2742898489      18.0000000000
5180 2      12.4600310962      18.0000000000
5181 2      16.0665218591      16.0000000000
5182 2      17.0428246412      17.0000000000
5183 2      13.3395647362      18.0000000000
5184 2      13.6000680670      20.0000000000
5185 2      12.2869426269      15.0000000000
5186 2      13.6406212253      16.0000000000
5187 2      13.7909161218      17.0000000000
5188 2      15.3130724888      18.0000000000
5189 2      15.1712340259      21.0000000000
5190 2      15.0384146068      16.0000000000
5191 2      12.5306379614      13.0000000000
5192 2      14.4201566330      14.0000000000
5193 2      12.2495151551      18.0000000000
5194 2      15.6150165006      14.0000000000
5195 2      17.0345159921      19.0000000000
5196 2      14.4000214363      17.0000000000
5197 2      17.2208459233      20.0000000000
5198 2      14.4857721561      16.0000000000
5199 2      14.6275261509      17.0000000000
5200 2      14.8024758559      15.0000000000
5201 2      11.8551884604      15.0000000000
5202 2      15.0638625131      20.0000000000
5203 2      11.9335094428      17.0000000000
5204 2      12.6945588357      18.0000000000
5205 2      13.5559665756      18.0000000000
5206 2      15.9010282565      19.0000000000
5207 2      13.9606671060      16.0000000000
5208 2      13.4812196006      16.0000000000
5209 2      14.5811422261      17.0000000000
5210 2      14.0440152573      17.0000000000
5211 2      14.7664325368      17.0000000000
5212 2      18.8006939776      22.0000000000
5213 2      11.0440931700      15.0000000000
5214 2      18.8709663206      25.0000000000
5215 2      14.9700100128      20.0000000000
5216 2      12.3601720786      13.0000000000
5217 2      13.0409236259      15.0000000000
5218 2      12.7473564538      15.0000000000
5219 2      14.4744259833      19.0000000000
5220 2      13.1722487139      16.0000000000
5221 2      15.1115002389      17.0000000000
5222 2      14.9257020602      17.0000000000
5223 2      12.9414333282      14.0000000000
5224 2      16.0885997451      19.0000000000
5225 2      12.4032741473      17.0000000000
5226 2      13.3305957684      14.0000000000
5227 2      13.8867737735      19.0000000000
5228 2      15.6909318506      20.0000000000
5229 2      15.4621151800      17.0000000000
5230 2      14.0008946501      17.0000000000
5231 2      15.8951230005      18.0000000000
5232 2      15.4752221941      17.0000000000
5233 2      12.8967543738      15.0000000000
5234 2      14.1853504876      15.0000000000
5235 2      16.3321819236      23.0000000000
5236 2      12.8127530318      20.0000000000
5237 2      14.8649124914      15.0000000000
5238 2      13.1791889953      17.0000000000
5239 2      13.3993716023      20.0000000000
5240 2      14.1211564480      17.0000000000
5241 2      16.6925693695      21.0000000000
5242 2      14.8015309497      20.0000000000
5243 2      15.0929850235      19.0000000000
5244 2      12.9601908484      19.0000000000
5245 2      16.7859527387      22.0000000000
5246 2      15.0404358494      18.0000000000
5247 2      12.1981545753      15.0000000000
5248 2      15.5658505208      19.0000000000
5249 2      16.0828792720      20.0000000000
5250 2      13.5330049368      20.0000000000
5251 2      15.5514584067      18.0000000000
5252 2      17.5344543799      20.0000000000
5253 2      15.6181456583      21.0000000000
5254 2      16.1387411107      19.0000000000
5255 2      15.8862762914      19.0000000000
5256 2      13.3579347642      15.0000000000
5257 2      14.5654503172      18.0000000000
5258 2      16.6470583462      20.0000000000
5259 2      13.2222744606      15.0000000000
5260 2      12.9428898091      16.0000000000
5261 2      13.9275751875      16.0000000000
5262 2      12.5401705981      15.0000000000
5263 2      16.1354995296      22.0000000000
5264 2      15.5322266540      18.0000000000
5265 2      15.2014196192      15.0000000000
5266 2      16.1673302623      15.0000000000
5267 2      12.1356340962      17.0000000000
5268 2      12.8944168373      13.0000000000
5269 2      14.7160824857      16.0000000000
5270 2      12.6726445218      18.0000000000
5271 2      11.7855999333      15.0000000000
5272 2      13.6093365424      18.0000000000
5273 2      16.0213985283      21.0000000000
5274 2      13.9549219162      16.0000000000
5275 2      15.5728247369      19.0000000000
5276 2      13.0610714641      16.0000000000
5277 2      11.2134598123      13.0000000000
5278 2      15.5633318568      17.0000000000
5279 2      15.0732185628      18.0000000000
5280 2      15.7961570147      16.0000000000
5281 2      16.2547475073      16.0000000000
5282 2      14.3568451693      18.0000000000
5283 2      14.4330302151      18.0000000000
5284 2      12.7417578437      13.0000000000
5285 2      12.4504603179      16.0000000000
5286 2      17.8550699864      20.0000000000
5287 2      15.9457951938      19.0000000000
5288 2      14.5829395122      16.0000000000
5289 2      11.9604286296      16.0000000000
5290 2      12.1999236151      15.0000000000
5291 2      12.3112930767      15.0000000000
5292 2      13.4818898421      16.0000000000
5293 2      12.9467373709      16.0000000000
5294 2      15.0112594108      17.0000000000
5295 2      14.0807545420      20.0000000000
5296 2      19.9040952792      19.0000000000
5297 2      13.8638507213      19.0000000000
5298 2      13.0706177067      14.0000000000
5299 2      11.9109498678      16.0000000000
5300 2      14.7246693610      18.0000000000
5301 2      12.1622837195      17.0000000000
5302 2      13.4073125498      15.0000000000
5303 2      16.7946976981      22.0000000000
5304 2      13.3182505206      15.0000000000
5305 2      14.2512921671      18.0000000000
5306 2      13.6813484861      20.0000000000
5307 2      19.0027244474      23.0000000000
5308 2      12.2279267045      18.0000000000
5309 2      15.0872268880      18.0000000000
5310 2      16.6726277039      19.0000000000
5311 2      14.2180881440      20.0000000000
5312 2      17.4012252352      22.0000000000
5313 2      15.1610215244      19.0000000000
5314 2      16.2501416161      19.0000000000
5315 2      13.4701295014      17.0000000000
5316 2      16.5878266848      24.0000000000
5317 2      13.0379292374      14.0000000000
5318 2      16.4819879525      22.0000000000
5319 2      14.3515627018      18.0000000000
5320 2      13.9910238200      18.0000000000
5321 2      14.9109340278      22.0000000000
5322 2      13.5731364100      18.0000000000
5323 2      12.7481856175      17.0000000000
5324 2      14.3604998802      19.0000000000
5325 2      16.1235304367      24.0000000000
5326 2      14.6938219321      18.0000000000
5327 2      14.8456957460      20.0000000000
5328 2      14.0028652619      18.0000000000
5329 2      13.6009581062      15.0000000000
5330 2      13.8057902824      17.0000000000
5331 2      13.7755439332      18.0000000000
5332 2      16.2064909860      21.0000000000
5333 2      14.2851959317      19.0000000000
5334 2      13.1104050635      13.0000000000
5335 2      15.7392304661      21.0000000000
5336 2      14.7543073836      20.0000000000
5337 2      13.4051323027      16.0000000000
5338 2      13.3366014077      17.0000000000
5339 2      13.0590532106      18.0000000000
5340 2      14.3063636136      18.0000000000
5341 2      12.7615428162      17.0000000000
5342 2      17.2398878058      19.0000000000
5343 2      13.8715828699      15.0000000000
5344 2      14.4716684030      19.0000000000
5345 2      12.1190376443      16.0000000000
5346 2      15.1006430077      17.0000000000
5347 2      15.6867031942      19.0000000000
5348 2      12.5569711718      17.0000000000
5349 2      13.0123653652      16.0000000000
5350 2      14.1391043568      15.0000000000
5351 2      14.1850756501      18.0000000000
5352 2      13.7182296840      19.0000000000
5353 2      16.0535295274      19.0000000000
5354 2      15.3761843630      17.0000000000
5355 2      14.3415291598      16.0000000000
5356 2      13.9689808957      17.0000000000
5357 2      14.1946387636      19.0000000000
5358 2      12.7017407936      13.0000000000
5359 2      15.1849799473      21.0000000000
5360 2      13.0716695759      20.0000000000
5361 2      14.7496329595      18.0000000000
5362 2      16.3646640817      19.0000000000
5363 2      12.9652670443      17.0000000000
5364 2      14.2023705807      15.0000000000
5365 2      13.3375440645      16.0000000000
5366 2      15.2439800184      19.0000000000
5367 2      13.3728415408      14.0000000000
5368 2      16.9558301996      22.0000000000
5369 2      14.3004138443      22.0000000000
5370 2      12.8361874931      14.0000000000
5371 2      14.9936004200      16.0000000000
5372 2      17.0262468157      17.0000000000
5373 2      15.9072832582      19.0000000000
5374 2      14.5941980932      18.0000000000
5375 2      12.1732196277      20.0000000000
5376 2      16.9417277784      17.0000000000
5377 2      15.6487460767      18.0000000000
5378 2      14.1902023304      18.0000000000
5379 2      13.7223627993      19.0000000000
5380 2      13.8138650519      14.0000000000
5381 2      14.6423327430      17.0000000000
5382 2      14.3145419456      15.0000000000
5383 2      14.5627309149      20.0000000000
5384 2      16.9915438017      17.0000000000
5385 2      15.3026459576      20.0000000000
5386 2      18.4051765840      22.0000000000
5387 2      16.7596305567      21.0000000000
5388 2      16.4336668889      19.0000000000
5389 2      12.5463197683      16.0000000000
5390 2      14.4711587311      14.0000000000
5391 2      12.6872355930      17.0000000000
5392 2      13.6189882666      18.0000000000
5393 2      14.3405288303      20.0000000000
5394 2      14.2915985023      19.0000000000
5395 2      16.8441263274      18.0000000000
5396 2      10.6433044025      14.0000000000
5397 2      13.8941441970      20.0000000000
5398 2      14.6097223656      20.0000000000
5399 2      16.7104440151      22.0000000000
5400 2      13.9096612806      20.0000000000
5401 2      17.2182179139      20.0000000000
5402 2      15.6813222118      19.0000000000
5403 2      13.5456341967      13.0000000000
5404 2      12.8628602118      17.0000000000
5405 2      15.6592038249      17.0000000000
5406 2      16.5161172485      19.0000000000
5407 2      16.2476710740      22.0000000000
5408 2      17.7769767649      17.0000000000
5409 2      13.1062704824      17.0000000000
5410 2      13.6145028754      14.0000000000
5411 2      13.8978299914      15.0000000000
5412 2      13.9219307547      16.0000000000
5413 2      14.4199308948      17.0000000000
5414 2      15.6799534774      17.0000000000
5415 2      12.4777869376      17.0000000000
5416 2      14.4632739767      18.0000000000
5417 2      14.3937974086      21.0000000000
5418 2      17.2554912522      24.0000000000
5419 2      13.1768896417      15.0000000000
5420 2      17.4638251782      17.0000000000
5421 2      14.9366507529      21.0000000000
5422 2      16.1530742511      17.0000000000
5423 2      13.3865910886      19.0000000000
5424 2      16.7138090896      15.0000000000
5425 2      15.4968523268      17.0000000000
5426 2      12.5504413223      13.0000000000
5427 2      17.1713461486      20.0000000000
5428 2      14.3393348023      15.0000000000
5429 2      13.9540841295      18.0000000000
5430 2      14.1249595752      21.0000000000
5431 2      14.7795217644      16.0000000000
5432 2      13.7986202569      19.0000000000
5433 2      15.3479639634      18.0000000000
5434 2      14.6823509118      18.0000000000
5435 2      14.3141960791      19.0000000000
5436 2      15.2575473252      19.0000000000
5437 2      16.5779766019      20.0000000000
5438 2      14.6062349243      18.0000000000
5439 2      15.0685004850      19.0000000000
5440 2      15.2008142425      17.0000000000
5441 2      13.6759222298      16.0000000000
5442 2      14.5793878696      19.0000000000
5443 2      14.6137648254      16.0000000000
5444 2      12.9739493758      16.0000000000
5445 2      14.7957127376      18.0000000000
5446 2      14.1652403893      19.0000000000
5447 2      14.5893487447      19.0000000000
5448 2      14.7820741291      23.0000000000
5449 2      16.1929519433      17.0000000000
5450 2      12.8494346761      17.0000000000
5451 2      13.6458591453      16.0000000000
5452 2      16.6286083795      23.0000000000
5453 2      16.9204972062      25.0000000000
5454 2      12.9554359724      16.0000000000
5455 2      17.3182024770      21.0000000000
5456 2      16.7176248950      19.0000000000
5457 2      15.1558760100      20.0000000000
5458 2      13.6913074565      16.0000000000
5459 2      16.1045162400      18.0000000000
5460 2      15.5496885733      18.0000000000
5461 2      16.4234543281      23.0000000000
5462 2      15.6039767143      16.0000000000
5463 2      16.8479077786      23.0000000000
5464 2      15.3958169058      18.0000000000
5465 2      12.9787269122      17.0000000000
5466 2      15.0569809473      15.0000000000
5467 2      13.3029213572      18.0000000000
5468 2      16.4340779721      21.0000000000
5469 2      17.8203181831      19.0000000000
5470 2      15.8454139171      18.0000000000
5471 2      15.6942118387      21.0000000000
5472 2      14.2017543393      19.0000000000
5473 2      14.4679836601      17.0000000000
5474 2      13.5859654068      18.0000000000
5475 2      16.8654891241      17.0000000000
5476 2      13.7440446635      19.0000000000
5477 2      12.2388467840      15.0000000000
5478 2      15.1041363005      19.0000000000
5479 2      14.6506633933      17.0000000000
5480 2      12.8054569507      15.0000000000
5481 2      13.4475480070      15.0000000000
5482 2      15.0398498596      18.0000000000
5483 2      13.5537964014      18.0000000000
5484 2      17.7162842750      23.0000000000
5485 2      13.2513355059      16.0000000000
5486 2      15.6092631332      21.0000000000
5487 2      15.3090110170      20.0000000000
5488 2      14.7444179103      19.0000000000
5489 2      14.9543260561      21.0000000000
5490 2      14.0133515995      15.0000000000
5491 2      14.4439033718      19.0000000000
5492 2      13.2236589394      18.0000000000
5493 2      14.2853581356      16.0000000000
5494 2      13.8407467754      17.0000000000
5495 2      14.7115724209      20.0000000000
5496 2      14.3515193798      20.0000000000
5497 2      15.1330000557      17.0000000000
5498 2      12.5860332255      16.0000000000
5499 2      13.6831987677      19.0000000000
5500 2      15.0877866443      21.0000000000
5501 2      13.1209029061      18.0000000000
5502 2      14.4804028935      18.0000000000
5503 2      14.9698565722      17.0000000000
5504 2      14.9715294808      16.0000000000
5505 2      13.6853919655      17.0000000000
5506 2      16.2632220037      19.0000000000
5507 2      12.7483043621      15.0000000000
5508 2      17.8015515522      24.0000000000
5509 2      14.2952776136      20.0000000000
5510 2      16.2573105438      18.0000000000
5511 2      15.9829084319      19.0000000000
5512 2      14.7876867926      15.0000000000
5513 2      13.6454708403      14.0000000000
5514 2      13.0594861478      18.0000000000
5515 2      13.5574534273      16.0000000000
5516 2      15.2956457997      18.0000000000
5517 2      17.9133412256      21.0000000000
5518 2      16.0618639006      18.0000000000
5519 2      17.7804195801      20.0000000000
5520 2      15.9709698239      19.0000000000
5521 2      12.9607302725      18.0000000000
5522 2      13.4195930334      17.0000000000
5523 2      15.5973619120      21.0000000000
5524 2      15.5802261903      19.0000000000
5525 2      15.6746392787      18.0000000000
5526 2      11.9245585120      17.0000000000
5527 2      16.3624975889      22.0000000000
5528 2      17.0474471483      20.0000000000
5529 2      20.1682994855      20.0000000000
5530 2      16.1587775369      18.0000000000
5531 2      15.7072564800      15.0000000000
5532 2      14.4261684528      15.0000000000
5533 2      12.4632966665      16.0000000000
5534 2      15.0105325049      18.0000000000
5535 2      13.8487899244      17.0000000000
5536 2      17.3410676397      18.0000000000
5537 2      14.3088004445      16.0000000000
5538 2      15.0812529194      17.0000000000
5539 2      13.5733455185      18.0000000000
5540 2      15.7622054609      17.0000000000
5541 2      13.9596085046      18.0000000000
5542 2      14.0454381812      18.0000000000
5543 2      16.7282987270      20.0000000000
5544 2      12.5113634381      18.0000000000
5545 2      16.1596139205      20.0000000000
5546 2      15.4852932159      18.0000000000
5547 2      15.6498287320      21.0000000000
5548 2      14.4789403643      16.0000000000
5549 2      12.9456788419      18.0000000000
5550 2      15.8506170878      20.0000000000
5551 2      13.6380311463      17.0000000000
5552 2      18.0027585165      21.0000000000
5553 2      13.5046602074      17.0000000000
5554 2      15.3448539576      18.0000000000
5555 2      13.5911475816      17.0000000000
5556 2      12.9422158616      15.0000000000
5557 2      14.0777826567      19.0000000000
5558 2      14.3546494956      17.0000000000
5559 2      17.9197258997      21.0000000000
5560 2      15.0873050455      16.0000000000
5561 2      12.1029017362      17.0000000000
5562 2      14.3619227606      17.0000000000
5563 2      11.9573214821      16.0000000000
5564 2      18.8265311711      18.0000000000
5565 2      13.8514099891      15.0000000000
5566 2      16.1857738183      17.0000000000
5567 2      17.6432899605      19.0000000000
5568 2      12.8349232977      16.0000000000
5569 2      13.5225846535      14.0000000000
5570 2      13.3529449866      16.0000000000
5571 2      16.3413250049      20.0000000000
5572 2      14.6721050856      20.0000000000
5573 2      14.0716323249      17.0000000000
5574 2      14.2066260284      17.0000000000
5575 2      15.4047832886      17.0000000000
5576 2      13.0082019731      18.0000000000
5577 2      13.5063172208      20.0000000000
5578 2      16.2694916941      23.0000000000
5579 2      15.6280057714      16.0000000000
5580 2      13.7084109269      16.0000000000
5581 2      13.6597221744      17.0000000000
5582 2      13.1815511490      17.0000000000
5583 2      14.6742857465      19.0000000000
5584 2      12.9684799450      18.0000000000
5585 2      15.0839282146      17.0000000000
5586 2      14.3443720448      18.0000000000
5587 2      18.1403358046      25.0000000000
5588 2      16.9955092742      23.0000000000
5589 2      12.6397431853      16.0000000000
5590 2      14.3619540185      18.0000000000
5591 2      16.9509884938      22.0000000000
5592 2      14.3569385898      18.0000000000
5593 2      14.9337860119      19.0000000000
5594 2      12.9626724192      15.0000000000
5595 2      12.2718839763      19.0000000000
5596 2      16.6651039963      26.0000000000
5597 2      13.5159220953      17.0000000000
5598 2      15.5042372850      17.0000000000
5599 2      13.8248357824      17.0000000000
5600 2      14.8106066046      20.0000000000
5601 2      13.8642191484      16.0000000000
5602 2      16.3713556528      19.0000000000
5603 2      14.0417190245      17.0000000000
5604 2      14.0714571273      20.0000000000
5605 2      14.0982024605      18.0000000000
5606 2      15.0420020506      16.0000000000
5607 2      13.7034032046      19.0000000000
5608 2      13.5392507422      18.0000000000
5609 2      13.1448478842      18.0000000000
5610 2      13.6508534256      20.0000000000
5611 2      14.2790467398      20.0000000000
5612 2      14.7176294334      17.0000000000
5613 2      13.5764745697      19.0000000000
5614 2      14.4036416296      18.0000000000
5615 2      15.7067165720      20.0000000000
5616 2      15.5245117583      20.0000000000
5617 2      13.7154824302      19.0000000000
5618 2      12.2543391982      15.0000000000
5619 2      12.6806608991      14.0000000000
5620 2      16.5142965204      20.0000000000
5621 2      14.4534784779      20.0000000000
5622 2      17.8029865912      26.0000000000
5623 2      16.2560463519      19.0000000000
5624 2      15.7068646403      19.0000000000
5625 2      17.3219996095      18.0000000000
5626 2      13.0027990207      16.0000000000
5627 2      13.2167251651      18.0000000000
5628 2      15.7003330704      20.0000000000
5629 2      14.3529782150      17.0000000000
5630 2      13.7413976222      20.0000000000
5631 2      14.9545437397      19.0000000000
5632 2      14.3738709214      17.0000000000
5633 2      14.4617167437      16.0000000000
5634 2      11.1814440805      14.0000000000
5635 2      15.4609325654      20.0000000000
5636 2      14.4022271906      18.0000000000
5637 2      13.5849507845      15.0000000000
5638 2      13.3727574118      19.0000000000
5639 2      14.4993371323      20.0000000000
5640 2      13.2450069669      18.0000000000
5641 2      12.8605312334      18.0000000000
5642 2      13.9480123233      17.0000000000
5643 2      18.2356855581      19.0000000000
5644 2      14.6644733040      19.0000000000
5645 2      13.5169122847      19.0000000000
5646 2      15.0027039842      16.0000000000
5647 2      13.6590549283      17.0000000000
5648 2      14.8983810618      19.0000000000
5649 2      14.9733294182      21.0000000000
5650 2      13.3369870951      16.0000000000
5651 2      12.9953427422      15.0000000000
5652 2      12.8270933904      19.0000000000
5653 2      14.0759777691      19.0000000000
5654 2      15.6667887415      16.0000000000
5655 2      12.9428680606      20.0000000000
5656 2      14.9597815381      17.0000000000
5657 2      12.7708737378      16.0000000000
5658 2      16.3580276337      17.0000000000
5659 2      13.1013285004      20.0000000000
5660 2      16.1163974713      17.0000000000
5661 2      16.5584565463      17.0000000000
5662 2      18.2118322548      19.0000000000
5663 2      15.4936210074      18.0000000000
5664 2      14.8453180016      20.0000000000
5665 2      13.4816392987      16.0000000000
5666 2      10.9201410906      17.0000000000
5667 2      16.4139612494      18.0000000000
5668 2      13.8841891093      18.0000000000
5669 2      17.5598955567      20.0000000000
5670 2      15.3449006780      17.0000000000
5671 2      12.8160586201      16.0000000000
5672 2      14.8948412642      22.0000000000
5673 2      18.7900345616      23.0000000000
5674 2      14.7004750178      16.0000000000
5675 2      13.9150307899      18.0000000000
5676 2      14.5350372293      16.0000000000
5677 2      14.2415320746      20.0000000000
5678 2      15.3173199373      20.0000000000
5679 2      13.9462472067      18.0000000000
5680 2      16.2909446684      20.0000000000
5681 2      14.8798478191      19.0000000000
5682 2      13.3779437624      16.0000000000
5683 2      15.7760133510      19.0000000000
5684 2      16.0021562302      16.0000000000
5685 2      18.5201503858      23.0000000000
5686 2      15.4942671130      18.0000000000
5687 2      14.1243330338      18.0000000000
5688 2      13.4291565564      13.0000000000
5689 2      12.0937738612      17.0000000000
5690 2      14.0125708090      21.0000000000
5691 2      12.6424986062      17.0000000000
5692 2      12.2236617321      17.0000000000
5693 2      15.6727892056      19.0000000000
5694 2      14.6605560542      18.0000000000
5695 2      14.0144932398      16.0000000000
5696 2      12.2235851118      14.0000000000
5697 2      14.8514367134      17.0000000000
5698 2      13.7716596199      19.0000000000
5699 2      17.1219152086      21.0000000000
5700 2      13.2849931390      15.0000000000
5701 2      13.0687694719      19.0000000000
5702 2      14.1704335363      17.0000000000
5703 2      15.5582940662      20.0000000000
5704 2      13.1386290447      12.0000000000
5705 2      12.7684692218      16.0000000000
5706 2      17.2837411064      17.0000000000
5707 2      15.4453227564      20.0000000000
5708 2      13.3922816985      19.0000000000
5709 2      13.9868008323      23.0000000000
5710 2      12.6310393932      17.0000000000
5711 2      15.8484317478      18.0000000000
5712 2      13.2733896214      17.0000000000
5713 2      14.0090752532      22.0000000000
5714 2      14.3770860784      19.0000000000
5715 2      14.7849623292      15.0000000000
5716 2      13.8628232936      14.0000000000
5717 2      13.6606991864      18.0000000000
5718 2      16.5796672981      20.0000000000
5719 2      15.6007940387      16.0000000000
5720 2      16.9949419378      20.0000000000
5721 2      12.3212582999      14.0000000000
5722 2      14.4556675133      16.0000000000
5723 2      13.1546318668      15.0000000000
5724 2      15.2243739873      19.0000000000
5725 2      13.7515542653      14.0000000000
5726 2      13.8774265038      19.0000000000
5727 2      14.0433648511      17.0000000000
5728 2      15.8794071156      22.0000000000
5729 2      13.8547352008      19.0000000000
5730 2      17.7297955191      21.0000000000
5731 2      17.3241847592      18.0000000000
5732 2      16.6070912341      16.0000000000
5733 2      19.0599953489      22.0000000000
5734 2      13.9827227881      19.0000000000
5735 2      13.8094360549      16.0000000000
5736 2      13.5288645708      19.0000000000
5737 2      13.3111957627      16.0000000000
5738 2      10.5242414903      14.0000000000
5739 2      17.2988097648      19.0000000000
5740 2      13.9364908171      13.0000000000
5741 2      15.2967129858      17.0000000000
5742 2      12.0807168253      13.0000000000
5743 2      13.3590206726      17.0000000000
5744 2      15.7250537510      21.0000000000
5745 2      15.5920935602      22.0000000000
5746 2      12.8490404490      17.0000000000
5747 2      15.3096514973      19.0000000000
5748 2      14.7917062063      15.0000000000
5749 2      13.8850308487      15.0000000000
5750 2      14.8355026129      22.0000000000
5751 2      16.9169514228      24.0000000000
5752 2      16.5356180932      19.0000000000
5753 2      14.1372140638      14.0000000000
5754 2      12.8917931348      15.0000000000
5755 2      12.9870361033      17.0000000000
5756 2      14.0520161816      18.0000000000
5757 2      13.4445936072      18.0000000000
5758 2      14.0357211286      18.0000000000
5759 2      14.3652838568      18.0000000000
5760 2      13.2085284897      13.0000000000
5761 2      13.6011709874      18.0000000000
5762 2      14.0039361097      16.0000000000
5763 2      14.2214267488      17.0000000000
5764 2      15.2572674095      19.0000000000
5765 2      15.1064095359      16.0000000000
5766 2      15.3821755020      19.0000000000
5767 2      15.1807226427      20.0000000000
5768 2      17.6383920938      21.0000000000
5769 2      13.4742259490      17.0000000000
5770 2      13.2293796435      18.0000000000
5771 2      13.4253681602      20.0000000000
5772 2      16.7932465149      19.0000000000
5773 2      15.7594271815      19.0000000000
5774 2      14.1544039377      17.0000000000
5775 2      14.5116846723      18.0000000000
5776 2      16.2773945785      18.0000000000
5777 2      12.4896643476      18.0000000000
5778 2      16.9114944987      17.0000000000
5779 2      13.7053843343      18.0000000000
5780 2      16.9920479286      15.0000000000
5781 2      15.4658585031      18.0000000000
5782 2      15.9519323422      23.0000000000
5783 2      16.9592134295      19.0000000000
5784 2      15.1613200261      18.0000000000
5785 2      12.8752587692      18.0000000000
5786 2      14.5595431574      18.0000000000
5787 2      15.3147799067      16.0000000000
5788 2      18.0471186999      19.0000000000
5789 2      17.2772677741      20.0000000000
5790 2      14.9076775703      18.0000000000
5791 2      14.8863909928      19.0000000000
5792 2      16.9456181761      24.0000000000
5793 2      18.2909886423      19.0000000000
5794 2      15.5649347264      22.0000000000
5795 2      12.4820032871      15.0000000000
5796 2      13.5321529831      19.0000000000
5797 2      15.3590238740      23.0000000000
5798 2      15.4527160942      19.0000000000
5799 2      15.8894126096      20.0000000000
5800 2      16.7450224668      17.0000000000
5801 2      17.4398078729      21.0000000000
5802 2      14.7600836618      18.0000000000
5803 2      13.4978025075      16.0000000000
5804 2      14.7802326719      15.0000000000
5805 2      15.7615405200      21.0000000000
5806 2      14.7669652790      17.0000000000
5807 2      15.0276074403      15.0000000000
5808 2      15.7777889353      15.0000000000
5809 2      16.7417110719      23.0000000000
5810 2      13.2610473675      17.0000000000
5811 2      15.5473840382      17.0000000000
5812 2      14.0578054877      17.0000000000
5813 2      10.5887415303      13.0000000000
5814 2      17.3272602874      20.0000000000
5815 2      16.4417463691      21.0000000000
5816 2      19.9619446018      18.0000000000
5817 2      13.8332105496      16.0000000000
5818 2      14.8648067175      15.0000000000
5819 2      17.2021512699      20.0000000000
5820 2      13.4436606498      17.0000000000
5821 2      14.8971889284      17.0000000000
5822 2      12.9268259529      19.0000000000
5823 2      14.5311409199      21.0000000000
5824 2      14.8082526978      18.0000000000
5825 2      14.0565678115      19.0000000000
5826 2      15.2051420034      17.0000000000
5827 2      14.1112240068      17.0000000000
5828 2      14.5673890628      15.0000000000
5829 2      17.9355883978      17.0000000000
5830 2      16.2668543182      20.0000000000
5831 2      14.6037223237      17.0000000000
5832 2      17.1559613960      21.0000000000
5833 2      14.1062291048      19.0000000000
5834 2      14.4515233133      17.0000000000
5835 2      14.2653515403      19.0000000000
5836 2      13.4393084729      15.0000000000
5837 2      13.0548391910      17.0000000000
5838 2      15.1174610521      18.0000000000
5839 2      12.1142142860      14.0000000000
5840 2      14.6959183317      21.0000000000
5841 2      16.6136261435      16.0000000000
5842 2      14.3096322071      19.0000000000
5843 2      14.6656799727      17.0000000000
5844 2      13.9792932588      18.0000000000
5845 2      15.2962019674      16.0000000000
5846 2      12.2805956773      16.0000000000
5847 2      13.6685659668      18.0000000000
5848 2      15.7766682664      20.0000000000
5849 2      15.8423416088      17.0000000000
5850 2      13.3092933700      15.0000000000
5851 2      14.0461567462      18.0000000000
5852 2      17.2322499328      20.0000000000
5853 2      15.6607317638      20.0000000000
5854 2      15.8601869919      19.0000000000
5855 2      14.1706262248      19.0000000000
5856 2      15.4827974962      16.0000000000
5857 2      16.6233187084      18.0000000000
5858 2      13.6439980725      15.0000000000
5859 2      14.1684343758      20.0000000000
5860 2      15.9710600334      17.0000000000
5861 2      15.7383860224      20.0000000000
5862 2      11.8989274494      15.0000000000
5863 2      13.1552928137      17.0000000000
5864 2      12.7750635907      18.0000000000
5865 2      11.7310905246      15.0000000000
5866 2      15.2425614588      18.0000000000
5867 2      13.6869850110      17.0000000000
5868 2      13.9928582969      19.0000000000
5869 2      16.6457605084      20.0000000000
5870 2      14.1582100653      16.0000000000
5871 2      16.7297135613      18.0000000000
5872 2      18.8161961341      19.0000000000
5873 2      14.0980775366      20.0000000000
5874 2      13.8808913799      18.0000000000
5875 2      16.0193405246      18.0000000000
5876 2      15.9325986278      21.0000000000
5877 2      19.1921896351      19.0000000000
5878 2      14.2544430202      19.0000000000
5879 2      16.0464840850      22.0000000000
5880 2      14.4783458938      17.0000000000
5881 2      14.1173898601      18.0000000000
5882 2      12.3115701975      14.0000000000
5883 2      13.3363539581      16.0000000000
5884 2      16.9963162731      17.0000000000
5885 2      13.0926672243      18.0000000000
5886 2      13.2753715406      17.0000000000
5887 2      13.4216595284      18.0000000000
5888 2      16.8386592966      23.0000000000
5889 2      16.1915340526      14.0000000000
5890 2      13.4164247644      16.0000000000
5891 2      12.7336091819      19.0000000000
5892 2      13.9594714679      16.0000000000
5893 2      13.9341176952      20.0000000000
5894 2      12.4203935514      17.0000000000
5895 2      12.9918844903      18.0000000000
5896 2      12.6509372234      15.0000000000
5897 2      12.5680604564      16.0000000000
5898 2      16.9471940852      19.0000000000
5899 2      14.5702212654      18.0000000000
5900 2      14.2164220906      19.0000000000
5901 2      14.7675197988      21.0000000000
5902 2      13.7105538552      18.0000000000
5903 2      14.9839373199      17.0000000000
5904 2      15.3243779327      19.0000000000
5905 2      16.7433896286      21.0000000000
5906 2      12.6829751553      15.0000000000
5907 2      12.1627453668      15.0000000000
5908 2      15.2897224000      20.0000000000
5909 2      16.5526794473      18.0000000000
5910 2      12.0904806471      16.0000000000
5911 2      14.0126711106      18.0000000000
5912 2      13.3476304021      17.0000000000
5913 2      14.0125215487      20.0000000000
5914 2      13.8420707237      18.0000000000
5915 2      14.0387004204      18.0000000000
5916 2      14.9055195611      18.0000000000
5917 2      12.0202669940      13.0000000000
5918 2      14.3953399302      16.0000000000
5919 2      14.3804500002      17.0000000000
5920 2      14.8140259124      18.0000000000
5921 2      12.6061284010      16.0000000000
5922 2      15.3383070805      21.0000000000
5923 2      15.6916106280      20.0000000000
5924 2      11.8015805678      14.0000000000
5925 2      12.8465910181      17.0000000000
5926 2      15.2546289094      16.0000000000
5927 2      17.2951382295      21.0000000000
5928 2      14.9069017564      21.0000000000
5929 2      15.7719401063      19.0000000000
5930 2      13.4787795547      16.0000000000
5931 2      14.4377760308      18.0000000000
5932 2      11.8478595884      18.0000000000
5933 2      16.2883631499      17.0000000000
5934 2      13.7471845081      18.0000000000
5935 2      13.9473057931      17.0000000000
5936 2      12.5780133314      16.0000000000
5937 2      14.9360317768      16.0000000000
5938 2      14.8589699020      19.0000000000
5939 2      13.6367761757      18.0000000000
5940 2      16.3811798347      20.0000000000
5941 2      13.1871191106      17.0000000000
5942 2      15.3528892739      17.0000000000
5943 2      13.0386117766      17.0000000000
5944 2      12.7808112957      15.0000000000
5945 2      16.0980095455      19.0000000000
5946 2      14.4897248771      17.0000000000
5947 2      12.8474500109      14.0000000000
5948 2      13.3814976007      15.0000000000
5949 2      13.5053526613      20.0000000000
5950 2      15.0099427209      15.0000000000
5951 2      14.8663799357      22.0000000000
5952 2      16.4460230451      20.0000000000
5953 2      14.8425718591      15.0000000000
5954 2      14.1004582930      15.0000000000
5955 2      12.6642572931      17.0000000000
5956 2      13.8012470702      19.0000000000
5957 2      14.1195031424      18.0000000000
5958 2      16.5168445412      21.0000000000
5959 2      15.1404319048      22.0000000000
5960 2      14.9762038369      18.0000000000
5961 2      14.7436456388      20.0000000000
5962 2      12.8929999381      16.0000000000
5963 2      15.7990784210      20.0000000000
5964 2      14.9927967332      19.0000000000
5965 2      13.4622034291      16.0000000000
5966 2      14.2555024644      16.0000000000
5967 2      15.5044567505      20.0000000000
5968 2      12.8973951320      16.0000000000
5969 2      14.7882683638      17.0000000000
5970 2      14.2918545836      20.0000000000
5971 2      14.4897731113      19.0000000000
5972 2      12.7328184224      16.0000000000
5973 2      10.8213996169      17.0000000000
5974 2      15.5801867715      19.0000000000
5975 2      15.1888578015      16.0000000000
5976 2      13.5563600576      17.0000000000
5977 2      14.5248953235      17.0000000000
5978 2      14.0335446384      20.0000000000
5979 2      16.5254452138      20.0000000000
5980 2      14.7663473349      17.0000000000
5981 2      16.0921491206      20.0000000000
5982 2      15.2331564800      17.0000000000
5983 2      14.5031756694      18.0000000000
5984 2      16.5253388969      21.0000000000
5985 2      12.5516577668      17.0000000000
5986 2      13.4573696044      19.0000000000
5987 2      13.8226414941      16.0000000000
5988 2      12.0794976393      15.0000000000
5989 2      13.6769975829      16.0000000000
5990 2      12.9166828334      16.0000000000
5991 2      13.5107577576      16.0000000000
5992 2      12.4394058627      16.0000000000
5993 2      13.4826463553      16.0000000000
5994 2      12.9961438615      18.0000000000
5995 2      13.3861156629      21.0000000000
5996 2      13.8410389316      18.0000000000
5997 2      15.8854299181      21.0000000000
5998 2      12.8590747768      15.0000000000
5999 2      13.1287709240      16.0000000000
6000 2      17.6577929931      20.0000000000
6001 2      13.8316894591      17.0000000000
6002 2      17.4203874311      18.0000000000
6003 2      14.2822756095      17.0000000000
6004 2      15.8017581413      18.0000000000
6005 2      16.0598878446      20.0000000000
6006 2      16.9046624416      20.0000000000
6007 2      13.1140579294      17.0000000000
6008 2      14.7495406378      16.0000000000
6009 2      12.6800586111      16.0000000000
6010 2      15.4328974385      18.0000000000
6011 2      17.0932889219      22.0000000000
6012 2      14.6779184214      17.0000000000
6013 2      14.2125051563      16.0000000000
6014 2      15.2004038817      18.0000000000
6015 2      12.8147295729      15.0000000000
6016 2      14.5192819485      19.0000000000
6017 2      12.5121366603      15.0000000000
6018 2      14.2200405151      22.0000000000
6019 2      15.4070343350      19.0000000000
6020 2      13.4565201533      17.0000000000
6021 2      16.5145079090      18.0000000000
6022 2      14.4841841977      20.0000000000
6023 2      14.5836824792      16.0000000000
6024 2      17.2384331327      23.0000000000
6025 2      13.8968063487      19.0000000000
6026 2      14.6840602293      15.0000000000
6027 2      16.3783369937      18.0000000000
6028 2      16.4611511113      19.0000000000
6029 2      13.2201332475      15.0000000000
6030 2      14.0857539497      19.0000000000
6031 2      14.0207169984      14.0000000000
6032 2      12.9718814625      14.0000000000
6033 2      14.0111401556      18.0000000000
6034 2      15.6650630169      19.0000000000
6035 2      15.9498437828      19.0000000000
6036 2      15.9758677265      19.0000000000
6037 2      14.4256283431      18.0000000000
6038 2      13.9570645319      18.0000000000
6039 2      14.4052700804      17.0000000000
6040 2      16.1110634661      17.0000000000
6041 2      15.7468365367      21.0000000000
6042 2      14.5787558699      19.0000000000
6043 2      15.3568765447      19.0000000000
6044 2      14.2212221279      19.0000000000
6045 2      13.8947094100      19.0000000000
6046 2      13.1732765182      17.0000000000
6047 2      13.5294418440      19.0000000000
6048 2      13.3691443545      14.0000000000
6049 2      12.3840188597      15.0000000000
6050 2      14.1307464657      18.0000000000
6051 2      16.0110415850      18.0000000000
6052 2      15.2844862135      23.0000000000
6053 2      16.1331718061      21.0000000000
6054 2      12.2466047230      16.0000000000
6055 2      14.0495886432      17.0000000000
6056 2      15.8694164253      18.0000000000
6057 2      17.0491321386      17.0000000000
6058 2      13.9534000555      19.0000000000
6059 2      12.4079932144      17.0000000000
6060 2      19.4269012846      20.0000000000
6061 2      12.1146498199      15.0000000000
6062 2      16.5379417817      19.0000000000
6063 2      13.8543185794      17.0000000000
6064 2      13.0969511691      16.0000000000
6065 2      15.2588999131      18.0000000000
6066 2      13.8677908135      17.0000000000
6067 2      13.5072829134      17.0000000000
6068 2      16.0825830546      18.0000000000
6069 2      14.7410190570      19.0000000000
6070 2      11.2077901657      14.0000000000
6071 2      13.0820703884      16.0000000000
6072 2      15.1055352958      21.0000000000
6073 2      13.6046363828      15.0000000000
6074 2      11.8563146291      17.0000000000
6075 2      11.0574522733      15.0000000000
6076 2      13.8790631592      15.0000000000
6077 2      13.9518656831      15.0000000000
6078 2      12.3960100849      18.0000000000
6079 2      11.7994346760      16.0000000000
6080 2      15.3780157325      19.0000000000
6081 2      13.9893698966      15.0000000000
6082 2      13.4954892921      19.0000000000
6083 2      14.4245265514      18.0000000000
6084 2      13.2996643864      19.0000000000
6085 2      13.5415578165      18.0000000000
6086 2      15.6190099547      20.0000000000
6087 2      16.1576439128      23.0000000000
6088 2      16.4815357613      20.0000000000
6089 2      14.2759261395      19.0000000000
6090 2      15.6610501436      16.0000000000
6091 2      13.2962731607      15.0000000000
6092 2      15.3404384031      17.0000000000
6093 2      14.4679212781      17.0000000000
6094 2      14.3137627645      19.0000000000
6095 2      14.7143140367      19.0000000000
6096 2      15.1960881440      21.0000000000
6097 2      13.5573649835      18.0000000000
6098 2      14.7317385502      18.0000000000
6099 2      16.9440957828      19.0000000000
6100 2      13.0135807979      17.0000000000
6101 2      11.6570464092      18.0000000000
6102 2      16.9098478748      18.0000000000
6103 2      14.9756565566      18.0000000000
6104 2      14.7457513835      19.0000000000
6105 2      15.1654961378      19.0000000000
6106 2      12.1980922151      19.0000000000
6107 2      13.4725090872      16.0000000000
6108 2      15.1949893399      15.0000000000
6109 2      10.7732619797      14.0000000000
6110 2      14.0774369112      17.0000000000
6111 2      14.1788758180      18.0000000000
6112 2      16.1988218376      20.0000000000
6113 2      16.1163325780      18.0000000000
6114 2      12.8832694702      17.0000000000
6115 2      15.0392208550      17.0000000000
6116 2      14.5226431756      17.0000000000
6117 2      14.4477780223      17.0000000000
6118 2      12.5314177146      18.0000000000
6119 2      14.5211437235      19.0000000000
6120 2      14.3727248334      19.0000000000
6121 2      14.0910438252      20.0000000000
6122 2      11.8585230271      16.0000000000
6123 2      15.0843469410      14.0000000000
6124 2      13.5224451519      16.0000000000
6125 2      14.2229645085      21.0000000000
6126 2      14.0403658985      16.0000000000
6127 2      13.5734034360      17.0000000000
6128 2      11.6260155388      16.0000000000
6129 2      13.9368907264      18.0000000000
6130 2      15.5315305032      22.0000000000
6131 2      14.4929134113      15.0000000000
6132 2      14.2882798246      16.0000000000
6133 2      13.7554423056      15.0000000000
6134 2      16.2509531898      19.0000000000
6135 2      13.6134772037      14.0000000000
6136 2      12.7249730125      15.0000000000
6137 2      12.2570016193      13.0000000000
6138 2      14.0919720998      21.0000000000
6139 2      13.6447938888      16.0000000000
6140 2      16.3370734184      19.0000000000
6141 2      15.9356222622      15.0000000000
6142 2      16.6160781441      15.0000000000
6143 2      15.2412498612      16.0000000000
6144 2      13.6622792603      18.0000000000
6145 2      14.7740376736      17.0000000000
6146 2      15.4122941928      17.0000000000
6147 2      12.2012723557      16.0000000000
6148 2      11.9769373641      14.0000000000
6149 2      16.8259120976      22.0000000000
6150 2      15.8874490796      24.0000000000
6151 2      10.9443133031      14.0000000000
6152 2      18.1875489511      16.0000000000
6153 2      14.0045400005      18.0000000000
6154 2      16.4957081277      21.0000000000
6155 2      13.7912109328      17.0000000000
6156 2      14.7029852351      17.0000000000
6157 2      13.9618679850      18.0000000000
6158 2      13.1476169757      17.0000000000
6159 2      15.4109552115      22.0000000000
6160 2      14.2621095350      16.0000000000
6161 2      14.2841101022      16.0000000000
6162 2      14.8390824352      18.0000000000
6163 2      15.5011938667      21.0000000000
6164 2      14.4619939475      15.0000000000
6165 2      16.1653060585      21.0000000000
6166 2      12.3895153534      15.0000000000
6167 2      12.3924921981      19.0000000000
6168 2      16.1708396848      20.0000000000
6169 2      15.2269093884      21.0000000000
6170 2      11.7362755203      13.0000000000
6171 2      12.3834321270      17.0000000000
6172 2      15.1743971260      21.0000000000
6173 2      14.9703065427      15.0000000000
6174 2      15.0113442876      21.0000000000
6175 2      16.8754989331      21.0000000000
6176 2      14.1514781884      21.0000000000
6177 2      12.7896557542      15.0000000000
6178 2      14.2189439408      16.0000000000
6179 2      14.6934968832      16.0000000000
6180 2      14.3585032073      19.0000000000
6181 2      14.2379202811      15.0000000000
6182 2      12.8852542700      17.0000000000
6183 2      14.2725760236      19.0000000000
6184 2      14.5664681245      17.0000000000
6185 2      15.1244632808      23.0000000000
6186 2      12.8037143258      17.0000000000
6187 2      14.5297523477      19.0000000000
6188 2      19.0097336419      22.0000000000
6189 2      14.5503126347      19.0000000000
6190 2      14.8219377275      19.0000000000
6191 2      15.0165680085      17.0000000000
6192 2      14.2971906009      19.0000000000
6193 2      11.7652879673      15.0000000000
6194 2      16.4077973722      18.0000000000
6195 2      14.4758704093      15.0000000000
6196 2      18.5729190047      22.0000000000
6197 2      14.7486245891      20.0000000000
6198 2      16.5001691082      18.0000000000
6199 2      14.2129567424      21.0000000000
6200 2      13.6685578820      22.0000000000
6201 2      17.0713113056      15.0000000000
6202 2      18.3683892150      21.0000000000
6203 2      16.4278881637      20.0000000000
6204 2      16.4920682097      18.0000000000
6205 2      14.4680826666      19.0000000000
6206 2      14.0754826160      18.0000000000
6207 2      12.6167567977      16.0000000000
6208 2      12.8723107572      20.0000000000
6209 2      16.1780058228      15.0000000000
6210 2      16.1574747714      20.0000000000
6211 2      12.1622330966      13.0000000000
6212 2      12.5462801348      14.0000000000
6213 2      15.1950240564      20.0000000000
6214 2      13.6086544306      17.0000000000
6215 2      15.1306430223      19.0000000000
6216 2      14.9835721313      18.0000000000
6217 2      13.7142171360      18.0000000000
6218 2      18.2495485562      18.0000000000
6219 2      15.2400553491      20.0000000000
6220 2      14.3693525030      19.0000000000
6221 2      14.0861477177      16.0000000000
6222 2      13.5334656047      15.0000000000
6223 2      15.2812505602      17.0000000000
6224 2      18.3758023340      17.0000000000
6225 2      14.6421367215      17.0000000000
6226 2      14.0833118201      19.0000000000
6227 2      12.0544284058      12.0000000000
6228 2      15.6101460741      17.0000000000
6229 2      14.1472948413      16.0000000000
6230 2      13.4811835896      13.0000000000
6231 2      14.0384702411      16.0000000000
6232 2      13.8560603389      20.0000000000
6233 2      12.4324467741      15.0000000000
6234 2      16.1715321543      17.0000000000
6235 2      13.0747277472      15.0000000000
6236 2      18.8549156191      20.0000000000
6237 2      12.9515944606      17.0000000000
6238 2      14.1783239891      15.0000000000
6239 2      12.5457240485      16.0000000000
6240 2      14.4011671527      18.0000000000
6241 2      13.8064198207      14.0000000000
6242 2      13.9407472837      15.0000000000
6243 2      15.9013980362      18.0000000000
6244 2      16.2824634256      22.0000000000
6245 2      17.4990760930      22.0000000000
6246 2      17.2677041144      21.0000000000
6247 2      16.3470496610      22.0000000000
6248 2      13.3203344089      13.0000000000
6249 2      14.0028337102      20.0000000000
6250 2      12.5637852921      18.0000000000
6251 2      14.3518374517      16.0000000000
6252 2      13.2705874218      18.0000000000
6253 2      13.5890981135      19.0000000000
6254 2      15.5734111595      18.0000000000
6255 2      15.3014475844      18.0000000000
6256 2      13.7661025144      16.0000000000
6257 2      12.8254985122      15.0000000000
6258 2      15.6003355217      22.0000000000
6259 2      13.9137855031      19.0000000000
6260 2      15.0648686821      18.0000000000
6261 2      14.1416352111      19.0000000000
6262 2      14.9951598060      21.0000000000
6263 2      13.4523576742      18.0000000000
6264 2      16.3816477235      20.0000000000
6265 2      18.3837383301      20.0000000000
6266 2      13.2533355677      19.0000000000
6267 2      15.9396561190      20.0000000000
6268 2      13.7009005866      15.0000000000
6269 2      14.0863811956      18.0000000000
6270 2      12.2393514437      17.0000000000
6271 2      13.6084272146      17.0000000000
6272 2      13.1908495440      16.0000000000
6273 2      15.0967902450      17.0000000000
6274 2      12.8398445299      15.0000000000
6275 2      17.1338554021      20.0000000000
6276 2      14.3711687349      18.0000000000
6277 2      17.3461473695      18.0000000000
6278 2      12.2878726678      18.0000000000
6279 2      15.3652835507      16.0000000000
6280 2      15.5761750967      19.0000000000
6281 2      16.4491521262      19.0000000000
6282 2      14.3003186519      16.0000000000
6283 2      14.9130625344      21.0000000000
6284 2      14.9604638280      18.0000000000
6285 2      13.0626511510      17.0000000000
6286 2      13.6414464618      14.0000000000
6287 2      16.2780582890      19.0000000000
6288 2      16.2787586433      19.0000000000
6289 2      14.5311195355      16.0000000000
6290 2      11.9446997428      16.0000000000
6291 2      13.6973231515      16.0000000000
6292 2      13.8565429968      19.0000000000
6293 2      15.2721932919      17.0000000000
6294 2      16.9561721778      21.0000000000
6295 2      13.4375065080      17.0000000000
6296 2      17.5815460314      20.0000000000
6297 2      15.3322355803      23.0000000000
6298 2      14.3616440195      19.0000000000
6299 2      14.4065814709      15.0000000000
6300 2      14.1858833413      18.0000000000
6301 2      14.5199390765      15.0000000000
6302 2      13.9214685593      14.0000000000
6303 2      14.4889243409      16.0000000000
6304 2      12.6470633500      18.0000000000
6305 2      14.5082001617      19.0000000000
6306 2      14.1919687686      18.0000000000
6307 2      14.4969213467      17.0000000000
6308 2      15.4480606631      19.0000000000
6309 2      17.8482450415      21.0000000000
6310 2      17.2780696171      20.0000000000
6311 2      14.9969893079      21.0000000000
6312 2      15.4124472750      13.0000000000
6313 2      14.5068908638      22.0000000000
6314 2      15.9761509435      19.0000000000
6315 2      20.0026666379      24.0000000000
6316 2      14.1205763346      17.0000000000
6317 2      14.6448960797      18.0000000000
6318 2      13.8012733378      16.0000000000
6319 2      14.6710949126      21.0000000000
6320 2      13.8820376511      18.0000000000
6321 2      17.0403367728      19.0000000000
6322 2      13.1123637273      15.0000000000
6323 2      16.2664983668      20.0000000000
6324 2      15.4056878254      17.0000000000
6325 2      13.9712590306      20.0000000000
6326 2      16.8487628741      20.0000000000
6327 2      14.3837292448      14.0000000000
6328 2      15.4825594489      18.0000000000
6329 2      13.7497093109      15.0000000000
6330 2      15.0400908913      15.0000000000
6331 2      14.8081359622      17.0000000000
6332 2      14.5519278926      14.0000000000
6333 2      15.1933711992      16.0000000000
6334 2      15.0779106394      20.0000000000
6335 2      16.6616817016      21.0000000000
6336 2      13.6383516638      14.0000000000
6337 2      12.8735793846      15.0000000000
6338 2      14.7596355922      19.0000000000
6339 2      18.5180950418      22.0000000000
6340 2      13.0583017285      18.0000000000
6341 2      13.0711722566      17.0000000000
6342 2      15.1795940668      15.0000000000
6343 2      14.9588215625      17.0000000000
6344 2      14.6711648623      20.0000000000
6345 2      14.5510383961      16.0000000000
6346 2      13.8953396883      17.0000000000
6347 2      13.4812371500      12.0000000000
6348 2      12.3347517801      18.0000000000
6349 2      11.6778740612      15.0000000000
6350 2      16.4133855533      17.0000000000
6351 2      15.2900123617      20.0000000000
6352 2      12.7205573797      17.0000000000
6353 2      16.1820464763      20.0000000000
6354 2      15.0086415589      18.0000000000
6355 2      14.6520153510      22.0000000000
6356 2      15.4725714133      17.0000000000
6357 2      14.9421888729      18.0000000000
6358 2      13.4881906445      16.0000000000
6359 2      13.6157433424      16.0000000000
6360 2      12.5809563451      15.0000000000
6361 2      19.3092028353      23.0000000000
6362 2      15.7926052210      21.0000000000
6363 2      15.0927707754      22.0000000000
6364 2      16.8524039564      19.0000000000
6365 2      14.7330851658      20.0000000000
6366 2      17.4205647258      21.0000000000
6367 2      13.9509647860      16.0000000000
6368 2      14.9646293086      17.0000000000
6369 2      10.2916445431      12.0000000000
6370 2      14.5726324562      17.0000000000
6371 2      14.3371404374      20.0000000000
6372 2      14.0762565566      16.0000000000
6373 2      14.1403777636      19.0000000000
6374 2      15.2741956219      20.0000000000
6375 2      14.0996806981      18.0000000000
6376 2      13.0255317465      18.0000000000
6377 2      12.7653576957      18.0000000000
6378 2      16.9199945383      21.0000000000
6379 2      12.5569021087      14.0000000000
6380 2      15.2005507843      24.0000000000
6381 2      14.1126138172      18.0000000000
6382 2      13.6493510989      19.0000000000
6383 2      18.8582561973      24.0000000000
6384 2      16.4686098802      20.0000000000
6385 2      14.2513873454      17.0000000000
6386 2      12.9893680617      18.0000000000
6387 2      15.5908382378      16.0000000000
6388 2      14.5875267552      17.0000000000
6389 2      16.4577069268      19.0000000000
6390 2      15.4803662968      18.0000000000
6391 2      12.9040122196      14.0000000000
6392 2      12.7607589490      16.0000000000
6393 2      15.3881674183      20.0000000000
6394 2      15.4912389458      20.0000000000
6395 2      15.0743169728      18.0000000000
6396 2      15.8411284668      18.0000000000
6397 2      15.1564931174      19.0000000000
6398 2      14.3780571761      15.0000000000
6399 2      16.8437126040      22.0000000000
6400 2      12.7923031414      17.0000000000
6401 2      15.7322440288      17.0000000000
6402 2      18.6249737193      20.0000000000
6403 2      14.0568830551      19.0000000000
6404 2      16.7967941114      19.0000000000
6405 2      16.7830863020      19.0000000000
6406 2      16.3080414385      20.0000000000
6407 2      15.0136085605      17.0000000000
6408 2      16.9841242197      22.0000000000
6409 2      15.2314275479      19.0000000000
6410 2      17.6296708581      19.0000000000
6411 2      15.0138290200      19.0000000000
6412 2      16.9340339325      18.0000000000
6413 2      14.6105153648      16.0000000000
6414 2      16.5424609746      23.0000000000
6415 2      15.5432969544      19.0000000000
6416 2      12.8795484722      17.0000000000
6417 2      15.6893708598      19.0000000000
6418 2      15.4331722577      18.0000000000
6419 2      14.8542111752      17.0000000000
6420 2      13.2251908272      17.0000000000
6421 2      13.2410479121      16.0000000000
6422 2      11.3096550193      15.0000000000
6423 2      15.3429706468      16.0000000000
6424 2      13.7954165999      17.0000000000
6425 2      13.8425654909      16.0000000000
6426 2      15.0426297026      17.0000000000
6427 2      17.6083732881      19.0000000000
6428 2      12.4390449699      14.0000000000
6429 2      13.6030285079      20.0000000000
6430 2      13.0773271367      18.0000000000
6431 2      14.0308647130      14.0000000000
6432 2      14.4849478105      21.0000000000
6433 2      13.1829200140      17.0000000000
6434 2      16.8715960032      19.0000000000
6435 2      12.8835102983      18.0000000000
6436 2      14.4504528407      18.0000000000
6437 2      14.5081841769      23.0000000000
6438 2      13.9180780347      17.0000000000
6439 2      16.6699543416      21.0000000000
6440 2      15.6452869364      22.0000000000
6441 2      16.3854938572      19.0000000000
6442 2      12.9402142751      18.0000000000
6443 2      17.3675371284      20.0000000000
6444 2      11.8907233412      17.0000000000
6445 2      14.0478918272      19.0000000000
6446 2      14.4692197506      18.0000000000
6447 2      17.5203284378      21.0000000000
6448 2      16.6126418849      23.0000000000
6449 2      11.2771577385      13.0000000000
6450 2      15.5564095831      19.0000000000
6451 2      16.6535235971      20.0000000000
6452 2      13.3126263861      15.0000000000
6453 2      15.1728466524      17.0000000000
6454 2      16.1035015876      20.0000000000
6455 2      12.7485213496      17.0000000000
6456 2      14.0667662896      17.0000000000
6457 2      16.2588139281      19.0000000000
6458 2      12.7391983457      12.0000000000
6459 2      16.5268408183      19.0000000000
6460 2      12.7075299808      14.0000000000
6461 2      13.3026767024      19.0000000000
6462 2      14.4344873185      16.0000000000
6463 2      13.7451919865      16.0000000000
6464 2      13.6803768927      15.0000000000
6465 2      13.1366503521      18.0000000000
6466 2      15.7077110795      22.0000000000
6467 2      13.8305346963      15.0000000000
6468 2      15.1210633672      18.0000000000
6469 2      17.1497319823      20.0000000000
6470 2      14.8277779854      19.0000000000
6471 2      13.9558861242      18.0000000000
6472 2      15.1903843349      17.0000000000
6473 2      16.4486363141      20.0000000000
6474 2      13.5122020305      20.0000000000
6475 2      14.7745192698      21.0000000000
6476 2      13.6502410653      18.0000000000
6477 2      13.3665439455      16.0000000000
6478 2      12.2734882228      17.0000000000
6479 2      13.7649495488      21.0000000000
6480 2      17.2175974818      21.0000000000
6481 2      15.0793260887      18.0000000000
6482 2      13.0402882823      17.0000000000
6483 2      14.2777122675      15.0000000000
6484 2      13.3611241054      19.0000000000
6485 2      15.5331344590      20.0000000000
6486 2      13.8222026553      16.0000000000
6487 2      15.3185855102      21.0000000000
6488 2      16.6662873500      20.0000000000
6489 2      16.4315854662      19.0000000000
6490 2      14.0579790229      23.0000000000
6491 2      16.5043195482      18.0000000000
6492 2      14.8177194194      15.0000000000
6493 2      14.8191896767      17.0000000000
6494 2      13.1577127061      15.0000000000
6495 2      15.1472766403      18.0000000000
6496 2      14.0353494232      21.0000000000
6497 2      12.6306142595      13.0000000000
6498 2      14.0122254124      14.0000000000
6499 2      14.4392730497      21.0000000000
6500 2      14.9967670022      16.0000000000
6501 2      14.7020705048      19.0000000000
6502 2      15.9255788419      17.0000000000
6503 2      12.9925056148      16.0000000000
6504 2      13.8728266073      15.0000000000
6505 2      12.8081264736      15.0000000000
6506 2      15.0072111050      20.0000000000
6507 2      17.2124538773      22.0000000000
6508 2      13.3547246746      16.0000000000
6509 2      18.0140263581      22.0000000000
6510 2      15.0736722963      19.0000000000
6511 2      14.6676197310      19.0000000000
6512 2      13.7390168316      17.0000000000
6513 2      12.9393259730      19.0000000000
6514 2      13.7802595186      13.0000000000
6515 2      14.1853879128      17.0000000000
6516 2      13.4674802121      18.0000000000
6517 2      13.8267822820      16.0000000000
6518 2      15.6649085324      22.0000000000
6519 2      13.7373672828      16.0000000000
6520 2      13.9084958484      17.0000000000
6521 2      12.6556948315      14.0000000000
6522 2      14.8440610733      19.0000000000
6523 2      13.8679663534      16.0000000000
6524 2      15.1398314912      16.0000000000
6525 2      14.2720479691      20.0000000000
6526 2      15.1613089123      20.0000000000
6527 2      13.1101514959      16.0000000000
6528 2      16.3092206970      22.0000000000
6529 2      13.1420795934      15.0000000000
6530 2      12.6902514728      16.0000000000
6531 2      14.4336919077      19.0000000000
6532 2      13.8778847392      17.0000000000
6533 2      15.8395357427      17.0000000000
6534 2      15.9602375302      19.0000000000
6535 2      13.4714306288      13.0000000000
6536 2      14.8427324810      19.0000000000
6537 2      16.8903679767      18.0000000000
6538 2      16.2182514545      17.0000000000
6539 2      15.4058183771      18.0000000000
6540 2      15.3409794988      20.0000000000
6541 2      14.1295087580      16.0000000000
6542 2      16.1514625514      17.0000000000
6543 2      15.8604341859      22.0000000000
6544 2      15.8293128046      16.0000000000
6545 2      13.3426466471      15.0000000000
6546 2      13.2206825032      17.0000000000
6547 2      13.6163066695      16.0000000000
6548 2      18.7686435801      18.0000000000
6549 2      12.2897570724      15.0000000000
6550 2      11.8855637872      16.0000000000
6551 2      14.3655157011      19.0000000000
6552 2      14.4704617799      17.0000000000
6553 2      14.0726437901      19.0000000000
6554 2      12.8832940014      16.0000000000
6555 2      14.5960609741      21.0000000000
6556 2      12.6978673452      17.0000000000
6557 2      13.3890900559      18.0000000000
6558 2      14.8602748881      22.0000000000
6559 2      12.8819495069      18.0000000000
6560 2      13.6808571995      18.0000000000
6561 2      15.8371296181      18.0000000000
6562 2      12.1297409465      14.0000000000
6563 2      15.3650215386      16.0000000000
6564 2      15.3937588202      16.0000000000
6565 2      13.1040109385      19.0000000000
6566 2      13.1083950386      14.0000000000
6567 2      14.3656752905      18.0000000000
6568 2      14.7580067688      20.0000000000
6569 2      13.2751504463      20.0000000000
6570 2      14.6518443448      18.0000000000
6571 2      14.7345683480      21.0000000000
6572 2      12.9412074547      19.0000000000
6573 2      16.7986206975      21.0000000000
6574 2      11.5977546767      14.0000000000
6575 2      15.4669420190      17.0000000000
6576 2      17.7114850140      20.0000000000
6577 2      13.8887591683      19.0000000000
6578 2      14.3861379277      16.0000000000
6579 2      14.5818754925      20.0000000000
6580 2      14.0766850384      18.0000000000
6581 2      13.7367114011      20.0000000000
6582 2      14.7815906611      17.0000000000
6583 2      14.2497562401      20.0000000000
6584 2      14.6208796547      18.0000000000
6585 2      14.9427199894      17.0000000000
6586 2      14.8318322648      18.0000000000
6587 2      13.3911414955      16.0000000000
6588 2      12.8874207889      17.0000000000
6589 2      15.6204345967      17.0000000000
6590 2      16.9570242191      21.0000000000
6591 2      12.5804632619      14.0000000000
6592 2      14.4679402018      18.0000000000
6593 2      13.0445495226      18.0000000000
6594 2      13.5648596432      17.0000000000
6595 2      17.4536954915      23.0000000000
6596 2      14.1469585906      15.0000000000
6597 2      13.3989122331      18.0000000000
6598 2      17.6677310234      19.0000000000
6599 2      15.3438085224      19.0000000000
6600 2      12.6124777887      16.0000000000
6601 2      12.3656267605      19.0000000000
6602 2      14.3289226005      14.0000000000
6603 2      14.3226590741      17.0000000000
6604 2      19.5421679767      23.0000000000
6605 2      14.7235194715      17.0000000000
6606 2      15.4569886010      16.0000000000
6607 2      13.2193289401      14.0000000000
6608 2      14.5073312202      19.0000000000
6609 2      13.1583472081      19.0000000000
6610 2      16.7335397788      21.0000000000
6611 2      13.1208664541      16.0000000000
6612 2      12.8203406508      18.0000000000
6613 2      13.1057302631      16.0000000000
6614 2      16.7103028961      19.0000000000
6615 2      11.2348247178      14.0000000000
6616 2      13.1076646253      15.0000000000
6617 2      13.3154796596      17.0000000000
6618 2      15.2882041860      17.0000000000
6619 2      16.0361254985      21.0000000000
6620 2      11.8880082444      15.0000000000
6621 2      15.8613618532      17.0000000000
6622 2      13.3019940427      13.0000000000
6623 2      13.0874475464      16.0000000000
6624 2      14.4349208018      22.0000000000
6625 2      12.5229540475      13.0000000000
6626 2      13.7482162302      16.0000000000
6627 2      16.1751337458      21.0000000000
6628 2      16.2946944716      16.0000000000
6629 2      13.2805933949      16.0000000000
6630 2      14.7797726442      16.0000000000
6631 2      13.4403153423      18.0000000000
6632 2      17.8194984713      19.0000000000
6633 2      15.3990910518      14.0000000000
6634 2      14.0029595346      18.0000000000
6635 2      14.1530982844      17.0000000000
6636 2      17.8190860171      20.0000000000
6637 2      15.0882851209      19.0000000000
6638 2      13.8431586271      18.0000000000
6639 2      14.8758525326      21.0000000000
6640 2      15.0884085700      18.0000000000
6641 2      13.9257400194      22.0000000000
6642 2      13.4257227637      19.0000000000
6643 2      13.8767952193      18.0000000000
6644 2      13.9075357971      16.0000000000
6645 2      14.6143707752      18.0000000000
6646 2      13.7546182784      15.0000000000
6647 2      12.5056815421      13.0000000000
6648 2      14.7580262405      16.0000000000
6649 2      15.0796591134      22.0000000000
6650 2      14.5388489906      17.0000000000
6651 2      13.7140634423      19.0000000000
6652 2      15.9719206574      23.0000000000
6653 2      18.1102180414      20.0000000000
6654 2      13.9247888003      21.0000000000
6655 2      12.9468611408      17.0000000000
6656 2      15.4067512836      21.0000000000
6657 2      11.7605049512      15.0000000000
6658 2      13.5369315787      18.0000000000
6659 2      16.4069456531      18.0000000000
6660 2      15.2136659221      19.0000000000
6661 2      14.6081022393      19.0000000000
6662 2      13.3226247658      22.0000000000
6663 2      14.4500118282      19.0000000000
6664 2      14.4257554771      15.0000000000
6665 2      13.7162094416      14.0000000000
6666 2      16.6630297120      20.0000000000
6667 2      14.2649760445      20.0000000000
6668 2      14.0962931337      18.0000000000
6669 2      14.2572831261      19.0000000000
6670 2      13.6895709683      18.0000000000
6671 2      13.2335227660      14.0000000000
6672 2      15.9053014791      18.0000000000
6673 2      12.5301325653      18.0000000000
6674 2      12.6728321363      17.0000000000
6675 2      15.5220007016      20.0000000000
6676 2      16.1006851057      16.0000000000
6677 2      15.9952702889      16.0000000000
6678 2      14.5693036451      17.0000000000
6679 2      16.4787581957      19.0000000000
6680 2      12.9332077058      14.0000000000
6681 2      13.8369592394      17.0000000000
6682 2      12.7230693949      15.0000000000
6683 2      12.6369634715      18.0000000000
6684 2      14.0266948440      15.0000000000
6685 2      14.3651235928      20.0000000000
6686 2      11.9925813102      14.0000000000
6687 2      14.9833549258      16.0000000000
6688 2      14.1013266413      16.0000000000
6689 2      16.7437023932      19.0000000000
6690 2      14.7518725091      18.0000000000
6691 2      13.8734368346      13.0000000000
6692 2      13.3718704470      15.0000000000
6693 2      14.6670978020      19.0000000000
6694 2      13.6626643477      20.0000000000
6695 2      15.2075616214      20.0000000000
6696 2      15.7451458931      18.0000000000
6697 2      18.0787863753      19.0000000000
6698 2      15.2516908482      20.0000000000
6699 2      15.5326859902      21.0000000000
6700 2      13.5791951388      21.0000000000
6701 2      14.3333156937      16.0000000000
6702 2      14.9068836533      15.0000000000
6703 2      13.0235699908      18.0000000000
6704 2      16.6088779679      15.0000000000
6705 2      13.1965501289      19.0000000000
6706 2      15.2046431805      18.0000000000
6707 2      13.9180996112      16.0000000000
6708 2      12.5345508060      15.0000000000
6709 2      11.8264325385      14.0000000000
6710 2      14.2457092930      20.0000000000
6711 2      13.2930810614      16.0000000000
6712 2      15.7529302140      18.0000000000
6713 2      15.0805169687      18.0000000000
6714 2      12.1088228713      16.0000000000
6715 2      12.2099063666      13.0000000000
6716 2      13.5357897262      16.0000000000
6717 2      12.6244622551      14.0000000000
6718 2      16.2329754250      19.0000000000
6719 2      13.1404515211      14.0000000000
6720 2      15.3803176242      22.0000000000
6721 2      13.6478484879      18.0000000000
6722 2      13.7254420754      14.0000000000
6723 2      12.9372480114      15.0000000000
6724 2      14.6177511436      15.0000000000
6725 2      13.1903195375      19.0000000000
6726 2      13.4702653084      18.0000000000
6727 2      13.9710108050      15.0000000000
6728 2      14.8868794725      18.0000000000
6729 2      12.2613863740      18.0000000000
6730 2      12.8269529347      15.0000000000
6731 2      15.8231663245      18.0000000000
6732 2      13.9336146889      19.0000000000
6733 2      14.9822360828      15.0000000000
6734 2      16.4378013691      18.0000000000
6735 2      13.5332825760      20.0000000000
6736 2      15.8069354002      21.0000000000
6737 2      16.5186557018      21.0000000000
6738 2      12.4975814576      16.0000000000
6739 2      16.6097790054      19.0000000000
6740 2      14.2711072334      18.0000000000
6741 2      16.9618923442      21.0000000000
6742 2      21.8438111240      23.0000000000
6743 2      14.7341174073      18.0000000000
6744 2      15.2915377754      17.0000000000
6745 2      13.9472872999      20.0000000000
6746 2      13.8892178537      17.0000000000
6747 2      12.7119378783      17.0000000000
6748 2      16.1069333809      20.0000000000
6749 2      12.1590358279      14.0000000000
6750 2      15.5983657205      20.0000000000
6751 2      14.6031294416      19.0000000000
6752 2      15.1440946689      23.0000000000
6753 2      13.8071770659      12.0000000000
6754 2      15.6814809806      19.0000000000
6755 2      14.8525708886      19.0000000000
6756 2      14.7455115789      16.0000000000
6757 2      15.6183704688      20.0000000000
6758 2      17.7226731419      22.0000000000
6759 2      12.3958954529      17.0000000000
6760 2      14.8346876167      20.0000000000
6761 2      13.4229775638      18.0000000000
6762 2      15.1920607205      19.0000000000
6763 2      14.7750754345      18.0000000000
6764 2      13.8327613231      17.0000000000
6765 2      14.7782192014      17.0000000000
6766 2      13.4310485488      18.0000000000
6767 2      15.7213729943      19.0000000000
6768 2      14.5927391722      18.0000000000
6769 2      15.6270401191      19.0000000000
6770 2      16.8995208367      21.0000000000
6771 2      13.7442066378      18.0000000000
6772 2      16.2479854117      19.0000000000
6773 2      15.9919175436      21.0000000000
6774 2      14.6065287384      13.0000000000
6775 2      14.1643325288      18.0000000000
6776 2      15.9309598654      20.0000000000
6777 2      17.5669923293      19.0000000000
6778 2      15.4029862256      17.0000000000
6779 2      13.0254648830      14.0000000000
6780 2      12.9127198777      18.0000000000
6781 2      15.3633955944      19.0000000000
6782 2      14.3486705620      17.0000000000
6783 2      15.1013276045      18.0000000000
6784 2      13.8705229455      18.0000000000
6785 2      12.9947585691      17.0000000000
6786 2      17.0754315077      16.0000000000
6787 2      13.2500987443      18.0000000000
6788 2      17.4350074633      21.0000000000
6789 2      13.3277720689      21.0000000000
6790 2      14.1658037541      18.0000000000
6791 2      14.2770959575      18.0000000000
6792 2      14.9547932987      17.0000000000
6793 2      12.9978582134      14.0000000000
6794 2      16.5957974867      20.0000000000
6795 2      14.2136156080      14.0000000000
6796 2      14.7021379022      19.0000000000
6797 2      14.9124174515      19.0000000000
6798 2      14.1386720669      17.0000000000
6799 2      17.4774106828      22.0000000000
6800 2      15.6802104853      16.0000000000
6801 2      17.2489827428      15.0000000000
6802 2      13.6448999884      17.0000000000
6803 2      13.6020759226      15.0000000000
6804 2      12.6762350205      15.0000000000
6805 2      15.3015087314      18.0000000000
6806 2      14.6491465286      18.0000000000
6807 2      17.1233611465      21.0000000000
6808 2      15.2515898053      20.0000000000
6809 2      12.9026285381      17.0000000000
6810 2      15.1355203880      16.0000000000
6811 2      13.9833634826      15.0000000000
6812 2      15.3021651480      18.0000000000
6813 2      13.2280485588      16.0000000000
6814 2      13.4273680651      14.0000000000
6815 2      13.0575727897      13.0000000000
6816 2      15.5988012270      22.0000000000
6817 2      13.1262196385      15.0000000000
6818 2      13.6042153017      16.0000000000
6819 2      14.6698603343      17.0000000000
6820 2      16.1608272972      17.0000000000
6821 2      14.9028678577      20.0000000000
6822 2      14.6181781809      18.0000000000
6823 2      13.2207820139      19.0000000000
6824 2      15.0180698470      15.0000000000
6825 2      14.4107241688      19.0000000000
6826 2      15.6922133493      19.0000000000
6827 2      16.9432932280      23.0000000000
6828 2      16.7539210162      20.0000000000
6829 2      14.5433158735      16.0000000000
6830 2      13.4987643268      16.0000000000
6831 2      16.9641391693      17.0000000000
6832 2      16.0307235231      20.0000000000
6833 2      15.4911317525      18.0000000000
6834 2      14.5708018195      18.0000000000
6835 2      14.9165555631      17.0000000000
6836 2      13.2443689240      14.0000000000
6837 2      14.1850699585      15.0000000000
6838 2      11.2214762674      17.0000000000
6839 2      14.7440797233      20.0000000000
6840 2      15.1151849143      17.0000000000
6841 2      16.2920312847      17.0000000000
6842 2      14.6327300324      19.0000000000
6843 2      14.0810176560      16.0000000000
6844 2      13.3202596958      19.0000000000
6845 2      12.3096357398      16.0000000000
6846 2      13.6996924234      16.0000000000
6847 2      12.5566203933      18.0000000000
6848 2      15.4128338177      16.0000000000
6849 2      17.4678618202      19.0000000000
6850 2      15.3874048707      18.0000000000
6851 2      15.7928613857      21.0000000000
6852 2      14.3687104311      17.0000000000
6853 2      13.5442260159      17.0000000000
6854 2      12.1666655559      14.0000000000
6855 2      13.2947975766      17.0000000000
6856 2      15.9537270941      22.0000000000
6857 2      15.1203164742      19.0000000000
6858 2      14.8486242042      17.0000000000
6859 2      17.4880345312      20.0000000000
6860 2      13.5684786664      16.0000000000
6861 2      15.3156673095      19.0000000000
6862 2      13.2502090974      16.0000000000
6863 2      13.8411462172      16.0000000000
6864 2      13.7174065508      16.0000000000
6865 2      12.7521245690      16.0000000000
6866 2      15.7010212348      21.0000000000
6867 2      16.8709448445      18.0000000000
6868 2      15.0295446595      14.0000000000
6869 2      11.2577533698      13.0000000000
6870 2      14.7328460365      19.0000000000
6871 2      13.8357349133      15.0000000000
6872 2      15.8746418635      20.0000000000
6873 2      14.0630517353      16.0000000000
6874 2      15.0576622616      19.0000000000
6875 2      13.7863291351      18.0000000000
6876 2      15.5362289389      21.0000000000
6877 2      15.5964981745      18.0000000000
6878 2      12.7135208272      16.0000000000
6879 2      14.1460042884      18.0000000000
6880 2      16.1529827176      20.0000000000
6881 2      15.9963787326      19.0000000000
6882 2      14.7442385251      18.0000000000
6883 2      12.6243036752      15.0000000000
6884 2      17.2506467407      16.0000000000
6885 2      13.8059876310      17.0000000000
6886 2      12.1467532192      15.0000000000
6887 2      13.2792779055      16.0000000000
6888 2      16.5642819747      19.0000000000
6889 2      13.5180953393      18.0000000000
6890 2      12.5361011156      15.0000000000
6891 2      13.9276698767      18.0000000000
6892 2      13.9520486674      18.0000000000
6893 2      14.6229185449      19.0000000000
6894 2      13.4323486645      18.0000000000
6895 2      15.6207304367      19.0000000000
6896 2      12.2034703392      18.0000000000
6897 2      16.8977169093      20.0000000000
6898 2      15.2002562612      21.0000000000
6899 2      16.3290923521      18.0000000000
6900 2      14.5510734676      17.0000000000
6901 2      17.5198054963      19.0000000000
6902 2      15.8101017124      19.0000000000
6903 2      15.5009226690      16.0000000000
6904 2      14.7186711685      20.0000000000
6905 2      11.9624460052      16.0000000000
6906 2      14.7382355983      17.0000000000
6907 2      12.8078326788      15.0000000000
6908 2      12.7972048438      18.0000000000
6909 2      14.4434283526      19.0000000000
6910 2      12.5277029603      16.0000000000
6911 2      16.0440294418      19.0000000000
6912 2      14.4059513337      19.0000000000
6913 2      12.4257167840      15.0000000000
6914 2      14.5456560591      18.0000000000
6915 2      13.3357899627      17.0000000000
6916 2      14.7100704101      20.0000000000
6917 2      15.4023642351      21.0000000000
6918 2      14.4909467110      14.0000000000
6919 2      13.8639885993      13.0000000000
6920 2      15.7291066146      18.0000000000
6921 2      15.2944422266      20.0000000000
6922 2      12.2267773166      16.0000000000
6923 2      12.9894482664      17.0000000000
6924 2      14.2234591059      15.0000000000
6925 2      13.4483985243      16.0000000000
6926 2      16.5442325408      16.0000000000
6927 2      12.9481120177      14.0000000000
6928 2      13.4131197443      14.0000000000
6929 2      15.0249258505      19.0000000000
6930 2      12.6020558814      15.0000000000
6931 2      12.6066052614      18.0000000000
6932 2      15.1594941081      19.0000000000
6933 2      13.5834991127      17.0000000000
6934 2      16.2871508904      19.0000000000
6935 2      16.7329175676      18.0000000000
6936 2      13.0753247191      17.0000000000
6937 2      13.3292218133      20.0000000000
6938 2      13.9441654379      16.0000000000
6939 2      14.0139804477      18.0000000000
6940 2      15.6857028113      18.0000000000
6941 2      15.4597029904      19.0000000000
6942 2      15.2966746962      18.0000000000
6943 2      15.8554569242      16.0000000000
6944 2      16.5761755624      20.0000000000
6945 2      14.1505609717      18.0000000000
6946 2      17.1819096573      21.0000000000
6947 2      15.2307445176      21.0000000000
6948 2      15.0098271177      22.0000000000
6949 2      15.9158408694      21.0000000000
6950 2      15.3099068547      21.0000000000
6951 2      13.6659886706      13.0000000000
6952 2      17.0585307625      21.0000000000
6953 2      16.7531194789      21.0000000000
6954 2      13.1262982662      14.0000000000
6955 2      16.3702099444      20.0000000000
6956 2      15.4064992149      23.0000000000
6957 2      15.9515815947      18.0000000000
6958 2      13.6060868116      19.0000000000
6959 2      15.6838238902      21.0000000000
6960 2      14.2539629383      16.0000000000
6961 2      16.0846532293      17.0000000000
6962 2      14.7512997572      18.0000000000
6963 2      14.1730363848      19.0000000000
6964 2      16.8618297369      17.0000000000
6965 2      15.7013847276      20.0000000000
6966 2      15.6763673029      16.0000000000
6967 2      17.2630096413      21.0000000000
6968 2      11.6761154725      16.0000000000
6969 2      14.2586723417      19.0000000000
6970 2      14.3228886338      19.0000000000
6971 2      14.7715331754      18.0000000000
6972 2      18.6795256470      22.0000000000
6973 2      14.6630171159      20.0000000000
6974 2      13.8474295747      19.0000000000
6975 2      16.3206121363      22.0000000000
6976 2      12.8851835831      15.0000000000
6977 2      16.8559289168      22.0000000000
6978 2      15.4299488201      18.0000000000
6979 2      14.8838440948      20.0000000000
6980 2      14.7580320743      17.0000000000
6981 2      14.9768326074      16.0000000000
6982 2      11.5352847183      15.0000000000
6983 2      14.8262436471      15.0000000000
6984 2      13.0795261596      15.0000000000
6985 2      15.1608417415      19.0000000000
6986 2      15.2021428128      20.0000000000
6987 2      16.7850745835      20.0000000000
6988 2      15.5416212267      19.0000000000
6989 2      15.3948311761      17.0000000000
6990 2      13.8528123811      17.0000000000
6991 2      15.9696599671      20.0000000000
6992 2      13.3066037885      16.0000000000
6993 2      13.2699272304      16.0000000000
6994 2      14.4738126299      16.0000000000
6995 2      14.1610016130      16.0000000000
6996 2      14.2645641970      17.0000000000
6997 2      14.5535559675      17.0000000000
6998 2      12.5859779641      17.0000000000
6999 2      14.5666954724      17.0000000000
7000 2      12.9404463315      18.0000000000
7001 2      16.7931658892      20.0000000000
7002 2      16.6178466690      21.0000000000
7003 2      14.3693862736      17.0000000000
7004 2      15.1623920706      18.0000000000
7005 2      11.5617356715      15.0000000000
7006 2      13.6919874373      17.0000000000
7007 2      15.8574107395      20.0000000000
7008 2      16.2189786016      23.0000000000
7009 2      14.9531165951      21.0000000000
7010 2      13.8479096667      17.0000000000
7011 2      15.9462749684      19.0000000000
7012 2      18.7856473776      21.0000000000
7013 2      13.4879908350      14.0000000000
7014 2      16.0175740512      20.0000000000
7015 2      12.3112798894      14.0000000000
7016 2      14.7380906375      19.0000000000
7017 2      13.9746972391      17.0000000000
7018 2      15.8254420075      18.0000000000
7019 2      19.0663066889      18.0000000000
7020 2      15.6421511780      22.0000000000
7021 2      13.5365629030      17.0000000000
7022 2      13.2053676736      16.0000000000
7023 2      13.5689053545      15.0000000000
7024 2      15.2558574148      19.0000000000
7025 2      12.7085661651      15.0000000000
7026 2      14.2719606847      19.0000000000
7027 2      14.4796566175      19.0000000000
7028 2      14.0574513962      18.0000000000
7029 2      14.8067153567      14.0000000000
7030 2      14.8147187736      19.0000000000
7031 2      14.9257229580      17.0000000000
7032 2      14.6321183172      18.0000000000
7033 2      13.9282754381      16.0000000000
7034 2      15.3572925387      17.0000000000
7035 2      13.4954968291      18.0000000000
7036 2      12.6632545315      17.0000000000
7037 2      14.7407310839      16.0000000000
7038 2      16.3435625074      20.0000000000
7039 2      15.9889624799      19.0000000000
7040 2      14.8253396558      19.0000000000
7041 2      14.4447442443      18.0000000000
7042 2      16.0962492949      19.0000000000
7043 2      15.8155293728      20.0000000000
7044 2      13.4046450647      19.0000000000
7045 2      12.7174911538      18.0000000000
7046 2      14.0168211806      17.0000000000
7047 2      12.6267602526      17.0000000000
7048 2      14.3434059427      18.0000000000
7049 2      16.8350300456      22.0000000000
7050 2      13.4341320934      16.0000000000
7051 2      14.8446977412      21.0000000000
7052 2      13.5024301200      15.0000000000
7053 2      13.8890929001      17.0000000000
7054 2      13.8470822575      14.0000000000
7055 2      14.7017355780      16.0000000000
7056 2      15.0260191172      21.0000000000
7057 2      12.9657375454      15.0000000000
7058 2      19.9648169783      21.0000000000
7059 2      14.9316557555      18.0000000000
7060 2      13.4344854752      16.0000000000
7061 2      14.2775087094      18.0000000000
7062 2      17.0512412470      19.0000000000
7063 2      16.3345963189      16.0000000000
7064 2      15.3179860778      20.0000000000
7065 2      15.0623634722      20.0000000000
7066 2      16.8004979245      20.0000000000
7067 2      13.4033830856      15.0000000000
7068 2      13.2869522151      15.0000000000
7069 2      13.9936767549      20.0000000000
7070 2      13.6953336012      16.0000000000
7071 2      13.1280670887      16.0000000000
7072 2      16.7661224735      19.0000000000
7073 2      15.4064504202      17.0000000000
7074 2      12.7602062258      16.0000000000
7075 2      16.9857432677      22.0000000000
7076 2      15.2761735700      17.0000000000
7077 2      14.7874204763      15.0000000000
7078 2      12.0097162981      14.0000000000
7079 2      13.8535092920      16.0000000000
7080 2      15.3546612082      20.0000000000
7081 2      14.6281642437      23.0000000000
7082 2      17.0877736258      17.0000000000
7083 2      18.1980215948      19.0000000000
7084 2      15.6139309068      20.0000000000
7085 2      14.3552985180      19.0000000000
7086 2      13.1675747302      16.0000000000
7087 2      13.7505824065      19.0000000000
7088 2      19.3259301609      24.0000000000
7089 2      14.0925425278      20.0000000000
7090 2      14.7138417693      18.0000000000
7091 2      14.0001248473      18.0000000000
7092 2      14.7033989604      17.0000000000
7093 2      16.0683277585      17.0000000000
7094 2      15.2458442254      17.0000000000
7095 2      14.7251388397      17.0000000000
7096 2      17.9540537628      20.0000000000
7097 2      14.4235154151      16.0000000000
7098 2      15.1535064131      20.0000000000
7099 2      14.1115111295      20.0000000000
7100 2      16.0286051592      18.0000000000
7101 2      14.7392643149      16.0000000000
7102 2      14.9867504316      20.0000000000
7103 2      14.4781794488      19.0000000000
7104 2      15.1228903768      18.0000000000
7105 2      13.5924684042      15.0000000000
7106 2      12.0444116774      16.0000000000
7107 2      15.2082820307      19.0000000000
7108 2      15.9405139990      20.0000000000
7109 2      14.7130777307      15.0000000000
7110 2      15.6714190902      21.0000000000
7111 2      14.2156767850      16.0000000000
7112 2      15.4733172302      17.0000000000
7113 2      15.0239016179      16.0000000000
7114 2      13.9430988481      17.0000000000
7115 2      12.6138422867      15.0000000000
7116 2      13.3993054297      16.0000000000
7117 2      13.7536497418      17.0000000000
7118 2      14.4099492039      17.0000000000
7119 2      13.6212799586      21.0000000000
7120 2      13.2875613422      17.0000000000
7121 2      13.6184956407      18.0000000000
7122 2      14.6580243002      16.0000000000
7123 2      14.8513724006      20.0000000000
7124 2      14.4616601698      16.0000000000
7125 2      15.4778963796      17.0000000000
7126 2      15.7236837799      19.0000000000
7127 2      12.7345496471      18.0000000000
7128 2      15.8615034643      19.0000000000
7129 2      15.2278464158      19.0000000000
7130 2      13.5174061577      17.0000000000
7131 2      19.2466776411      21.0000000000
7132 2      11.8864271500      17.0000000000
7133 2      17.3415384514      21.0000000000
7134 2      16.6702088910      21.0000000000
7135 2      15.0211628460      18.0000000000
7136 2      12.9550906433      18.0000000000
7137 2      12.6432254223      15.0000000000
7138 2      12.1223092131      16.0000000000
7139 2      17.9195232426      22.0000000000
7140 2      15.4964874104      16.0000000000
7141 2      14.6284450722      18.0000000000
7142 2      15.4560571246      20.0000000000
7143 2      12.7152917449      16.0000000000
7144 2      11.9155559898      16.0000000000
7145 2      14.7017940686      21.0000000000
7146 2      13.9012693150      19.0000000000
7147 2      11.4977772915      17.0000000000
7148 2      14.4727249982      18.0000000000
7149 2      14.2303470307      19.0000000000
7150 2      14.9742297593      20.0000000000
7151 2      14.5198197225      23.0000000000
7152 2      14.9764930239      17.0000000000
7153 2      15.8489572134      19.0000000000
7154 2      13.6468843381      18.0000000000
7155 2      15.0866453843      19.0000000000
7156 2      17.5414155949      17.0000000000
7157 2      13.2082601708      15.0000000000
7158 2      11.6751308824      14.0000000000
7159 2      16.1063551398      20.0000000000
7160 2      19.0487796986      24.0000000000
7161 2      14.0990021168      17.0000000000
7162 2      14.7939545161      22.0000000000
7163 2      12.0600786335      16.0000000000
7164 2      15.6109420796      18.0000000000
7165 2      13.3891913222      17.0000000000
7166 2      14.9856908724      16.0000000000
7167 2      15.2866989911      17.0000000000
7168 2      15.4328351636      15.0000000000
7169 2      14.7598447745      22.0000000000
7170 2      12.9155053615      16.0000000000
7171 2      16.1319445367      21.0000000000
7172 2      14.9519357966      17.0000000000
7173 2      16.1756180360      19.0000000000
7174 2      17.0932818446      22.0000000000
7175 2      16.7806014683      17.0000000000
7176 2      14.7186055740      16.0000000000
7177 2      13.8803460320      15.0000000000
7178 2      14.4177926968      18.0000000000
7179 2      17.8346315156      19.0000000000
7180 2      15.0150745008      16.0000000000
7181 2      13.6871741513      18.0000000000
7182 2      14.0082905158      16.0000000000
7183 2      14.3061967750      16.0000000000
7184 2      16.5854591941      19.0000000000
7185 2      12.7289960201      19.0000000000
7186 2      15.2240735799      15.0000000000
7187 2      15.0512343958      15.0000000000
7188 2      16.5154515784      19.0000000000
7189 2      14.7558208179      16.0000000000
7190 2      14.2046613602      18.0000000000
7191 2      14.5421645622      17.0000000000
7192 2      12.9660604777      15.0000000000
7193 2      14.3029219193      23.0000000000
7194 2      14.8972761756      17.0000000000
7195 2      13.8002676762      16.0000000000
7196 2      15.4618005822      17.0000000000
7197 2      14.7025578445      17.0000000000
7198 2      13.3507314581      17.0000000000
7199 2      14.2880716294      19.0000000000
7200 2      13.8369828184      24.0000000000
7201 2      12.2399706873      16.0000000000
7202 2      13.6942273980      16.0000000000
7203 2      12.7676098835      18.0000000000
7204 2      15.9706164874      22.0000000000
7205 2      16.4646045011      23.0000000000
7206 2      13.2579030081      19.0000000000
7207 2      15.7166059131      19.0000000000
7208 2      15.6357349380      21.0000000000
7209 2      13.6486976882      18.0000000000
7210 2      13.2022023653      15.0000000000
7211 2      13.2075083057      17.0000000000
7212 2      16.6824191853      22.0000000000
7213 2      13.2650851405      15.0000000000
7214 2      14.0695640617      18.0000000000
7215 2      19.3782047571      22.0000000000
7216 2      16.9557134725      18.0000000000
7217 2      15.3411531124      16.0000000000
7218 2      12.3157467969      16.0000000000
7219 2      15.6247662805      19.0000000000
7220 2      12.6688997387      18.0000000000
7221 2      16.8896614954      25.0000000000
7222 2      14.7128630083      19.0000000000
7223 2      13.5574174789      17.0000000000
7224 2      13.4715739316      18.0000000000
7225 2      14.2099475175      18.0000000000
7226 2      13.6900320565      15.0000000000
7227 2      12.1272850098      16.0000000000
7228 2      18.4886159435      24.0000000000
7229 2      15.0742837583      17.0000000000
7230 2      12.9171236054      20.0000000000
7231 2      16.2301102761      18.0000000000
7232 2      17.2166526629      21.0000000000
7233 2      14.4433948733      16.0000000000
7234 2      14.0875399459      19.0000000000
7235 2      14.3233624968      17.0000000000
7236 2      10.8053265630      16.0000000000
7237 2      16.4832438787      17.0000000000
7238 2      14.1018145554      19.0000000000
7239 2      12.4001046407      14.0000000000
7240 2      14.0396609852      20.0000000000
7241 2      13.3466964394      14.0000000000
7242 2      13.9165809210      16.0000000000
7243 2      14.4457857824      15.0000000000
7244 2      13.4278028475      15.0000000000
7245 2      15.3092330768      19.0000000000
7246 2      14.8572746724      18.0000000000
7247 2      17.2070458937      20.0000000000
7248 2      17.3544118234      18.0000000000
7249 2      14.1632493606      18.0000000000
7250 2      16.8831359373      18.0000000000
7251 2      15.4293830732      16.0000000000
7252 2      13.5135821183      17.0000000000
7253 2      14.6971529126      19.0000000000
7254 2      14.7666966316      17.0000000000
7255 2      16.3061622450      20.0000000000
7256 2      16.2809611653      18.0000000000
7257 2      15.2986622919      18.0000000000
7258 2      14.6994590049      18.0000000000
7259 2      17.0849428422      20.0000000000
7260 2      15.3694331051      17.0000000000
7261 2      15.9154515167      19.0000000000
7262 2      15.1891885383      19.0000000000
7263 2      12.9171889045      18.0000000000
7264 2      11.1170750201      13.0000000000
7265 2      14.9027508130      21.0000000000
7266 2      14.2848955611      17.0000000000
7267 2      13.9768949765      13.0000000000
7268 2      14.9292085483      18.0000000000
7269 2      12.6120121949      18.0000000000
7270 2      16.2688251834      20.0000000000
7271 2      13.0931028329      14.0000000000
7272 2      12.1302256861      15.0000000000
7273 2      15.4472574027      18.0000000000
7274 2      15.4659865328      17.0000000000
7275 2      12.1497451616      15.0000000000
7276 2      15.4337955027      19.0000000000
7277 2      13.8535406486      16.0000000000
7278 2      16.7592062971      21.0000000000
7279 2      13.5593249264      19.0000000000
7280 2      15.1691898080      20.0000000000
7281 2      13.4672313111      16.0000000000
7282 2      14.5641239291      20.0000000000
7283 2      15.3990029510      20.0000000000
7284 2      17.2951631244      22.0000000000
7285 2      13.5012515388      17.0000000000
7286 2      15.5734123400      15.0000000000
7287 2      14.4498545134      18.0000000000
7288 2      14.0617786916      18.0000000000
7289 2      15.6060885236      19.0000000000
7290 2      13.0437133411      15.0000000000
7291 2      14.8339349500      16.0000000000
7292 2      14.5468305641      16.0000000000
7293 2      15.4880737454      19.0000000000
7294 2      12.6872092723      16.0000000000
7295 2      14.8941483549      19.0000000000
7296 2      16.0139732899      16.0000000000
7297 2      12.3677907348      15.0000000000
7298 2      12.1590785404      15.0000000000
7299 2      15.6433841094      14.0000000000
7300 2      15.8970436041      16.0000000000
7301 2      17.1036787316      18.0000000000
7302 2      13.6886851191      19.0000000000
7303 2      14.8816471611      21.0000000000
7304 2      14.7092032086      23.0000000000
7305 2      15.0763975758      19.0000000000
7306 2      16.1500291443      21.0000000000
7307 2      15.4416213747      17.0000000000
7308 2      15.5010023206      18.0000000000
7309 2      14.7683389140      21.0000000000
7310 2      11.9524612937      16.0000000000
7311 2      15.8384605656      21.0000000000
7312 2      14.1080557892      16.0000000000
7313 2      11.5180880556      16.0000000000
7314 2      16.0612511763      20.0000000000
7315 2      14.3730792375      18.0000000000
7316 2      14.3253135696      14.0000000000
7317 2      14.6417796870      17.0000000000
7318 2      14.6341687253      17.0000000000
7319 2      13.6437342935      14.0000000000
7320 2      10.9550194458      17.0000000000
7321 2      11.2314152485      15.0000000000
7322 2      13.4054151394      16.0000000000
7323 2      13.5209775174      15.0000000000
7324 2      13.6372063463      17.0000000000
7325 2      15.1279605460      17.0000000000
7326 2      13.3279780815      15.0000000000
7327 2      12.3540423322      17.0000000000
7328 2      12.2595832195      17.0000000000
7329 2      15.6339403652      19.0000000000
7330 2      14.3996438178      18.0000000000
7331 2      14.2271867329      16.0000000000
7332 2      15.2456631620      19.0000000000
7333 2      13.8371615890      21.0000000000
7334 2      11.2968148011      14.0000000000
7335 2      13.8098189398      16.0000000000
7336 2      11.5655236454      14.0000000000
7337 2      16.9884476110      20.0000000000
7338 2      12.8180927390      15.0000000000
7339 2      18.0811082599      22.0000000000
7340 2      15.8378476669      20.0000000000
7341 2      18.4138835071      16.0000000000
7342 2      13.0308298143      16.0000000000
7343 2      15.9217776430      18.0000000000
7344 2      16.0813230605      18.0000000000
7345 2      12.4716171472      15.0000000000
7346 2      13.7203652342      22.0000000000
7347 2      15.6601923813      23.0000000000
7348 2      15.4908255194      17.0000000000
7349 2      15.6987501583      20.0000000000
7350 2      13.4063925948      18.0000000000
7351 2      13.4425658063      18.0000000000
7352 2      17.7876840432      21.0000000000
7353 2      16.4325644322      18.0000000000
7354 2      13.2013884672      15.0000000000
7355 2      12.5780937516      16.0000000000
7356 2      14.2160527144      16.0000000000
7357 2      15.3596601364      20.0000000000
7358 2      16.3219829264      21.0000000000
7359 2      13.5731817010      18.0000000000
7360 2      12.5151374954      13.0000000000
7361 2      16.1157400579      21.0000000000
7362 2      17.5722086421      20.0000000000
7363 2      17.7530382676      22.0000000000
7364 2      14.7354359990      19.0000000000
7365 2      13.7901625140      17.0000000000
7366 2      17.8542515784      22.0000000000
7367 2      15.6929058477      15.0000000000
7368 2      15.1544639765      20.0000000000
7369 2      14.2965966638      20.0000000000
7370 2      15.6642983997      20.0000000000
7371 2      16.9978918050      19.0000000000
7372 2      16.8545615440      18.0000000000
7373 2      13.7555313120      15.0000000000
7374 2      15.9117177114      15.0000000000
7375 2      16.3219410971      24.0000000000
7376 2      17.8720676770      23.0000000000
7377 2      11.9339302882      15.0000000000
7378 2      16.1426322523      17.0000000000
7379 2      15.0083462083      17.0000000000
7380 2      15.7002423160      20.0000000000
7381 2      13.5709165627      18.0000000000
7382 2      16.1591505931      20.0000000000
7383 2      14.3808973087      16.0000000000
7384 2      12.3452337803      17.0000000000
7385 2      14.6174064861      16.0000000000
7386 2      13.5115511834      16.0000000000
7387 2      11.3448569642      16.0000000000
7388 2      11.2992378785      17.0000000000
7389 2      12.6626984980      15.0000000000
7390 2      14.8838457256      21.0000000000
7391 2      17.8634798735      18.0000000000
7392 2      14.7570938293      19.0000000000
7393 2      14.3360221800      16.0000000000
7394 2      14.2435546843      19.0000000000
7395 2      14.4827758096      15.0000000000
7396 2      13.2312203818      17.0000000000
7397 2      14.4331673625      14.0000000000
7398 2      14.2718775422      19.0000000000
7399 2      12.7849882077      16.0000000000
7400 2      15.5228340060      18.0000000000
7401 2      12.7608298832      16.0000000000
7402 2      12.7673753428      16.0000000000
7403 2      17.2005232024      17.0000000000
7404 2      15.2486032964      18.0000000000
7405 2      13.5735707331      17.0000000000
7406 2      15.6748446354      18.0000000000
7407 2      12.9375975016      16.0000000000
7408 2      11.9334139492      18.0000000000
7409 2      13.8944226520      19.0000000000
7410 2      13.6269713824      18.0000000000
7411 2      17.6248160607      18.0000000000
7412 2      13.0950086807      14.0000000000
7413 2      14.3786818595      15.0000000000
7414 2      13.7040517524      19.0000000000
7415 2      16.4681821014      17.0000000000
7416 2      15.7697084908      16.0000000000
7417 2      13.3279009316      15.0000000000
7418 2      13.4196843987      14.0000000000
7419 2      14.9398502825      20.0000000000
7420 2      12.5168371364      13.0000000000
7421 2      16.6976025039      22.0000000000
7422 2      16.5034035258      17.0000000000
7423 2      15.8307836606      18.0000000000
7424 2      15.1984066252      20.0000000000
7425 2      15.2602685576      19.0000000000
7426 2      13.8931941114      16.0000000000
7427 2      14.4318119457      17.0000000000
7428 2      13.0059417030      17.0000000000
7429 2      11.9939794480      14.0000000000
7430 2      13.5059141446      18.0000000000
7431 2      12.5339410327      17.0000000000
7432 2      16.0281405367      17.0000000000
7433 2      15.5901384447      21.0000000000
7434 2      12.6657854696      18.0000000000
7435 2      13.4671052876      19.0000000000
7436 2      14.9826769671      20.0000000000
7437 2      17.1339721861      18.0000000000
7438 2      14.9327624624      20.0000000000
7439 2      15.1277092490      19.0000000000
7440 2      15.4330420641      13.0000000000
7441 2      15.6588007256      20.0000000000
7442 2      15.1670610325      16.0000000000
7443 2      17.2952906634      17.0000000000
7444 2      13.5393661332      18.0000000000
7445 2      14.9254479896      18.0000000000
7446 2      14.2135195682      19.0000000000
7447 2      16.1667966011      19.0000000000
7448 2      13.4600304041      17.0000000000
7449 2      12.3807690274      16.0000000000
7450 2      13.3094769436      16.0000000000
7451 2      14.3692529454      18.0000000000
7452 2      14.0959294282      20.0000000000
7453 2      14.9321739725      18.0000000000
7454 2      15.3107542199      16.0000000000
7455 2      15.9325945367      19.0000000000
7456 2      13.5739123566      18.0000000000
7457 2      12.2350913364      16.0000000000
7458 2      14.9706765944      16.0000000000
7459 2      13.0117161062      14.0000000000
7460 2      13.6639988544      17.0000000000
7461 2      16.1104296975      20.0000000000
7462 2      12.2597673627      15.0000000000
7463 2      13.9699954581      15.0000000000
7464 2      14.0209857615      18.0000000000
7465 2      15.9348914754      19.0000000000
7466 2      12.5033230231      17.0000000000
7467 2      13.6827584950      16.0000000000
7468 2      12.3098968406      15.0000000000
7469 2      13.4164407616      14.0000000000
7470 2      13.1048931922      18.0000000000
7471 2      13.7186710454      14.0000000000
7472 2      14.1755385237      19.0000000000
7473 2      13.4056616604      20.0000000000
7474 2      15.6410154935      16.0000000000
7475 2      14.8695139366      23.0000000000
7476 2      15.2762536323      19.0000000000
7477 2      15.4463438830      22.0000000000
7478 2      16.8017186559      18.0000000000
7479 2      12.4662991131      17.0000000000
7480 2      14.8435040877      20.0000000000
7481 2      14.3338006346      18.0000000000
7482 2      16.3467346024      19.0000000000
7483 2      12.8597789061      17.0000000000
7484 2      11.6824653926      15.0000000000
7485 2      13.5828203762      16.0000000000
7486 2      15.0258162912      23.0000000000
7487 2      16.0098626712      19.0000000000
7488 2      14.8700255775      20.0000000000
7489 2      14.4320561187      17.0000000000
7490 2      12.3535680381      19.0000000000
7491 2      12.9764430014      17.0000000000
7492 2      14.1821032105      17.0000000000
7493 2      13.5465564735      20.0000000000
7494 2      13.7912085978      15.0000000000
7495 2      13.0899111149      16.0000000000
7496 2      14.2721313842      17.0000000000
7497 2      13.6578847090      16.0000000000
7498 2      15.4278509215      21.0000000000
7499 2      15.8106007321      17.0000000000
7500 2      11.9454014478      17.0000000000
7501 2      12.4602612189      15.0000000000
7502 2      15.8899197527      18.0000000000
7503 2      13.4626915997      17.0000000000
7504 2      18.5804260530      25.0000000000
7505 2      12.6897834560      14.0000000000
7506 2      14.5097544362      20.0000000000
7507 2      12.5535493353      18.0000000000
7508 2      17.8812112366      22.0000000000
7509 2      14.3452136190      22.0000000000
7510 2      15.9229283795      22.0000000000
7511 2      14.8004730604      18.0000000000
7512 2      13.9753895766      19.0000000000
7513 2      16.1381200602      20.0000000000
7514 2      12.9471849494      16.0000000000
7515 2      14.1297501950      19.0000000000
7516 2      16.6796767586      21.0000000000
7517 2      15.2259112736      18.0000000000
7518 2      13.1093482733      15.0000000000
7519 2      13.9592740955      18.0000000000
7520 2      13.7500617019      19.0000000000
7521 2      14.7651852100      16.0000000000
7522 2      13.8207165099      18.0000000000
7523 2      12.9049297401      17.0000000000
7524 2      14.8901927598      19.0000000000
7525 2      15.6912325001      17.0000000000
7526 2      13.3217259771      21.0000000000
7527 2      14.5447760672      17.0000000000
7528 2      12.7406206412      13.0000000000
7529 2      14.5061202218      23.0000000000
7530 2      16.3190720240      19.0000000000
7531 2      12.9266789871      19.0000000000
7532 2      14.9138578482      18.0000000000
7533 2      16.0120025725      21.0000000000
7534 2      12.5420757893      18.0000000000
7535 2      15.4939885697      16.0000000000
7536 2      14.5370511885      18.0000000000
7537 2      17.4055898435      20.0000000000
7538 2      13.0778334617      17.0000000000
7539 2      14.2754956637      17.0000000000
7540 2      12.2102236522      18.0000000000
7541 2      14.3439183817      19.0000000000
7542 2      12.2810318312      15.0000000000
7543 2      18.2014038061      17.0000000000
7544 2      12.5457811397      17.0000000000
7545 2      18.1422938756      22.0000000000
7546 2      14.8676682071      18.0000000000
7547 2      14.9590321074      12.0000000000
7548 2      15.0591210096      20.0000000000
7549 2      14.5746736289      16.0000000000
7550 2      14.3500077788      18.0000000000
7551 2      13.9805961409      17.0000000000
7552 2      14.0235098605      18.0000000000
7553 2      11.7951261513      17.0000000000
7554 2      16.3781338537      20.0000000000
7555 2      14.8337247799      20.0000000000
7556 2      14.3526630148      19.0000000000
7557 2      14.9206910119      19.0000000000
7558 2      14.0880788762      18.0000000000
7559 2      12.9493639951      16.0000000000
7560 2      16.6854913365      19.0000000000
7561 2      13.0861664628      16.0000000000
7562 2      14.6423385393      21.0000000000
7563 2      14.1191269832      16.0000000000
7564 2      13.8565782559      16.0000000000
7565 2      16.5762898694      21.0000000000
7566 2      15.9080554265      17.0000000000
7567 2      14.1996772875      20.0000000000
7568 2      13.5816719592      16.0000000000
7569 2      16.1849888095      19.0000000000
7570 2      14.2421209518      17.0000000000
7571 2      13.7507499962      15.0000000000
7572 2      14.7456957089      20.0000000000
7573 2      17.6023298156      21.0000000000
7574 2      14.4340068924      15.0000000000
7575 2      14.9109368492      18.0000000000
7576 2      14.9911782408      17.0000000000
7577 2      15.0029769933      22.0000000000
7578 2      13.7648132469      19.0000000000
7579 2      12.0366687527      16.0000000000
7580 2      16.0232190945      23.0000000000
7581 2      13.4366503339      16.0000000000
7582 2      16.7909608609      17.0000000000
7583 2      16.2433201262      18.0000000000
7584 2      18.7577946318      20.0000000000
7585 2      14.3698288985      18.0000000000
7586 2      13.1604564800      14.0000000000
7587 2      14.8923352947      22.0000000000
7588 2      16.5527529843      20.0000000000
7589 2      12.9722280083      18.0000000000
7590 2      14.7753334568      21.0000000000
7591 2      15.7774964092      20.0000000000
7592 2      17.4100512005      20.0000000000
7593 2      14.1039971484      17.0000000000
7594 2      13.4975858469      19.0000000000
7595 2      15.3729711364      17.0000000000
7596 2      14.6583124958      19.0000000000
7597 2      15.8283095005      20.0000000000
7598 2      15.1315092429      15.0000000000
7599 2      16.4476500204      18.0000000000
7600 2      16.8656222748      18.0000000000
7601 2      13.7833752604      20.0000000000
7602 2      16.0327524002      19.0000000000
7603 2      14.1154236930      16.0000000000
7604 2      13.1906628141      15.0000000000
7605 2      15.4715096348      17.0000000000
7606 2      13.9357824976      16.0000000000
7607 2      18.5474704620      19.0000000000
7608 2      12.9464237549      16.0000000000
7609 2      15.5772927178      17.0000000000
7610 2      16.0212597774      18.0000000000
7611 2      14.5616458349      20.0000000000
7612 2      11.8300663203      16.0000000000
7613 2      13.5189633653      13.0000000000
7614 2      15.6797200348      16.0000000000
7615 2      17.2615197628      22.0000000000
7616 2      14.4226951912      21.0000000000
7617 2      15.2727384052      18.0000000000
7618 2      11.8998624309      13.0000000000
7619 2      13.6682317704      18.0000000000
7620 2      16.2412923936      20.0000000000
7621 2      18.5062282176      25.0000000000
7622 2      14.5019188140      20.0000000000
7623 2      16.1575949914      16.0000000000
7624 2      13.4320454184      14.0000000000
7625 2      11.6704404492      13.0000000000
7626 2      13.9150787582      16.0000000000
7627 2      13.2922480268      17.0000000000
7628 2      12.2547737983      12.0000000000
7629 2      14.5604215234      19.0000000000
7630 2      14.0867347022      17.0000000000
7631 2      16.4466259441      21.0000000000
7632 2      13.3448092080      18.0000000000
7633 2      15.2489828016      18.0000000000
7634 2      15.0635206500      17.0000000000
7635 2      16.6531673006      17.0000000000
7636 2      14.9653967185      18.0000000000
7637 2      14.5606657647      19.0000000000
7638 2      14.9159717112      19.0000000000
7639 2      17.0090234122      18.0000000000
7640 2      15.4882360769      18.0000000000
7641 2      13.0212580033      17.0000000000
7642 2      13.7478061226      18.0000000000
7643 2      15.5720514128      17.0000000000
7644 2      15.2461615191      18.0000000000
7645 2      15.0702422335      19.0000000000
7646 2      13.3871248762      18.0000000000
7647 2      14.4534331805      14.0000000000
7648 2      15.3933269186      16.0000000000
7649 2      17.5839581608      16.0000000000
7650 2      12.9542435845      16.0000000000
7651 2      11.8547623732      17.0000000000
7652 2      15.1091081257      18.0000000000
7653 2      13.7353036260      19.0000000000
7654 2      14.2350419490      15.0000000000
7655 2      16.1443047381      19.0000000000
7656 2      16.1547163282      16.0000000000
7657 2      16.7555186480      20.0000000000
7658 2      14.0605419507      17.0000000000
7659 2      16.7778508692      22.0000000000
7660 2      15.4296737774      15.0000000000
7661 2      14.6144129122      18.0000000000
7662 2      14.5807465048      17.0000000000
7663 2      18.0891579468      21.0000000000
7664 2      14.5757313035      20.0000000000
7665 2      14.3263624402      17.0000000000
7666 2      16.9515860793      19.0000000000
7667 2      13.3207094344      17.0000000000
7668 2      14.0564249281      16.0000000000
7669 2      13.6890933666      16.0000000000
7670 2      13.0332386002      18.0000000000
7671 2      14.1149371447      14.0000000000
7672 2      14.8039018545      18.0000000000
7673 2      14.2021259072      15.0000000000
7674 2      14.2908040951      17.0000000000
7675 2      14.2673442330      18.0000000000
7676 2      14.9468883157      16.0000000000
7677 2      12.0341478837      14.0000000000
7678 2      14.0922993560      20.0000000000
7679 2      14.8827539337      21.0000000000
7680 2      19.1291256957      21.0000000000
7681 2      14.3405946058      16.0000000000
7682 2      15.9949426875      23.0000000000
7683 2      13.6371279887      19.0000000000
7684 2      13.6014311542      18.0000000000
7685 2      14.1495193403      15.0000000000
7686 2      11.9376897213      13.0000000000
7687 2      15.9938059794      19.0000000000
7688 2      15.6839411799      20.0000000000
7689 2      16.0913993828      21.0000000000
7690 2      12.9951598668      15.0000000000
7691 2      14.2487875770      18.0000000000
7692 2      14.0519464743      17.0000000000
7693 2      15.3408126671      17.0000000000
7694 2      12.5993229442      16.0000000000
7695 2      14.2180022220      19.0000000000
7696 2      12.3452911019      17.0000000000
7697 2      13.6789010740      17.0000000000
7698 2      16.8649376545      23.0000000000
7699 2      15.7554545376      21.0000000000
7700 2      14.3551572884      19.0000000000
7701 2      13.6173157347      18.0000000000
7702 2      15.7252817060      18.0000000000
7703 2      12.2239944821      16.0000000000
7704 2      15.5012966018      18.0000000000
7705 2      13.7698148580      19.0000000000
7706 2      14.9373693554      19.0000000000
7707 2      12.9120701624      15.0000000000
7708 2      15.1220378861      19.0000000000
7709 2      14.0078842541      19.0000000000
7710 2      14.0602837527      17.0000000000
7711 2      14.6458103867      18.0000000000
7712 2      14.4909302638      22.0000000000
7713 2      14.5815387002      18.0000000000
7714 2      13.9606799539      16.0000000000
7715 2      17.1910703815      23.0000000000
7716 2      10.7975583787      15.0000000000
7717 2      16.4265100973      16.0000000000
7718 2      13.1929424081      18.0000000000
7719 2      12.1848766028      15.0000000000
7720 2      14.0261284242      19.0000000000
7721 2      13.1812345980      18.0000000000
7722 2      13.5043344100      19.0000000000
7723 2      12.4908202920      13.0000000000
7724 2      12.9626380345      13.0000000000
7725 2      13.7878123470      21.0000000000
7726 2      14.6178057217      17.0000000000
7727 2      13.3544025365      15.0000000000
7728 2      14.0884323118      16.0000000000
7729 2      13.2558235525      17.0000000000
7730 2      13.8690587230      17.0000000000
7731 2      12.1276022641      14.0000000000
7732 2      15.1053554846      12.0000000000
7733 2      15.4260287539      18.0000000000
7734 2      18.4986900798      23.0000000000
7735 2      17.0315379189      20.0000000000
7736 2      13.8297496289      18.0000000000
7737 2      14.4490561189      16.0000000000
7738 2      12.0523112090      16.0000000000
7739 2      15.5138705333      18.0000000000
7740 2      13.6663230065      20.0000000000
7741 2      16.9705011991      23.0000000000
7742 2      17.2100054811      26.0000000000
7743 2      15.5630806801      19.0000000000
7744 2      14.4648128851      16.0000000000
7745 2      15.6111346153      20.0000000000
7746 2      16.5624752445      16.0000000000
7747 2      12.8841993657      18.0000000000
7748 2      15.6647302867      17.0000000000
7749 2      13.2560001885      19.0000000000
7750 2      14.4028327523      17.0000000000
7751 2      16.4411075516      23.0000000000
7752 2      14.7349215252      18.0000000000
7753 2      14.8034176398      19.0000000000
7754 2      13.2668010032      13.0000000000
7755 2      18.7349692803      22.0000000000
7756 2      13.7186113380      17.0000000000
7757 2      15.1375312715      19.0000000000
7758 2      15.8618644068      19.0000000000
7759 2      14.0827564834      19.0000000000
7760 2      12.3422174616      17.0000000000
7761 2      14.1473046788      15.0000000000
7762 2      14.5038055034      17.0000000000
7763 2      13.5867365483      18.0000000000
7764 2      16.2568409551      21.0000000000
7765 2      13.9418358318      19.0000000000
7766 2      13.8772008962      16.0000000000
7767 2      16.3077362797      21.0000000000
7768 2      18.2713406965      21.0000000000
7769 2      14.4900971092      20.0000000000
7770 2      13.5762900869      18.0000000000
7771 2      15.2942633477      15.0000000000
7772 2      16.4802580575      20.0000000000
7773 2      12.9146602134      17.0000000000
7774 2      11.9773294675      12.0000000000
7775 2      17.4780715972      20.0000000000
7776 2      13.7373811361      17.0000000000
7777 2      14.5217501502      19.0000000000
7778 2      16.5462742995      20.0000000000
7779 2      15.1113232222      20.0000000000
7780 2      13.2998789681      15.0000000000
7781 2      14.2145913085      18.0000000000
7782 2      14.7993020040      20.0000000000
7783 2      13.4912238210      16.0000000000
7784 2      14.0770007262      15.0000000000
7785 2      14.8039206572      21.0000000000
7786 2      14.9749071356      20.0000000000
7787 2      14.2232107720      18.0000000000
7788 2      15.2682130359      18.0000000000
7789 2      16.0662078669      21.0000000000
7790 2      12.7111781184      14.0000000000
7791 2      15.7106885398      21.0000000000
7792 2      15.2522872591      17.0000000000
7793 2      17.4100959282      21.0000000000
7794 2      13.5417422649      17.0000000000
7795 2      16.4005201584      19.0000000000
7796 2      13.4146971321      16.0000000000
7797 2      12.8655360087      17.0000000000
7798 2      13.0818168861      15.0000000000
7799 2      16.0544448242      20.0000000000
7800 2      16.2700670492      19.0000000000
7801 2      16.4309325194      22.0000000000
7802 2      15.5702342004      22.0000000000
7803 2      15.1508299832      20.0000000000
7804 2      15.3499271307      19.0000000000
7805 2      12.5835588396      17.0000000000
7806 2      13.6896690831      18.0000000000
7807 2      16.1214433595      18.0000000000
7808 2      15.4722433869      20.0000000000
7809 2      17.3205605231      20.0000000000
7810 2      14.6374539161      18.0000000000
7811 2      14.1507860428      16.0000000000
7812 2      13.6178382242      17.0000000000
7813 2      14.5882993005      14.0000000000
7814 2      13.9877069234      15.0000000000
7815 2      16.1544441517      22.0000000000
7816 2      16.1643700681      17.0000000000
7817 2      15.2276851668      17.0000000000
7818 2      13.3836617818      19.0000000000
7819 2      14.2470183614      18.0000000000
7820 2      15.5459215816      19.0000000000
7821 2      16.8937233940      20.0000000000
7822 2      12.9995503485      19.0000000000
7823 2      13.1618614901      13.0000000000
7824 2      17.7204703343      22.0000000000
7825 2      16.8383351328      16.0000000000
7826 2      15.1441297098      19.0000000000
7827 2      15.1512932221      17.0000000000
7828 2      14.3072521318      13.0000000000
7829 2      12.7323967892      16.0000000000
7830 2      13.2820239390      19.0000000000
7831 2      14.9747433075      18.0000000000
7832 2      15.2129665062      16.0000000000
7833 2      13.4807076829      21.0000000000
7834 2      13.7948573686      19.0000000000
7835 2      17.9295244962      18.0000000000
7836 2      14.0654697419      14.0000000000
7837 2      14.1736910657      16.0000000000
7838 2      14.6330093398      17.0000000000
7839 2      14.5691842603      22.0000000000
7840 2      13.4901178478      18.0000000000
7841 2      15.8367870625      24.0000000000
7842 2      13.5773373248      16.0000000000
7843 2      18.5666202969      19.0000000000
7844 2      14.1133627903      19.0000000000
7845 2      14.7201300073      17.0000000000
7846 2      16.2429282489      21.0000000000
7847 2      12.5399529467      16.0000000000
7848 2      13.3964730978      16.0000000000
7849 2      11.5727616506      16.0000000000
7850 2      14.7549392506      19.0000000000
7851 2      15.5394095288      17.0000000000
7852 2      17.4268728326      20.0000000000
7853 2      15.2946404511      14.0000000000
7854 2      16.5524186149      20.0000000000
7855 2      14.2352000616      17.0000000000
7856 2      16.4350464098      20.0000000000
7857 2      13.0734377125      17.0000000000
7858 2      10.6051361802      15.0000000000
7859 2      16.0256599337      18.0000000000
7860 2      13.1478967997      15.0000000000
7861 2      13.8281835562      16.0000000000
7862 2      12.6657077951      17.0000000000
7863 2      16.5542256913      17.0000000000
7864 2      13.6512348739      19.0000000000
7865 2      13.7746773571      16.0000000000
7866 2      14.4423388516      17.0000000000
7867 2      14.5494723098      15.0000000000
7868 2      15.3933208914      20.0000000000
7869 2      15.0045953942      18.0000000000
7870 2      17.1551912034      20.0000000000
7871 2      14.4484849891      18.0000000000
7872 2      14.4967419900      15.0000000000
7873 2      16.5466815774      17.0000000000
7874 2      13.3839932122      15.0000000000
7875 2      14.8240711293      18.0000000000
7876 2      14.5195451927      18.0000000000
7877 2      16.4594711691      16.0000000000
7878 2      15.7610486365      15.0000000000
7879 2      16.2816451332      24.0000000000
7880 2      16.8122881086      18.0000000000
7881 2      16.6455935759      22.0000000000
7882 2      15.4630418292      19.0000000000
7883 2      15.4486307628      17.0000000000
7884 2      14.9850483119      18.0000000000
7885 2      14.5043895550      14.0000000000
7886 2      13.3185618327      18.0000000000
7887 2      14.2357024768      16.0000000000
7888 2      11.9472481850      17.0000000000
7889 2      15.1549961086      19.0000000000
7890 2      15.5104214955      21.0000000000
7891 2      12.7033184921      15.0000000000
7892 2      14.2549373673      15.0000000000
7893 2      13.1419679181      13.0000000000
7894 2      16.2575033552      23.0000000000
7895 2      13.9557632491      15.0000000000
7896 2      11.9028664075      16.0000000000
7897 2      15.6712517877      16.0000000000
7898 2      15.6341026658      22.0000000000
7899 2      18.4885953546      19.0000000000
7900 2      11.8326600272      15.0000000000
7901 2      13.1754735494      17.0000000000
7902 2      16.9461532313      16.0000000000
7903 2      14.0007018328      16.0000000000
7904 2      13.4242393579      16.0000000000
7905 2      17.9221109178      20.0000000000
7906 2      13.8664332683      18.0000000000
7907 2      13.4280197154      18.0000000000
7908 2      14.4473171859      18.0000000000
7909 2      11.2665564049      15.0000000000
7910 2      11.4905835959      15.0000000000
7911 2      13.6685411895      17.0000000000
7912 2      13.4714079142      16.0000000000
7913 2      14.6606509578      15.0000000000
7914 2      14.6345212062      20.0000000000
7915 2      14.6574487827      18.0000000000
7916 2      15.1965840323      19.0000000000
7917 2      13.0516326529      13.0000000000
7918 2      15.9687395103      21.0000000000
7919 2      17.5273300656      15.0000000000
7920 2      15.9037548965      20.0000000000
7921 2      15.9073637774      22.0000000000
7922 2      14.5930243129      19.0000000000
7923 2      12.4759459329      13.0000000000
7924 2      12.9314666131      17.0000000000
7925 2      13.7811652626      14.0000000000
7926 2      14.1753941657      17.0000000000
7927 2      14.8154745478      20.0000000000
7928 2      13.0756587034      17.0000000000
7929 2      15.5947491273      21.0000000000
7930 2      15.1033118120      16.0000000000
7931 2      13.3953388616      18.0000000000
7932 2      15.2537061353      18.0000000000
7933 2      14.3056633185      16.0000000000
7934 2      14.1289690077      18.0000000000
7935 2      13.8108047245      15.0000000000
7936 2      14.2658651122      20.0000000000
7937 2      13.8421602737      17.0000000000
7938 2      15.1634306296      20.0000000000
7939 2      14.5989061006      20.0000000000
7940 2      12.6496113015      14.0000000000
7941 2      16.3646278371      20.0000000000
7942 2      16.1139112989      15.0000000000
7943 2      14.1038842021      18.0000000000
7944 2      16.8200346404      20.0000000000
7945 2      14.1087287703      19.0000000000
7946 2      14.1645173061      18.0000000000
7947 2      13.5625800264      18.0000000000
7948 2      12.9474841452      18.0000000000
7949 2      14.7640633083      16.0000000000
7950 2      13.4094459523      18.0000000000
7951 2      13.7342367262      17.0000000000
7952 2      15.1535320995      18.0000000000
7953 2      12.3344311455      13.0000000000
7954 2      14.1521551314      18.0000000000
7955 2      13.5315463825      20.0000000000
7956 2      13.9096065296      15.0000000000
7957 2      14.7816289471      23.0000000000
7958 2      14.3423714489      13.0000000000
7959 2      15.2637086760      17.0000000000
7960 2      14.1378419206      17.0000000000
7961 2      17.3294879761      22.0000000000
7962 2      11.1260476459      15.0000000000
7963 2      14.3223304268      16.0000000000
7964 2      13.5577275951      18.0000000000
7965 2      12.9874340803      16.0000000000
7966 2      14.3913702133      19.0000000000
7967 2      15.7867202056      17.0000000000
7968 2      13.9362401906      16.0000000000
7969 2      14.7840092358      15.0000000000
7970 2      15.1712890667      19.0000000000
7971 2      13.1442822177      18.0000000000
7972 2      13.7000641409      17.0000000000
7973 2      14.3337006823      20.0000000000
7974 2      14.1667541969      19.0000000000
7975 2      14.7841511198      19.0000000000
7976 2      16.3599331048      20.0000000000
7977 2      17.6464732699      23.0000000000
7978 2      12.5911051509      16.0000000000
7979 2      11.3738813889      13.0000000000
7980 2      12.5711127539      16.0000000000
7981 2      15.9716577614      18.0000000000
7982 2      16.3579616138      20.0000000000
7983 2      13.4153647543      17.0000000000
7984 2      12.8386856435      17.0000000000
7985 2      15.2051369315      20.0000000000
7986 2      12.9923067994      17.0000000000
7987 2      12.8310260285      16.0000000000
7988 2      14.6417607292      19.0000000000
7989 2      15.6122372647      15.0000000000
7990 2      17.4825496112      24.0000000000
7991 2      14.1121536009      19.0000000000
7992 2      13.4697398062      17.0000000000
7993 2      12.6705178579      17.0000000000
7994 2      15.2566372035      19.0000000000
7995 2      13.6732309199      15.0000000000
7996 2      12.9166184391      16.0000000000
7997 2      15.0284392567      19.0000000000
7998 2      12.3257364413      14.0000000000
7999 2      13.5392690591      21.0000000000
8000 2      15.4072726939      19.0000000000
8001 2      15.6747964469      21.0000000000
8002 2      15.1406469586      21.0000000000
8003 2      11.8625792307      15.0000000000
8004 2      14.6898259470      16.0000000000
8005 2      16.8311747526      23.0000000000
8006 2      12.7694866664      18.0000000000
8007 2      13.7803873344      16.0000000000
8008 2      14.4626590345      17.0000000000
8009 2      15.0445878990      19.0000000000
8010 2      17.5230399953      19.0000000000
8011 2      15.2510338035      18.0000000000
8012 2      14.9881595591      19.0000000000
8013 2      12.8804433848      17.0000000000
8014 2      12.6835425509      17.0000000000
8015 2      15.9739681012      17.0000000000
8016 2      15.5210216409      18.0000000000
8017 2      13.6673181636      17.0000000000
8018 2      13.8652130944      17.0000000000
8019 2      14.8691747680      17.0000000000
8020 2      13.9561712602      18.0000000000
8021 2      14.4654072537      19.0000000000
8022 2      19.1719682452      23.0000000000
8023 2      14.6556250498      16.0000000000
8024 2      13.7736816057      16.0000000000
8025 2      17.1817639120      21.0000000000
8026 2      15.5725374319      16.0000000000
8027 2      15.5182681125      18.0000000000
8028 2      13.4073508396      17.0000000000
8029 2      16.5238020415      20.0000000000
8030 2      15.5918432999      15.0000000000
8031 2      14.1002481718      20.0000000000
8032 2      15.0464256824      17.0000000000
8033 2      13.1355198546      17.0000000000
8034 2      14.1222614374      17.0000000000
8035 2      11.8431710607      13.0000000000
8036 2      15.4426534704      20.0000000000
8037 2      13.8577395768      17.0000000000
8038 2      16.0103054756      18.0000000000
8039 2      13.8521499682      14.0000000000
8040 2      12.5721408270      16.0000000000
8041 2      13.4109807907      17.0000000000
8042 2      14.0337871281      18.0000000000
8043 2      15.5103648119      17.0000000000
8044 2      15.2642766669      19.0000000000
8045 2      15.6236384035      19.0000000000
8046 2      17.9266192315      18.0000000000
8047 2      14.7948931441      16.0000000000
8048 2      12.8789102298      16.0000000000
8049 2      13.7821544536      17.0000000000
8050 2      14.1372709103      19.0000000000
8051 2      14.3805823358      16.0000000000
8052 2      11.7859700918      15.0000000000
8053 2      13.1799489726      17.0000000000
8054 2      16.3045793484      18.0000000000
8055 2      16.8387554702      21.0000000000
8056 2      12.1723671397      13.0000000000
8057 2      12.4623935567      16.0000000000
8058 2      19.4484550360      21.0000000000
8059 2      12.3678099740      16.0000000000
8060 2      14.7921468262      20.0000000000
8061 2      15.2328859274      20.0000000000
8062 2      15.4595474976      16.0000000000
8063 2      16.4737042162      23.0000000000
8064 2      13.1060400892      16.0000000000
8065 2      13.7564032814      17.0000000000
8066 2      14.1591594951      19.0000000000
8067 2      13.9503990025      19.0000000000
8068 2      13.1093122263      15.0000000000
8069 2      18.7205332735      21.0000000000
8070 2      14.8980951194      19.0000000000
8071 2      12.4658426232      17.0000000000
8072 2      14.8568765589      17.0000000000
8073 2      16.1092736133      20.0000000000
8074 2      15.7933178510      14.0000000000
8075 2      16.1115000849      21.0000000000
8076 2      14.8804187374      21.0000000000
8077 2      14.7919909887      19.0000000000
8078 2      14.2881627642      16.0000000000
8079 2      14.0514752599      16.0000000000
8080 2      12.5201857198      17.0000000000
8081 2      15.8862837798      17.0000000000
8082 2      17.2364235949      18.0000000000
8083 2      13.7616668417      16.0000000000
8084 2      15.1931193407      17.0000000000
8085 2      16.1806179331      20.0000000000
8086 2      15.2281434331      20.0000000000
8087 2      17.0416015642      17.0000000000
8088 2      15.4320321526      17.0000000000
8089 2      14.6873760773      18.0000000000
8090 2      13.9138629222      16.0000000000
8091 2      12.2212276490      14.0000000000
8092 2      15.4434939022      18.0000000000
8093 2      12.2894735295      15.0000000000
8094 2      13.8020423109      17.0000000000
8095 2      11.9708754193      13.0000000000
8096 2      12.9819130374      15.0000000000
8097 2      15.2599825581      21.0000000000
8098 2      13.5808008110      17.0000000000
8099 2      14.8483631270      18.0000000000
8100 2      12.8042656875      17.0000000000
8101 2      13.4745905045      19.0000000000
8102 2      14.3387759132      17.0000000000
8103 2      13.9318909330      16.0000000000
8104 2      16.9470918592      22.0000000000
8105 2      13.3403921214      18.0000000000
8106 2      15.4743302309      20.0000000000
8107 2      15.1273453692      18.0000000000
8108 2      15.8699811368      20.0000000000
8109 2      15.0772744242      19.0000000000
8110 2      15.1760834080      20.0000000000
8111 2      14.9692351656      20.0000000000
8112 2      11.9000094365      15.0000000000
8113 2      13.5315200636      18.0000000000
8114 2      14.7167115740      21.0000000000
8115 2      15.4078770803      22.0000000000
8116 2      14.2000744305      19.0000000000
8117 2      15.8790389099      18.0000000000
8118 2      13.7374176562      17.0000000000
8119 2      13.8225897655      19.0000000000
8120 2      12.8721187697      18.0000000000
8121 2      16.8352385685      20.0000000000
8122 2      14.8703863289      18.0000000000
8123 2      16.5491985351      17.0000000000
8124 2      13.2573140438      17.0000000000
8125 2      13.0136991116      16.0000000000
8126 2      17.0227504653      19.0000000000
8127 2      13.8694499531      18.0000000000
8128 2      12.9156081502      16.0000000000
8129 2      13.9638465948      16.0000000000
8130 2      17.1131261040      17.0000000000
8131 2      14.4658978907      17.0000000000
8132 2      13.1760173576      14.0000000000
8133 2      16.7077354649      18.0000000000
8134 2      15.2328128854      18.0000000000
8135 2      13.3328630560      17.0000000000
8136 2      13.8997553655      20.0000000000
8137 2      13.7839252452      17.0000000000
8138 2      14.6053668587      20.0000000000
8139 2      15.6348068633      23.0000000000
8140 2      13.0217413067      18.0000000000
8141 2      15.5726272863      19.0000000000
8142 2      13.7436947133      19.0000000000
8143 2      14.0719841023      19.0000000000
8144 2      19.3574705968      19.0000000000
8145 2      14.2024271609      16.0000000000
8146 2      15.9484446027      21.0000000000
8147 2      12.5998967300      16.0000000000
8148 2      18.2341173574      17.0000000000
8149 2      13.9347132942      15.0000000000
8150 2      14.2061644029      20.0000000000
8151 2      14.0424853377      20.0000000000
8152 2      13.9164150494      18.0000000000
8153 2      16.2116440121      18.0000000000
8154 2      12.6771838488      16.0000000000
8155 2      12.6578919478      17.0000000000
8156 2      16.7931384207      19.0000000000
8157 2      17.3773101141      19.0000000000
8158 2      12.4992020264      16.0000000000
8159 2      15.6706420785      19.0000000000
8160 2      15.1359633715      20.0000000000
8161 2      15.7861741601      18.0000000000
8162 2      13.0311048733      18.0000000000
8163 2      14.4039019839      17.0000000000
8164 2      16.3701897824      19.0000000000
8165 2      10.9347007862      14.0000000000
8166 2      12.2064465418      14.0000000000
8167 2      11.8590192537      15.0000000000
8168 2      15.8371143129      19.0000000000
8169 2      14.0119731909      18.0000000000
8170 2      16.5868967362      19.0000000000
8171 2      16.1110607326      20.0000000000
8172 2      17.1708215156      23.0000000000
8173 2      13.0256959087      16.0000000000
8174 2      12.4976757442      16.0000000000
8175 2      14.9609863927      18.0000000000
8176 2      12.8596956460      15.0000000000
8177 2      15.0816488742      18.0000000000
8178 2      14.3254279982      19.0000000000
8179 2      14.2316701427      20.0000000000
8180 2      14.1177853272      18.0000000000
8181 2      14.7739088807      17.0000000000
8182 2      15.5019029551      20.0000000000
8183 2      13.1082415929      16.0000000000
8184 2      15.6512906797      21.0000000000
8185 2      15.4264892628      19.0000000000
8186 2      11.5431941070      14.0000000000
8187 2      16.2856012287      16.0000000000
8188 2      13.4118521010      19.0000000000
8189 2      16.1948392664      16.0000000000
8190 2      13.5511761878      15.0000000000
8191 2      13.6351824747      14.0000000000
8192 2      12.9638040866      16.0000000000
8193 2      15.2992488553      21.0000000000
8194 2      14.2341053183      15.0000000000
8195 2      13.5564391907      18.0000000000
8196 2      14.6256061598      17.0000000000
8197 2      15.0862787405      20.0000000000
8198 2      13.4847623871      17.0000000000
8199 2      14.1793535838      16.0000000000
8200 2      15.5879700908      18.0000000000
8201 2      14.7651889044      17.0000000000
8202 2      16.1867650415      22.0000000000
8203 2      15.6599475156      18.0000000000
8204 2      14.3916956458      20.0000000000
8205 2      14.2132593458      19.0000000000
8206 2      16.1288040147      20.0000000000
8207 2      14.9194423285      17.0000000000
8208 2      14.4309988788      17.0000000000
8209 2      15.4766960047      17.0000000000
8210 2      13.2110225421      17.0000000000
8211 2      14.4260680095      19.0000000000
8212 2      14.6773096832      16.0000000000
8213 2      15.7846711515      19.0000000000
8214 2      18.4439665609      19.0000000000
8215 2      12.9196957489      14.0000000000
8216 2      15.4337392277      18.0000000000
8217 2      14.5627361536      16.0000000000
8218 2      14.3032028282      16.0000000000
8219 2      14.9179115465      17.0000000000
8220 2      14.6122881927      20.0000000000
8221 2      12.9962088608      16.0000000000
8222 2      13.0011735493      20.0000000000
8223 2      15.1803401051      17.0000000000
8224 2      13.6742887917      17.0000000000
8225 2      13.7796912714      16.0000000000
8226 2      15.2938629311      21.0000000000
8227 2      15.2343834778      20.0000000000
8228 2      14.2623605198      18.0000000000
8229 2      12.5735365073      18.0000000000
8230 2      13.4785593009      16.0000000000
8231 2      14.8153667052      15.0000000000
8232 2      14.1285771523      19.0000000000
8233 2      15.1921927881      20.0000000000
8234 2      13.5685406877      16.0000000000
8235 2      13.9986461983      19.0000000000
8236 2      14.2653362933      19.0000000000
8237 2      18.5612882591      22.0000000000
8238 2      13.3289189624      17.0000000000
8239 2      14.4867644744      16.0000000000
8240 2      13.5595727087      19.0000000000
8241 2      14.4993408574      17.0000000000
8242 2      13.1365173181      15.0000000000
8243 2      13.2138554518      18.0000000000
8244 2      14.0689690211      17.0000000000
8245 2      15.0582687657      19.0000000000
8246 2      12.8261948210      19.0000000000
8247 2      13.4355735431      14.0000000000
8248 2      14.1805387224      19.0000000000
8249 2      15.9562021803      25.0000000000
8250 2      13.6680691420      14.0000000000
8251 2      14.9237007749      20.0000000000
8252 2      15.2009857166      18.0000000000
8253 2      16.2946524538      20.0000000000
8254 2      14.1308912321      15.0000000000
8255 2      15.4791163400      19.0000000000
8256 2      15.1672705891      19.0000000000
8257 2      13.3803037002      15.0000000000
8258 2      15.3852220420      21.0000000000
8259 2      14.6603828974      16.0000000000
8260 2      12.6161169717      16.0000000000
8261 2      15.4573249838      17.0000000000
8262 2      13.5556275268      17.0000000000
8263 2      15.5346810054      20.0000000000
8264 2      15.1784606247      19.0000000000
8265 2      12.3838355469      17.0000000000
8266 2      15.7900881472      20.0000000000
8267 2      13.8689087466      19.0000000000
8268 2      12.3060264654      14.0000000000
8269 2      15.9160468449      18.0000000000
8270 2      15.6337437591      19.0000000000
8271 2      12.9853374511      17.0000000000
8272 2      16.8722763867      21.0000000000
8273 2      14.4485005307      20.0000000000
8274 2      17.1822422535      23.0000000000
8275 2      17.1768653715      19.0000000000
8276 2      12.1192421400      15.0000000000
8277 2      16.2116836981      20.0000000000
8278 2      14.7032208771      19.0000000000
8279 2      15.7886413989      21.0000000000
8280 2      14.5794637503      20.0000000000
8281 2      14.2800538726      17.0000000000
8282 2      16.0503993027      17.0000000000
8283 2      13.7315542338      15.0000000000
8284 2      12.7846994723      15.0000000000
8285 2      15.1610784498      19.0000000000
8286 2      14.5873450452      15.0000000000
8287 2      13.2238380670      18.0000000000
8288 2      17.6729507361      20.0000000000
8289 2      14.2231042906      17.0000000000
8290 2      15.2549579997      17.0000000000
8291 2      14.7264022230      16.0000000000
8292 2      12.2787631509      12.0000000000
8293 2      14.0966060338      16.0000000000
8294 2      14.6999434408      18.0000000000
8295 2      16.3659058901      22.0000000000
8296 2      12.7204045812      16.0000000000
8297 2      14.3909646360      19.0000000000
8298 2      13.9178265705      18.0000000000
8299 2      15.4025771632      16.0000000000
8300 2      10.9994175556      14.0000000000
8301 2      13.9985921364      15.0000000000
8302 2      16.0451610559      21.0000000000
8303 2      14.0120657757      19.0000000000
8304 2      15.2585744118      19.0000000000
8305 2      14.8387770538      21.0000000000
8306 2      13.2583554317      17.0000000000
8307 2      14.6228489459      17.0000000000
8308 2      13.7364137020      19.0000000000
8309 2      16.5403041995      21.0000000000
8310 2      13.8499649134      17.0000000000
8311 2      14.6485997584      19.0000000000
8312 2      13.1903795115      14.0000000000
8313 2      13.3789267182      19.0000000000
8314 2      13.6046039736      19.0000000000
8315 2      14.6075150028      20.0000000000
8316 2      12.8557190301      15.0000000000
8317 2      20.2159826946      24.0000000000
8318 2      14.3913599202      20.0000000000
8319 2      16.0116931375      18.0000000000
8320 2      13.0078628962      17.0000000000
8321 2      14.0779474744      19.0000000000
8322 2      14.1558148843      20.0000000000
8323 2      13.6871932205      15.0000000000
8324 2      17.1696090037      20.0000000000
8325 2      14.7255811735      16.0000000000
8326 2      14.7515011706      20.0000000000
8327 2      18.5234437558      17.0000000000
8328 2      13.1251472671      17.0000000000
8329 2      14.9849129820      22.0000000000
8330 2      13.8560137426      16.0000000000
8331 2      13.3240079840      20.0000000000
8332 2      12.1881523328      15.0000000000
8333 2      15.6374828481      18.0000000000
8334 2      11.4407314174      15.0000000000
8335 2      15.8986040433      18.0000000000
8336 2      14.1811737012      18.0000000000
8337 2      15.5517888759      17.0000000000
8338 2      13.3310470324      17.0000000000
8339 2      14.2834995487      14.0000000000
8340 2      14.7291967487      18.0000000000
8341 2      16.5362697246      22.0000000000
8342 2      15.1706399851      19.0000000000
8343 2      13.8637593335      17.0000000000
8344 2      15.0333363325      20.0000000000
8345 2      15.9005613809      19.0000000000
8346 2      14.9842362151      15.0000000000
8347 2      15.2494201365      19.0000000000
8348 2      15.3874963491      17.0000000000
8349 2      12.3538570276      14.0000000000
8350 2      14.9466788962      18.0000000000
8351 2      13.0545250482      17.0000000000
8352 2      14.5255697258      16.0000000000
8353 2      13.2777052828      17.0000000000
8354 2      14.4494354260      16.0000000000
8355 2      15.5558826908      18.0000000000
8356 2      15.2582391932      18.0000000000
8357 2      13.9367675724      18.0000000000
8358 2      17.2465994099      18.0000000000
8359 2      15.9952474333      17.0000000000
8360 2      14.2773139304      16.0000000000
8361 2      15.3793780371      20.0000000000
8362 2      11.8951597837      14.0000000000
8363 2      15.5123446061      15.0000000000
8364 2      16.1148680268      23.0000000000
8365 2      15.2792824868      20.0000000000
8366 2      11.5632820135      15.0000000000
8367 2      13.3529024231      18.0000000000
8368 2      13.0545077985      15.0000000000
8369 2      16.4410445316      21.0000000000
8370 2      12.4037809920      17.0000000000
8371 2      14.9945376164      16.0000000000
8372 2      14.2845198359      20.0000000000
8373 2      14.2107490509      18.0000000000
8374 2      14.1560852560      18.0000000000
8375 2      16.1632023737      19.0000000000
8376 2      15.5614308385      16.0000000000
8377 2      14.6203706913      22.0000000000
8378 2      14.0880774385      16.0000000000
8379 2      13.1842183463      19.0000000000
8380 2      15.9261697244      21.0000000000
8381 2      16.7265578018      17.0000000000
8382 2      14.4893819750      19.0000000000
8383 2      12.4001869568      16.0000000000
8384 2      13.4879378622      18.0000000000
8385 2      12.9028637937      16.0000000000
8386 2      15.4589766178      17.0000000000
8387 2      15.4413220500      17.0000000000
8388 2      15.9884643168      18.0000000000
8389 2      13.4538651194      18.0000000000
8390 2      15.3395822755      17.0000000000
8391 2      13.8701985957      18.0000000000
8392 2      16.0408369803      19.0000000000
8393 2      15.9066418572      22.0000000000
8394 2      13.1373963233      16.0000000000
8395 2      15.3260845138      17.0000000000
8396 2      16.8796841217      22.0000000000
8397 2      14.7889047428      18.0000000000
8398 2      13.5003441663      18.0000000000
8399 2      15.6014920963      18.0000000000
8400 2      14.8875175553      18.0000000000
8401 2      17.0943938418      19.0000000000
8402 2      14.1567674852      16.0000000000
8403 2      15.1965792666      22.0000000000
8404 2      15.6963334153      18.0000000000
8405 2      15.0598296266      17.0000000000
8406 2      17.3758944650      21.0000000000
8407 2      14.8534838729      18.0000000000
8408 2      12.6849977790      16.0000000000
8409 2      16.2454797107      19.0000000000
8410 2      16.6240417753      23.0000000000
8411 2      14.8134323740      19.0000000000
8412 2      13.3038465089      15.0000000000
8413 2      16.7658699199      23.0000000000
8414 2      13.8804130887      19.0000000000
8415 2      11.7395991246      14.0000000000
8416 2      15.0083180517      20.0000000000
8417 2      15.2934368738      22.0000000000
8418 2      14.4162824848      18.0000000000
8419 2      14.8749211262      19.0000000000
8420 2      12.8037013606      16.0000000000
8421 2      12.8759611665      16.0000000000
8422 2      15.2512008106      19.0000000000
8423 2      13.8656396964      14.0000000000
8424 2      16.7630352111      20.0000000000
8425 2      13.6075951942      16.0000000000
8426 2      13.5921938000      18.0000000000
8427 2      14.7297211170      22.0000000000
8428 2      13.0111219250      18.0000000000
8429 2      15.5736661277      17.0000000000
8430 2      13.2307467095      16.0000000000
8431 2      15.9936876067      17.0000000000
8432 2      17.8236316360      19.0000000000
8433 2      14.6743518908      19.0000000000
8434 2      14.8355201634      19.0000000000
8435 2      13.7599966206      15.0000000000
8436 2      15.8318828129      18.0000000000
8437 2      14.1487985372      22.0000000000
8438 2      12.0273614718      17.0000000000
8439 2      14.8827875104      17.0000000000
8440 2      14.6455664412      18.0000000000
8441 2      13.8883698543      15.0000000000
8442 2      13.9696180148      12.0000000000
8443 2      18.1268439027      17.0000000000
8444 2      15.3656822760      18.0000000000
8445 2      12.8903222952      15.0000000000
8446 2      15.9794427582      16.0000000000
8447 2      14.9183730307      16.0000000000
8448 2      14.5949091039      20.0000000000
8449 2      13.6403615513      14.0000000000
8450 2      12.8094171222      15.0000000000
8451 2      15.4366659255      18.0000000000
8452 2      14.6099861290      16.0000000000
8453 2      15.1030414108      20.0000000000
8454 2      12.3672248814      17.0000000000
8455 2      17.3126156190      21.0000000000
8456 2      14.1103908248      20.0000000000
8457 2      17.3665489958      18.0000000000
8458 2      14.9854809408      17.0000000000
8459 2      13.0217587741      17.0000000000
8460 2      20.1074026323      20.0000000000
8461 2      15.0826280780      17.0000000000
8462 2      13.7085470692      17.0000000000
8463 2      12.1701268857      15.0000000000
8464 2      17.2590709000      22.0000000000
8465 2      14.7402389467      15.0000000000
8466 2      17.7374992557      22.0000000000
8467 2      17.7242957953      24.0000000000
8468 2      14.0101408540      17.0000000000
8469 2      13.8497332402      17.0000000000
8470 2      14.0186478013      17.0000000000
8471 2      12.2356409168      15.0000000000
8472 2      13.8437159788      17.0000000000
8473 2      15.6900374378      17.0000000000
8474 2      17.1300451593      18.0000000000
8475 2      14.4483314839      16.0000000000
8476 2      17.6175682432      20.0000000000
8477 2      15.1276075579      17.0000000000
8478 2      15.1904628332      19.0000000000
8479 2      14.3475204502      14.0000000000
8480 2      14.4393684077      19.0000000000
8481 2      18.0887066734      21.0000000000
8482 2      15.1929109401      19.0000000000
8483 2      13.7146893939      15.0000000000
8484 2      11.6840614466      13.0000000000
8485 2      12.9443517519      17.0000000000
8486 2      13.0050609850      15.0000000000
8487 2      14.7262590998      18.0000000000
8488 2      15.4176077923      17.0000000000
8489 2      13.9252648016      21.0000000000
8490 2      17.0553850975      19.0000000000
8491 2      13.7880308451      18.0000000000
8492 2      13.3642463068      16.0000000000
8493 2      17.3257394152      21.0000000000
8494 2      15.9087492947      21.0000000000
8495 2      16.0609228811      19.0000000000
8496 2      11.1307326719      13.0000000000
8497 2      14.7289362136      16.0000000000
8498 2      13.7123739995      13.0000000000
8499 2      14.1867046998      16.0000000000
8500 2      12.9836802072      20.0000000000
8501 2      14.5660186554      17.0000000000
8502 2      14.3490588824      18.0000000000
8503 2      12.8089998961      17.0000000000
8504 2      13.9102359797      19.0000000000
8505 2      14.4465874129      20.0000000000
8506 2      17.2813825324      19.0000000000
8507 2      12.8450294406      15.0000000000
8508 2      13.2194055144      22.0000000000
8509 2      14.4976344485      18.0000000000
8510 2      15.0492082662      22.0000000000
8511 2      13.3087445830      16.0000000000
8512 2      12.7539027869      15.0000000000
8513 2      12.5911434296      17.0000000000
8514 2      13.8295984739      16.0000000000
8515 2      17.8629217359      23.0000000000
8516 2      12.5742440853      17.0000000000
8517 2      14.5254694011      20.0000000000
8518 2      15.8553564682      16.0000000000
8519 2      15.4411534314      15.0000000000
8520 2      17.9015198069      18.0000000000
8521 2      17.0307723338      20.0000000000
8522 2      14.9340963926      17.0000000000
8523 2      13.6851904509      15.0000000000
8524 2      14.2726514524      17.0000000000
8525 2      15.3588627024      16.0000000000
8526 2      15.9176290938      22.0000000000
8527 2      14.9457574016      20.0000000000
8528 2      17.5107743137      18.0000000000
8529 2      14.0372424141      16.0000000000
8530 2      13.2694758466      19.0000000000
8531 2      13.0817500225      17.0000000000
8532 2      14.8364763295      19.0000000000
8533 2      16.2406146816      20.0000000000
8534 2      12.8829771924      15.0000000000
8535 2      14.0950120126      17.0000000000
8536 2      13.5070280789      18.0000000000
8537 2      15.4483675387      16.0000000000
8538 2      13.9113655778      19.0000000000
8539 2      15.1129398562      20.0000000000
8540 2      15.9371089511      18.0000000000
8541 2      14.8763047616      20.0000000000
8542 2      14.2701008659      20.0000000000
8543 2      14.0079996019      19.0000000000
8544 2      15.9143951753      17.0000000000
8545 2      17.4365819271      22.0000000000
8546 2      14.2644594087      20.0000000000
8547 2      17.6906581183      21.0000000000
8548 2      12.7916733576      19.0000000000
8549 2      12.9982105581      14.0000000000
8550 2      14.0182457423      18.0000000000
8551 2      14.6769885165      16.0000000000
8552 2      15.2685809559      17.0000000000
8553 2      17.5946993948      22.0000000000
8554 2      14.7238821215      20.0000000000
8555 2      16.1095025343      18.0000000000
8556 2      15.1024752373      21.0000000000
8557 2      14.4611545888      22.0000000000
8558 2      13.1392651891      16.0000000000
8559 2      13.0564926640      16.0000000000
8560 2      14.2768919843      19.0000000000
8561 2      15.3784883679      19.0000000000
8562 2      13.1049626547      16.0000000000
8563 2      13.9556011398      17.0000000000
8564 2      12.7954034444      18.0000000000
8565 2      12.9245174475      18.0000000000
8566 2      13.4720121775      14.0000000000
8567 2      19.4255268173      20.0000000000
8568 2      17.0126513890      22.0000000000
8569 2      13.3894362671      18.0000000000
8570 2      13.7694907360      19.0000000000
8571 2      15.2962578490      18.0000000000
8572 2      14.7626638133      17.0000000000
8573 2      13.8742826449      17.0000000000
8574 2      15.7655349781      19.0000000000
8575 2      13.4204739145      17.0000000000
8576 2      14.3663423407      16.0000000000
8577 2      13.5480471391      14.0000000000
8578 2      15.0367475102      20.0000000000
8579 2      15.7132493987      20.0000000000
8580 2      15.1020969495      19.0000000000
8581 2      13.0717169658      16.0000000000
8582 2      15.9706222156      20.0000000000
8583 2      15.5806825410      18.0000000000
8584 2      13.6787331390      18.0000000000
8585 2      14.8720930382      18.0000000000
8586 2      16.4160237966      19.0000000000
8587 2      10.9997440243      14.0000000000
8588 2      14.9451881419      17.0000000000
8589 2      16.7596055630      20.0000000000
8590 2      17.6218038287      19.0000000000
8591 2      16.2514924603      19.0000000000
8592 2      13.8039566166      19.0000000000
8593 2      14.1001523306      19.0000000000
8594 2      12.5106778956      15.0000000000
8595 2      14.3314580842      20.0000000000
8596 2      14.0639627679      15.0000000000
8597 2      13.2011982304      14.0000000000
8598 2      15.4701128175      19.0000000000
8599 2      14.3508313992      14.0000000000
8600 2      14.5906012200      17.0000000000
8601 2      16.3052606284      23.0000000000
8602 2      14.1022217658      18.0000000000
8603 2      17.2741348276      21.0000000000
8604 2      14.1721460561      19.0000000000
8605 2      16.3679001996      23.0000000000
8606 2      17.9425777178      18.0000000000
8607 2      12.2009748281      14.0000000000
8608 2      12.7230321624      16.0000000000
8609 2      15.2892480300      17.0000000000
8610 2      16.5270349752      21.0000000000
8611 2      13.4375409353      17.0000000000
8612 2      14.8750482008      17.0000000000
8613 2      13.3654340875      15.0000000000
8614 2      18.1765399966      16.0000000000
8615 2      15.4410783684      17.0000000000
8616 2      14.3263088389      19.0000000000
8617 2      16.5278966658      21.0000000000
8618 2      17.2620115168      20.0000000000
8619 2      16.2850701062      19.0000000000
8620 2      11.3279581268      14.0000000000
8621 2      16.0668918348      19.0000000000
8622 2      15.4714760330      17.0000000000
8623 2      13.8174842410      17.0000000000
8624 2      13.8224205334      19.0000000000
8625 2      14.3220346456      16.0000000000
8626 2      16.2244748006      17.0000000000
8627 2      15.6794541820      19.0000000000
8628 2      14.7271269699      19.0000000000
8629 2      13.3506359507      17.0000000000
8630 2      11.9226656510      17.0000000000
8631 2      16.5803806661      18.0000000000
8632 2      14.3457298699      19.0000000000
8633 2      14.7413205926      21.0000000000
8634 2      17.1294717723      21.0000000000
8635 2      15.3492751812      18.0000000000
8636 2      16.2165700206      17.0000000000
8637 2      16.4877343591      17.0000000000
8638 2      14.1313860257      17.0000000000
8639 2      15.4419342365      17.0000000000
8640 2      13.7330694433      16.0000000000
8641 2      13.8655405086      15.0000000000
8642 2      13.1054173132      15.0000000000
8643 2      15.0006616442      17.0000000000
8644 2      16.1874055738      18.0000000000
8645 2      13.9096262713      15.0000000000
8646 2      15.6631084265      19.0000000000
8647 2      16.2758111733      19.0000000000
8648 2      14.8350988491      20.0000000000
8649 2      12.7903581601      16.0000000000
8650 2      14.3754043662      17.0000000000
8651 2      15.8637338059      19.0000000000
8652 2      13.6739763488      19.0000000000
8653 2      17.1758351120      20.0000000000
8654 2      14.5479878830      20.0000000000
8655 2      14.1220839741      17.0000000000
8656 2      15.6045150982      20.0000000000
8657 2      13.3585641586      15.0000000000
8658 2      14.4588784457      14.0000000000
8659 2      14.0463129708      16.0000000000
8660 2      17.5462430170      20.0000000000
8661 2      15.3950309665      18.0000000000
8662 2      15.9175690081      20.0000000000
8663 2      14.3511644481      16.0000000000
8664 2      17.1370582237      22.0000000000
8665 2      14.1933965644      22.0000000000
8666 2      12.6181687988      16.0000000000
8667 2      15.2791395734      17.0000000000
8668 2      14.8564206451      17.0000000000
8669 2      13.9404093341      20.0000000000
8670 2      13.9075870799      17.0000000000
8671 2      11.1561419696      13.0000000000
8672 2      14.4321481409      19.0000000000
8673 2      14.3528202285      19.0000000000
8674 2      13.7408865987      18.0000000000
8675 2      13.4949664982      14.0000000000
8676 2      11.8244687090      14.0000000000
8677 2      15.5787129129      19.0000000000
8678 2      13.4949111164      18.0000000000
8679 2      12.8549933753      16.0000000000
8680 2      14.8346228733      16.0000000000
8681 2      14.8147689051      16.0000000000
8682 2      13.3034532878      16.0000000000
8683 2      15.7072456906      22.0000000000
8684 2      12.8046560426      18.0000000000
8685 2      14.4952170929      18.0000000000
8686 2      17.2449251710      19.0000000000
8687 2      11.3045266097      12.0000000000
8688 2      16.3721739350      19.0000000000
8689 2      14.8015138107      17.0000000000
8690 2      15.1271955495      21.0000000000
8691 2      14.0830342715      17.0000000000
8692 2      15.0114856332      19.0000000000
8693 2      15.7357490409      19.0000000000
8694 2      16.7283017559      16.0000000000
8695 2      12.3488170592      15.0000000000
8696 2      14.4007606600      16.0000000000
8697 2      13.8628940813      21.0000000000
8698 2      15.2828887564      18.0000000000
8699 2      16.2868231486      16.0000000000
8700 2      14.5287087381      18.0000000000
8701 2      13.0605942215      16.0000000000
8702 2      15.2132643094      18.0000000000
8703 2      14.3275306991      14.0000000000
8704 2      13.9031672145      17.0000000000
8705 2      16.9130556709      22.0000000000
8706 2      14.2777032591      16.0000000000
8707 2      16.0003169939      20.0000000000
8708 2      14.9788628485      20.0000000000
8709 2      11.2753355214      17.0000000000
8710 2      14.2127979383      17.0000000000
8711 2      15.1256305009      19.0000000000
8712 2      11.9723066596      13.0000000000
8713 2      14.8180146132      21.0000000000
8714 2      13.0846699197      17.0000000000
8715 2      12.8446106575      14.0000000000
8716 2      12.4176316922      17.0000000000
8717 2      12.6681457842      17.0000000000
8718 2      16.6193207114      18.0000000000
8719 2      14.5840154925      16.0000000000
8720 2      17.2604500976      21.0000000000
8721 2      11.9813621633      15.0000000000
8722 2      16.4968235182      21.0000000000
8723 2      15.8208142291      21.0000000000
8724 2      14.7818317590      18.0000000000
8725 2      16.5116684659      18.0000000000
8726 2      15.1727363736      17.0000000000
8727 2      13.1598263096      17.0000000000
8728 2      15.6186905156      22.0000000000
8729 2      14.3681772301      17.0000000000
8730 2      15.9968687719      17.0000000000
8731 2      13.5039834004      15.0000000000
8732 2      15.2024969672      17.0000000000
8733 2      13.6821546788      16.0000000000
8734 2      12.4859047751      18.0000000000
8735 2      15.6803977276      17.0000000000
8736 2      14.8066185089      17.0000000000
8737 2      14.8493470406      17.0000000000
8738 2      13.5251155148      20.0000000000
8739 2      14.9289653190      18.0000000000
8740 2      13.4798899836      17.0000000000
8741 2      17.8729801849      19.0000000000
8742 2      15.4094979894      17.0000000000
8743 2      13.8074971242      17.0000000000
8744 2      13.1191989923      16.0000000000
8745 2      14.8627840384      20.0000000000
8746 2      15.1773540173      18.0000000000
8747 2      15.5633201958      16.0000000000
8748 2      16.8727344631      16.0000000000
8749 2      14.4240706306      19.0000000000
8750 2      15.1975862727      21.0000000000
8751 2      15.2722162509      18.0000000000
8752 2      12.7169457969      13.0000000000
8753 2      12.8164231181      16.0000000000
8754 2      15.5889091732      17.0000000000
8755 2      15.2388748685      20.0000000000
8756 2      15.1104294695      17.0000000000
8757 2      15.1621474620      20.0000000000
8758 2      14.9892292040      19.0000000000
8759 2      17.0298303817      21.0000000000
8760 2      12.2479552550      15.0000000000
8761 2      12.4548363482      18.0000000000
8762 2      12.8631103256      18.0000000000
8763 2      12.1610355713      19.0000000000
8764 2      13.3254250455      16.0000000000
8765 2      17.9370917793      18.0000000000
8766 2      16.9044485158      21.0000000000
8767 2      17.0139938817      19.0000000000
8768 2      14.4616222678      19.0000000000
8769 2      13.3315930873      15.0000000000
8770 2      13.5721491528      17.0000000000
8771 2      14.2217486680      17.0000000000
8772 2      17.0004868707      18.0000000000
8773 2      14.8032925291      16.0000000000
8774 2      14.8323672914      16.0000000000
8775 2      13.5283602727      14.0000000000
8776 2      12.7352986235      17.0000000000
8777 2      15.2087821179      16.0000000000
8778 2      12.7405791946      15.0000000000
8779 2      16.2269382839      18.0000000000
8780 2      16.8345562055      17.0000000000
8781 2      15.5981201662      19.0000000000
8782 2      13.4986753108      16.0000000000
8783 2      14.4959309778      16.0000000000
8784 2      12.9731941899      15.0000000000
8785 2      13.5372319337      15.0000000000
8786 2      15.3277283014      18.0000000000
8787 2      13.8610256357      20.0000000000
8788 2      16.9896655659      23.0000000000
8789 2      15.6429418305      16.0000000000
8790 2      12.3193174732      14.0000000000
8791 2      12.9355663110      13.0000000000
8792 2      16.2962673243      18.0000000000
8793 2      18.2925825881      19.0000000000
8794 2      16.5013968570      18.0000000000
8795 2      17.0361697973      22.0000000000
8796 2      13.8769684956      14.0000000000
8797 2      15.7338228177      20.0000000000
8798 2      13.3678994047      20.0000000000
8799 2      15.5455300443      18.0000000000
8800 2      16.2450178282      16.0000000000
8801 2      13.7276808621      16.0000000000
8802 2      13.3797525495      18.0000000000
8803 2      12.3961749453      13.0000000000
8804 2      16.0918531810      19.0000000000
8805 2      15.6862206070      16.0000000000
8806 2      13.5649008725      15.0000000000
8807 2      13.9663348748      19.0000000000
8808 2      13.1081191958      18.0000000000
8809 2      14.1731982941      17.0000000000
8810 2      14.9848699035      20.0000000000
8811 2      13.7116437668      20.0000000000
8812 2      12.3642330525      17.0000000000
8813 2      16.2197394921      19.0000000000
8814 2      14.8853779158      18.0000000000
8815 2      15.6688169932      19.0000000000
8816 2      11.8376748914      16.0000000000
8817 2      14.4628218982      18.0000000000
8818 2      15.4851816684      21.0000000000
8819 2      11.4748169981      14.0000000000
8820 2      13.2528956463      18.0000000000
8821 2      16.5827381627      21.0000000000
8822 2      14.1216704402      18.0000000000
8823 2      14.5007083672      19.0000000000
8824 2      16.0338627034      19.0000000000
8825 2      13.8481634014      18.0000000000
8826 2      11.7573486258      15.0000000000
8827 2      13.0555520545      16.0000000000
8828 2      15.5173635933      19.0000000000
8829 2      13.2367525347      16.0000000000
8830 2      14.9812076636      19.0000000000
8831 2      12.3432866932      15.0000000000
8832 2      14.4983483188      17.0000000000
8833 2      14.2277697578      20.0000000000
8834 2      16.4883039060      20.0000000000
8835 2      12.1777289500      19.0000000000
8836 2      13.3834270990      19.0000000000
8837 2      14.3945373080      19.0000000000
8838 2      13.0093540778      16.0000000000
8839 2      13.1484068827      17.0000000000
8840 2      15.5910985899      19.0000000000
8841 2      14.3840525354      15.0000000000
8842 2      14.3922611169      19.0000000000
8843 2      13.9510019785      21.0000000000
8844 2      16.2560455163      19.0000000000
8845 2      19.1939623008      20.0000000000
8846 2      13.3665199231      18.0000000000
8847 2      13.5634261097      14.0000000000
8848 2      12.3927903915      17.0000000000
8849 2      17.1737350580      23.0000000000
8850 2      14.6820232745      16.0000000000
8851 2      14.4675194991      17.0000000000
8852 2      14.6526847273      18.0000000000
8853 2      13.3998765683      18.0000000000
8854 2      14.0103448208      18.0000000000
8855 2      14.5663818475      20.0000000000
8856 2      15.3833234983      19.0000000000
8857 2      13.6543961808      15.0000000000
8858 2      16.4362105934      23.0000000000
8859 2      18.2051579781      20.0000000000
8860 2      15.2045215200      20.0000000000
8861 2      13.8937033449      19.0000000000
8862 2      16.8425212656      20.0000000000
8863 2      15.6571035969      21.0000000000
8864 2      14.4900449036      17.0000000000
8865 2      15.5881343311      18.0000000000
8866 2      15.0483092041      20.0000000000
8867 2      17.7109816265      20.0000000000
8868 2      14.2205717241      18.0000000000
8869 2      16.6257743969      16.0000000000
8870 2      15.5570152005      21.0000000000
8871 2      16.1863963479      20.0000000000
8872 2      19.7652612967      17.0000000000
8873 2      12.8748929653      16.0000000000
8874 2      12.2382072979      18.0000000000
8875 2      14.9776590828      21.0000000000
8876 2      13.7584746257      17.0000000000
8877 2      13.1177794316      14.0000000000
8878 2      15.3987498324      17.0000000000
8879 2      14.8793709076      20.0000000000
8880 2      15.2316302014      21.0000000000
8881 2      16.0218485283      19.0000000000
8882 2      14.7007641985      19.0000000000
8883 2      14.0791992395      15.0000000000
8884 2      12.4416231038      15.0000000000
8885 2      11.8556499320      16.0000000000
8886 2      12.7689401645      20.0000000000
8887 2      17.1213958058      19.0000000000
8888 2      15.4108080255      22.0000000000
8889 2      13.9618063710      14.0000000000
8890 2      14.1558196358      19.0000000000
8891 2      15.8678349951      19.0000000000
8892 2      15.3754038698      21.0000000000
8893 2      15.5032121997      20.0000000000
8894 2      14.5945329490      17.0000000000
8895 2      14.9422435851      17.0000000000
8896 2      15.2769511508      19.0000000000
8897 2      13.6878363246      15.0000000000
8898 2      15.2699929873      19.0000000000
8899 2      15.6341931463      21.0000000000
8900 2      14.3216743671      18.0000000000
8901 2      15.3488261821      18.0000000000
8902 2      12.1994060212      14.0000000000
8903 2      15.1168570675      18.0000000000
8904 2      13.9526114426      18.0000000000
8905 2      13.5842752210      20.0000000000
8906 2      16.9765430086      17.0000000000
8907 2      13.4240570366      16.0000000000
8908 2      14.9483763228      17.0000000000
8909 2      13.5202288701      16.0000000000
8910 2      15.8657250082      20.0000000000
8911 2      15.6700031288      20.0000000000
8912 2      16.8266917082      20.0000000000
8913 2      16.4759242424      22.0000000000
8914 2      14.7459433649      17.0000000000
8915 2      15.4444577623      15.0000000000
8916 2      14.7083138664      15.0000000000
8917 2      15.8266722425      20.0000000000
8918 2      12.3331521197      14.0000000000
8919 2      15.7665389085      20.0000000000
8920 2      13.8687129432      16.0000000000
8921 2      16.0920055390      19.0000000000
8922 2      15.4987219630      17.0000000000
8923 2      12.9233649246      17.0000000000
8924 2      14.3804329760      19.0000000000
8925 2      16.8876498174      18.0000000000
8926 2      16.0415450477      22.0000000000
8927 2      15.1039998372      18.0000000000
8928 2      15.3570189369      19.0000000000
8929 2      15.4093872956      19.0000000000
8930 2      14.9827692259      16.0000000000
8931 2      13.8273796066      15.0000000000
8932 2      14.7913550632      17.0000000000
8933 2      12.3007472582      17.0000000000
8934 2      14.7323654344      18.0000000000
8935 2      13.7965591859      14.0000000000
8936 2      14.5147071860      18.0000000000
8937 2      13.2654371093      14.0000000000
8938 2      15.4978281848      20.0000000000
8939 2      19.0419410738      18.0000000000
8940 2      14.4200071273      16.0000000000
8941 2      15.2765107898      16.0000000000
8942 2      15.4262224019      19.0000000000
8943 2      13.7879487469      18.0000000000
8944 2      15.3116838171      19.0000000000
8945 2      13.0671147055      18.0000000000
8946 2      11.4691534406      15.0000000000
8947 2      14.5508436145      19.0000000000
8948 2      13.1065842716      14.0000000000
8949 2      14.4894462097      20.0000000000
8950 2      17.1615948866      22.0000000000
8951 2      14.0256112530      21.0000000000
8952 2      16.8399291356      21.0000000000
8953 2      13.5161622978      20.0000000000
8954 2      13.9321954714      16.0000000000
8955 2      13.0069477729      19.0000000000
8956 2      13.3868513547      18.0000000000
8957 2      11.6474129285      16.0000000000
8958 2      15.1357649687      20.0000000000
8959 2      16.8260130526      20.0000000000
8960 2      16.7430599851      21.0000000000
8961 2      13.5386473289      19.0000000000
8962 2      15.0972896250      19.0000000000
8963 2      14.9783050988      22.0000000000
8964 2      13.7646583391      16.0000000000
8965 2      14.0593426448      16.0000000000
8966 2      16.9403919321      19.0000000000
8967 2      16.0960619387      21.0000000000
8968 2      13.0005311615      16.0000000000
8969 2      17.2270647800      23.0000000000
8970 2      15.0901004624      21.0000000000
8971 2      15.9944042117      17.0000000000
8972 2      13.4650848126      15.0000000000
8973 2      13.7460879769      17.0000000000
8974 2      16.5885017716      20.0000000000
8975 2      14.7740970684      21.0000000000
8976 2      12.6913716300      17.0000000000
8977 2      13.2092677996      15.0000000000
8978 2      15.8652004127      19.0000000000
8979 2      16.7619639911      19.0000000000
8980 2      14.8723900290      17.0000000000
8981 2      13.0951359869      16.0000000000
8982 2      15.8972242514      20.0000000000
8983 2      15.0634595328      18.0000000000
8984 2      15.3285078451      20.0000000000
8985 2      13.0862984858      16.0000000000
8986 2      14.5527009028      20.0000000000
8987 2      13.6694104494      18.0000000000
8988 2      15.9178745969      19.0000000000
8989 2      12.3165821580      14.0000000000
8990 2      14.8653001188      19.0000000000
8991 2      16.5019259561      20.0000000000
8992 2      15.5261349768      16.0000000000
8993 2      14.4186342300      19.0000000000
8994 2      12.9278710625      14.0000000000
8995 2      16.4537656752      19.0000000000
8996 2      15.8041633023      18.0000000000
8997 2      15.8725926253      19.0000000000
8998 2      11.9610562660      14.0000000000
8999 2      12.9284129476      13.0000000000
9000 2      15.3130127650      16.0000000000
9001 2      14.2159548803      22.0000000000
9002 2      13.3151441587      15.0000000000
9003 2      14.4949455997      19.0000000000
9004 2      15.2429247372      20.0000000000
9005 2      14.3181901288      17.0000000000
9006 2      17.9613169319      21.0000000000
9007 2      17.4663176167      21.0000000000
9008 2      13.5484997564      18.0000000000
9009 2      12.4709530919      18.0000000000
9010 2      16.8611061439      20.0000000000
9011 2      15.6496712240      16.0000000000
9012 2      14.9849529799      18.0000000000
9013 2      13.4804794379      21.0000000000
9014 2      11.5505087363      14.0000000000
9015 2      15.0563557692      17.0000000000
9016 2      16.9140567156      20.0000000000
9017 2      15.3143679591      16.0000000000
9018 2      14.6846570626      15.0000000000
9019 2      16.2571058760      17.0000000000
9020 2      14.7892551682      19.0000000000
9021 2      14.5892644432      16.0000000000
9022 2      15.0459064774      21.0000000000
9023 2      14.3406528852      16.0000000000
9024 2      13.4874862940      18.0000000000
9025 2      13.5445808944      18.0000000000
9026 2      13.3233924554      17.0000000000
9027 2      11.8854574677      16.0000000000
9028 2      17.6253417880      20.0000000000
9029 2      13.2085189580      16.0000000000
9030 2      12.7285461985      14.0000000000
9031 2      15.6004379880      17.0000000000
9032 2      15.6347457391      22.0000000000
9033 2      16.0303206955      19.0000000000
9034 2      16.6366510689      24.0000000000
9035 2      13.0869898223      17.0000000000
9036 2      14.6278113832      17.0000000000
9037 2      15.0659934427      18.0000000000
9038 2      14.8453550837      17.0000000000
9039 2      13.2278150038      18.0000000000
9040 2      14.6351402872      18.0000000000
9041 2      14.5746728439      17.0000000000
9042 2      10.7523563230      12.0000000000
9043 2      15.2491873815      19.0000000000
9044 2      15.5712287493      20.0000000000
9045 2      13.5224072430      15.0000000000
9046 2      13.6617650191      17.0000000000
9047 2      16.2743212697      21.0000000000
9048 2      14.9577608818      20.0000000000
9049 2      16.2311852017      19.0000000000
9050 2      13.1027933931      18.0000000000
9051 2      16.4541785697      20.0000000000
9052 2      13.3620352839      15.0000000000
9053 2      14.0847487786      20.0000000000
9054 2      15.5287034018      22.0000000000
9055 2      14.6304338226      18.0000000000
9056 2      12.6514885428      16.0000000000
9057 2      13.8740538522      20.0000000000
9058 2      14.6454270321      17.0000000000
9059 2      15.6107325537      22.0000000000
9060 2      14.9660951764      17.0000000000
9061 2      14.0060453597      16.0000000000
9062 2      16.7364407683      24.0000000000
9063 2      12.8124727550      15.0000000000
9064 2      14.8024796961      19.0000000000
9065 2      13.6638274413      18.0000000000
9066 2      12.4157264795      14.0000000000
9067 2      13.3314767400      18.0000000000
9068 2      14.1968955839      20.0000000000
9069 2      16.9510501479      20.0000000000
9070 2      12.5166005652      15.0000000000
9071 2      14.6880864648      20.0000000000
9072 2      15.1536443989      17.0000000000
9073 2      14.3375716723      18.0000000000
9074 2      16.8705840626      22.0000000000
9075 2      15.4072701092      17.0000000000
9076 2      13.6995634836      20.0000000000
9077 2      13.5591038728      17.0000000000
9078 2      14.4644553850      15.0000000000
9079 2      13.3739083532      15.0000000000
9080 2      14.0016188627      15.0000000000
9081 2      17.2429388021      17.0000000000
9082 2      13.6176979952      17.0000000000
9083 2      14.2032040537      15.0000000000
9084 2      13.8399869527      20.0000000000
9085 2      13.2411684526      18.0000000000
9086 2      13.3604502712      17.0000000000
9087 2      13.9687580940      16.0000000000
9088 2      15.6895145984      18.0000000000
9089 2      15.2092359177      17.0000000000
9090 2      14.4329400114      16.0000000000
9091 2      13.9389113157      19.0000000000
9092 2      17.5145720816      20.0000000000
9093 2      14.8379465788      18.0000000000
9094 2      15.5128194860      20.0000000000
9095 2      15.9384246816      23.0000000000
9096 2      13.3766968555      14.0000000000
9097 2      16.5870657705      19.0000000000
9098 2      14.5072185911      17.0000000000
9099 2      15.8662559735      20.0000000000
9100 2      14.2505636003      16.0000000000
9101 2      14.4356800810      17.0000000000
9102 2      14.8523327942      18.0000000000
9103 2      14.1093246257      15.0000000000
9104 2      15.3766907917      17.0000000000
9105 2      15.8508113112      20.0000000000
9106 2      14.8515157573      16.0000000000
9107 2      16.2911740343      17.0000000000
9108 2      14.1142239585      14.0000000000
9109 2      14.1382292380      16.0000000000
9110 2      14.0106028426      14.0000000000
9111 2      13.2262697270      20.0000000000
9112 2      16.1404154238      19.0000000000
9113 2      13.0219338177      16.0000000000
9114 2      14.0092575525      18.0000000000
9115 2      18.5332988814      18.0000000000
9116 2      15.0601896782      19.0000000000
9117 2      13.0114633766      17.0000000000
9118 2      11.5410155744      15.0000000000
9119 2      15.8744146886      18.0000000000
9120 2      15.4640223328      19.0000000000
9121 2      14.0234616701      17.0000000000
9122 2      13.8683520269      18.0000000000
9123 2      15.7511203394      19.0000000000
9124 2      12.0936878590      17.0000000000
9125 2      15.4919845190      16.0000000000
9126 2      13.1840498857      14.0000000000
9127 2      13.8251838046      18.0000000000
9128 2      13.8753470370      20.0000000000
9129 2      13.7173527947      20.0000000000
9130 2      15.4217506681      19.0000000000
9131 2      13.9254836197      17.0000000000
9132 2      16.0452464153      18.0000000000
9133 2      15.1239619853      17.0000000000
9134 2      12.7430427797      17.0000000000
9135 2      15.3556766738      14.0000000000
9136 2      13.8802155956      18.0000000000
9137 2      15.0950711440      18.0000000000
9138 2      13.2833332045      22.0000000000
9139 2      12.4846414711      18.0000000000
9140 2      13.9654786315      13.0000000000
9141 2      13.3159107219      16.0000000000
9142 2      14.3787206390      19.0000000000
9143 2      13.2852207605      18.0000000000
9144 2      15.5025309897      21.0000000000
9145 2      15.3204756846      20.0000000000
9146 2      17.1267755607      20.0000000000
9147 2      16.3070514642      18.0000000000
9148 2      13.5914144127      16.0000000000
9149 2      16.3598308887      18.0000000000
9150 2      17.8030637413      21.0000000000
9151 2      13.7762484043      17.0000000000
9152 2      17.6843330500      19.0000000000
9153 2      13.7014475948      15.0000000000
9154 2      12.8378365196      15.0000000000
9155 2      14.4563563167      18.0000000000
9156 2      13.4484909670      20.0000000000
9157 2      14.3900735644      17.0000000000
9158 2      14.0930937944      15.0000000000
9159 2      12.6739585235      14.0000000000
9160 2      12.0030508970      15.0000000000
9161 2      13.4613032739      16.0000000000
9162 2      14.6539069514      19.0000000000
9163 2      12.6927248415      15.0000000000
9164 2      15.8333553724      22.0000000000
9165 2      14.6561481450      22.0000000000
9166 2      16.9159110835      16.0000000000
9167 2      12.0577302178      18.0000000000
9168 2      14.4650287955      17.0000000000
9169 2      16.2034719187      19.0000000000
9170 2      14.6264948515      15.0000000000
9171 2      15.4081073835      15.0000000000
9172 2      15.5425164942      22.0000000000
9173 2      13.5787479023      17.0000000000
9174 2      12.2443414686      14.0000000000
9175 2      15.1405624063      18.0000000000
9176 2      16.4101522485      22.0000000000
9177 2      16.8472231027      20.0000000000
9178 2      13.2550225649      17.0000000000
9179 2      14.0521781199      19.0000000000
9180 2      16.6369793660      21.0000000000
9181 2      15.8318410413      21.0000000000
9182 2      13.0106405984      17.0000000000
9183 2      13.8329682495      16.0000000000
9184 2      12.8572687883      17.0000000000
9185 2      16.0329997534      18.0000000000
9186 2      13.9865882790      19.0000000000
9187 2      15.4180480972      20.0000000000
9188 2      13.3882796511      13.0000000000
9189 2      18.0442745346      22.0000000000
9190 2      16.8143920947      17.0000000000
9191 2      17.2088189479      18.0000000000
9192 2      13.9871897506      20.0000000000
9193 2      13.3737157470      17.0000000000
9194 2      17.1049120865      21.0000000000
9195 2      16.6964037195      24.0000000000
9196 2      12.7175067737      15.0000000000
9197 2      13.3548226302      19.0000000000
9198 2      15.5317828607      19.0000000000
9199 2      12.8217630522      16.0000000000
9200 2      14.5073917732      17.0000000000
9201 2      14.0091328990      17.0000000000
9202 2      12.5700740786      14.0000000000
9203 2      13.8150412055      16.0000000000
9204 2      14.6067703259      14.0000000000
9205 2      14.2123114489      18.0000000000
9206 2      12.9095395364      14.0000000000
9207 2      13.1321357304      17.0000000000
9208 2      15.4908979690      18.0000000000
9209 2      13.3694089684      18.0000000000
9210 2      16.4220101961      21.0000000000
9211 2      14.1136779944      20.0000000000
9212 2      13.8876736963      18.0000000000
9213 2      12.5930674804      17.0000000000
9214 2      13.9043219412      17.0000000000
9215 2      14.5842358454      19.0000000000
9216 2      14.8731189546      18.0000000000
9217 2      14.9307797506      18.0000000000
9218 2      12.1933432387      15.0000000000
9219 2      15.4235445196      18.0000000000
9220 2      12.0659073781      13.0000000000
9221 2      13.3292254234      19.0000000000
9222 2      14.3977268599      19.0000000000
9223 2      11.9173653549      16.0000000000
9224 2      14.7233680177      20.0000000000
9225 2      14.4625591368      18.0000000000
9226 2      13.7129353187      16.0000000000
9227 2      15.4191573897      17.0000000000
9228 2      16.7689688569      19.0000000000
9229 2      13.9065267363      17.0000000000
9230 2      14.5252009497      19.0000000000
9231 2      15.2428186464      18.0000000000
9232 2      16.1554993461      18.0000000000
9233 2      15.0642275425      20.0000000000
9234 2      15.9810461831      16.0000000000
9235 2      15.2300242036      18.0000000000
9236 2      14.4113349588      19.0000000000
9237 2      18.6152902630      20.0000000000
9238 2      15.3719484828      22.0000000000
9239 2      12.9928968238      16.0000000000
9240 2      12.9849070288      17.0000000000
9241 2      15.6795073186      20.0000000000
9242 2      18.3452771505      23.0000000000
9243 2      15.1032993050      17.0000000000
9244 2      17.7782584797      23.0000000000
9245 2      16.6417922508      19.0000000000
9246 2      12.2382525343      15.0000000000
9247 2      15.7644987923      21.0000000000
9248 2      13.8134548821      15.0000000000
9249 2      13.7169340578      19.0000000000
9250 2      12.8926631898      16.0000000000
9251 2      13.6184556006      16.0000000000
9252 2      16.4862013018      17.0000000000
9253 2      15.7095017974      19.0000000000
9254 2      15.8510748091      17.0000000000
9255 2      15.5991280782      18.0000000000
9256 2      14.4282464668      15.0000000000
9257 2      14.7287071946      20.0000000000
9258 2      12.5493659283      17.0000000000
9259 2      16.0937580479      21.0000000000
9260 2      15.7257451038      22.0000000000
9261 2      16.1200617963      21.0000000000
9262 2      16.3603515293      19.0000000000
9263 2      16.5520674592      18.0000000000
9264 2      13.1744338325      17.0000000000
9265 2      15.5149899305      20.0000000000
9266 2      12.5765401549      16.0000000000
9267 2      15.8628232791      18.0000000000
9268 2      16.8406114855      20.0000000000
9269 2      16.1393451446      16.0000000000
9270 2      12.1839620713      15.0000000000
9271 2      13.1574334595      17.0000000000
9272 2      14.5996325894      15.0000000000
9273 2      13.8182147330      18.0000000000
9274 2      15.5903358635      22.0000000000
9275 2      13.8874653308      17.0000000000
9276 2      14.0398508469      16.0000000000
9277 2      15.7385883368      18.0000000000
9278 2      17.3262458916      21.0000000000
9279 2      14.9147488507      14.0000000000
9280 2      13.7617985683      17.0000000000
9281 2      14.0062903620      19.0000000000
9282 2      13.3118875433      16.0000000000
9283 2      11.6842939028      17.0000000000
9284 2      14.9442774653      19.0000000000
9285 2      13.5597153793      14.0000000000
9286 2      15.1256008062      19.0000000000
9287 2      15.0050844470      19.0000000000
9288 2      12.3953164053      18.0000000000
9289 2      12.9149332664      19.0000000000
9290 2      11.5595672140      15.0000000000
9291 2      11.2706439251      15.0000000000
9292 2      14.8955296490      15.0000000000
9293 2      14.9214037573      20.0000000000
9294 2      15.1738318923      18.0000000000
9295 2      13.4695706841      16.0000000000
9296 2      15.0718743539      17.0000000000
9297 2      16.4118442067      21.0000000000
9298 2      16.7974036482      22.0000000000
9299 2      15.8565719712      20.0000000000
9300 2      13.3567191032      17.0000000000
9301 2      13.7569976646      18.0000000000
9302 2      13.8378256842      18.0000000000
9303 2      15.4048487154      21.0000000000
9304 2      18.1808014609      21.0000000000
9305 2      14.3523631364      18.0000000000
9306 2      15.2743025313      23.0000000000
9307 2      14.1752173819      19.0000000000
9308 2      13.5720349412      15.0000000000
9309 2      14.8224191071      19.0000000000
9310 2      14.9854699860      18.0000000000
9311 2      15.2018593954      19.0000000000
9312 2      16.4028085708      21.0000000000
9313 2      13.1191179492      18.0000000000
9314 2      15.6353365570      18.0000000000
9315 2      16.6699566537      21.0000000000
9316 2      14.8869355673      20.0000000000
9317 2      13.7392214472      17.0000000000
9318 2      13.9439142951      16.0000000000
9319 2      12.5046925764      15.0000000000
9320 2      15.7313178391      16.0000000000
9321 2      15.2476694902      20.0000000000
9322 2      14.6896457357      16.0000000000
9323 2      14.1170116985      17.0000000000
9324 2      14.7482303472      17.0000000000
9325 2      15.1020796944      17.0000000000
9326 2      15.5808539421      18.0000000000
9327 2      15.1829663545      16.0000000000
9328 2      18.4617140871      22.0000000000
9329 2      13.9861387415      15.0000000000
9330 2      13.4345577257      21.0000000000
9331 2      12.3141218485      16.0000000000
9332 2      14.8247794563      16.0000000000
9333 2      16.9566563194      18.0000000000
9334 2      12.4545394714      19.0000000000
9335 2      16.6039991957      20.0000000000
9336 2      16.4863990289      23.0000000000
9337 2      14.7048347239      19.0000000000
9338 2      11.5038902882      17.0000000000
9339 2      14.9898544935      20.0000000000
9340 2      14.7462371537      15.0000000000
9341 2      14.6413626942      18.0000000000
9342 2      14.1319565563      19.0000000000
9343 2      18.5509376484      20.0000000000
9344 2      15.2241604137      17.0000000000
9345 2      14.2391853558      19.0000000000
9346 2      15.6399279640      19.0000000000
9347 2      14.7681870342      20.0000000000
9348 2      17.4960036781      21.0000000000
9349 2      14.9038675171      18.0000000000
9350 2      15.0899544843      18.0000000000
9351 2      15.8354106337      21.0000000000
9352 2      13.0224087599      17.0000000000
9353 2      18.0588033267      19.0000000000
9354 2      13.4826820817      14.0000000000
9355 2      15.2066804096      17.0000000000
9356 2      12.0817565440      13.0000000000
9357 2      14.0699405848      17.0000000000
9358 2      15.5548304987      17.0000000000
9359 2      15.1953808266      19.0000000000
9360 2      14.8366156836      16.0000000000
9361 2      16.0242620037      15.0000000000
9362 2      17.9692896100      24.0000000000
9363 2      13.9359131248      18.0000000000
9364 2      14.6745334083      18.0000000000
9365 2      15.0960545506      19.0000000000
9366 2      16.2384190008      20.0000000000
9367 2      16.4632892934      21.0000000000
9368 2      14.8896261856      17.0000000000
9369 2      14.7739765835      15.0000000000
9370 2      15.2961026438      20.0000000000
9371 2      13.5789338382      15.0000000000
9372 2      16.1446410508      18.0000000000
9373 2      14.2711511402      19.0000000000
9374 2      12.4073578757      18.0000000000
9375 2      16.5943576633      22.0000000000
9376 2      13.1277426132      16.0000000000
9377 2      14.8949950881      19.0000000000
9378 2      15.5926264810      21.0000000000
9379 2      15.6068169761      20.0000000000
9380 2      15.1143402745      16.0000000000
9381 2      13.9659360548      19.0000000000
9382 2      14.7139037537      20.0000000000
9383 2      13.3191095519      17.0000000000
9384 2      16.3634531899      20.0000000000
9385 2      16.5741254313      15.0000000000
9386 2      12.7588191270      20.0000000000
9387 2      14.1343232596      18.0000000000
9388 2      16.2043401042      18.0000000000
9389 2      13.6789466234      18.0000000000
9390 2      11.9483873902      14.0000000000
9391 2      16.4697569013      20.0000000000
9392 2      15.1110402637      21.0000000000
9393 2      13.0706657077      17.0000000000
9394 2      13.7865346882      17.0000000000
9395 2      13.9678110748      17.0000000000
9396 2      14.4533206386      17.0000000000
9397 2      14.0552653639      20.0000000000
9398 2      15.4953966402      15.0000000000
9399 2      12.2610425826      16.0000000000
9400 2      12.4108510085      15.0000000000
9401 2      14.7076407489      19.0000000000
9402 2      15.9192181769      22.0000000000
9403 2      14.6315774548      18.0000000000
9404 2      13.5252169256      18.0000000000
9405 2      14.1151022480      14.0000000000
9406 2      12.7002014376      20.0000000000
9407 2      16.7163323026      21.0000000000
9408 2      13.9306416092      16.0000000000
9409 2      15.8733106814      19.0000000000
9410 2      13.4220143502      17.0000000000
9411 2      13.3551193250      16.0000000000
9412 2      13.4627735828      19.0000000000
9413 2      14.7145426747      18.0000000000
9414 2      14.6635014114      17.0000000000
9415 2      13.9138906318      18.0000000000
9416 2      12.3608503550      15.0000000000
9417 2      15.0802379570      20.0000000000
9418 2      11.1096558942      16.0000000000
9419 2      14.3446460117      18.0000000000
9420 2      13.2149511605      20.0000000000
9421 2      13.2587898702      16.0000000000
9422 2      14.4472357857      18.0000000000
9423 2      13.1193832240      15.0000000000
9424 2      17.0784267229      17.0000000000
9425 2      12.4315251891      17.0000000000
9426 2      15.8920787109      18.0000000000
9427 2      14.6885889630      17.0000000000
9428 2      16.7584122415      19.0000000000
9429 2      12.5961373436      17.0000000000
9430 2      13.7123674551      16.0000000000
9431 2      15.9989083042      21.0000000000
9432 2      13.7469448697      18.0000000000
9433 2      15.9294238266      20.0000000000
9434 2      15.0762705696      17.0000000000
9435 2      15.0725714924      19.0000000000
9436 2      14.6446793795      16.0000000000
9437 2      12.8951275043      19.0000000000
9438 2      13.4712045465      17.0000000000
9439 2      14.7734806462      19.0000000000
9440 2      15.8092602982      16.0000000000
9441 2      15.1786227574      21.0000000000
9442 2      14.7622726212      16.0000000000
9443 2      13.1771117535      17.0000000000
9444 2      13.3429466831      17.0000000000
9445 2      16.4130590597      21.0000000000
9446 2      13.7811022837      17.0000000000
9447 2      16.3689657794      19.0000000000
9448 2      12.3127710050      18.0000000000
9449 2      16.1458709145      17.0000000000
9450 2      14.4919297209      19.0000000000
9451 2      13.1259302783      20.0000000000
9452 2      17.3333448151      22.0000000000
9453 2      15.6074039035      20.0000000000
9454 2      13.7744911945      18.0000000000
9455 2      15.8847584992      18.0000000000
9456 2      11.6016208501      14.0000000000
9457 2      15.2533164970      20.0000000000
9458 2      11.9389010860      15.0000000000
9459 2      17.0027062022      23.0000000000
9460 2      16.2116375085      20.0000000000
9461 2      17.0036703627      20.0000000000
9462 2      13.1960890215      17.0000000000
9463 2      14.0926763196      19.0000000000
9464 2      12.2214032135      16.0000000000
9465 2      13.4246043633      16.0000000000
9466 2      13.9459382834      16.0000000000
9467 2      15.1670548103      16.0000000000
9468 2      13.5174902857      16.0000000000
9469 2      14.9601730765      16.0000000000
9470 2      15.0622995362      19.0000000000
9471 2      16.5293709515      20.0000000000
9472 2      14.3325105543      20.0000000000
9473 2      17.1791763540      27.0000000000
9474 2      15.6436355077      20.0000000000
9475 2      16.0265600250      21.0000000000
9476 2      14.5569221048      17.0000000000
9477 2      12.1166262849      15.0000000000
9478 2      15.8026664117      20.0000000000
9479 2      13.4354389701      19.0000000000
9480 2      14.2202087640      15.0000000000
9481 2      14.5195988243      19.0000000000
9482 2      13.6115720107      15.0000000000
9483 2      15.1470672886      19.0000000000
9484 2      13.7830005787      19.0000000000
9485 2      14.9193816278      18.0000000000
9486 2      13.6384491463      17.0000000000
9487 2      13.3814575552      17.0000000000
9488 2      13.1215504918      18.0000000000
9489 2      17.2714609941      21.0000000000
9490 2      14.6872107597      17.0000000000
9491 2      14.8585070581      18.0000000000
9492 2      16.2832010966      15.0000000000
9493 2      15.2708156984      21.0000000000
9494 2      14.4031194019      20.0000000000
9495 2      13.6522989929      16.0000000000
9496 2      15.1568251356      18.0000000000
9497 2      14.0922804096      17.0000000000
9498 2      17.5501052538      21.0000000000
9499 2      15.1247183604      19.0000000000
9500 2      15.1916551429      20.0000000000
9501 2      17.3682401220      19.0000000000
9502 2      13.0832056766      16.0000000000
9503 2      13.8275439295      21.0000000000
9504 2      14.1685050184      18.0000000000
9505 2      15.3960217151      16.0000000000
9506 2      14.6795478537      18.0000000000
9507 2      15.1049921700      21.0000000000
9508 2      14.8243568460      19.0000000000
9509 2      14.4215920133      18.0000000000
9510 2      13.6298396701      18.0000000000
9511 2      16.1670575526      20.0000000000
9512 2      14.0494888767      19.0000000000
9513 2      17.3505037667      18.0000000000
9514 2      13.3337491922      15.0000000000
9515 2      14.5031024517      21.0000000000
9516 2      12.7126009268      16.0000000000
9517 2      14.0506776565      15.0000000000
9518 2      13.3447202295      17.0000000000
9519 2      16.4866176511      20.0000000000
9520 2      15.9000180352      17.0000000000
9521 2      15.1276618037      19.0000000000
9522 2      14.9065583565      18.0000000000
9523 2      15.4932118887      20.0000000000
9524 2      14.8654719653      17.0000000000
9525 2      14.9371376240      19.0000000000
9526 2      13.2419663203      17.0000000000
9527 2      15.5961725589      20.0000000000
9528 2      12.9850304403      15.0000000000
9529 2      16.1329828940      20.0000000000
9530 2      15.8984813142      22.0000000000
9531 2      16.4929344218      20.0000000000
9532 2      14.7286020986      19.0000000000
9533 2      14.2136840812      21.0000000000
9534 2      13.7820428509      15.0000000000
9535 2      16.6092234420      19.0000000000
9536 2      16.2754040043      18.0000000000
9537 2      14.5618402333      21.0000000000
9538 2      15.0555754724      17.0000000000
9539 2      18.3128689162      19.0000000000
9540 2      14.2338396962      21.0000000000
9541 2      13.4324627531      16.0000000000
9542 2      12.5229314741      15.0000000000
9543 2      14.7844931095      17.0000000000
9544 2      14.9220749841      22.0000000000
9545 2      15.9518725800      20.0000000000
9546 2      14.9975051428      19.0000000000
9547 2      13.7499739559      13.0000000000
9548 2      17.5568510465      17.0000000000
9549 2      16.1211217526      18.0000000000
9550 2      14.1201263827      18.0000000000
9551 2      14.6714016746      19.0000000000
9552 2      14.4335759667      20.0000000000
9553 2      17.4621678021      21.0000000000
9554 2      15.5213156329      22.0000000000
9555 2      17.0886336257      21.0000000000
9556 2      14.3040913644      19.0000000000
9557 2      16.3022435921      22.0000000000
9558 2      19.6021818836      21.0000000000
9559 2      13.7778950110      18.0000000000
9560 2      17.5628389078      17.0000000000
9561 2      13.5992430268      17.0000000000
9562 2      14.3367018432      18.0000000000
9563 2      13.3724979283      17.0000000000
9564 2      16.1419633097      20.0000000000
9565 2      13.3951662178      16.0000000000
9566 2      16.4005514105      22.0000000000
9567 2      13.9524753877      18.0000000000
9568 2      15.5161782378      19.0000000000
9569 2      16.8743230362      18.0000000000
9570 2      15.0353242041      18.0000000000
9571 2      13.1391136103      16.0000000000
9572 2      15.2896230847      19.0000000000
9573 2      14.9224760981      19.0000000000
9574 2      14.1106275673      16.0000000000
9575 2      15.2732663722      17.0000000000
9576 2      17.0186704422      19.0000000000
9577 2      17.4531479074      18.0000000000
9578 2      15.7951734789      18.0000000000
9579 2      15.2596768653      18.0000000000
9580 2      13.8704354117      22.0000000000
9581 2      12.3111654427      15.0000000000
9582 2      15.2023998555      20.0000000000
9583 2      11.7333971066      14.0000000000
9584 2      14.0430155293      16.0000000000
9585 2      14.6830887220      18.0000000000
9586 2      15.9184905163      16.0000000000
9587 2      12.4371901379      15.0000000000
9588 2      14.6754474665      17.0000000000
9589 2      12.8825169323      18.0000000000
9590 2      16.0625879867      19.0000000000
9591 2      13.8304347939      19.0000000000
9592 2      15.9394801491      20.0000000000
9593 2      15.0562883298      15.0000000000
9594 2      14.0665134580      18.0000000000
9595 2      18.0106752169      21.0000000000
9596 2      16.4738356164      18.0000000000
9597 2      14.3157375857      17.0000000000
9598 2      15.0095884587      20.0000000000
9599 2      13.5308882248      18.0000000000
9600 2      16.8257824166      17.0000000000
9601 2      13.8599044354      16.0000000000
9602 2      13.3688142120      16.0000000000
9603 2      14.0143767723      15.0000000000
9604 2      13.5121749819      16.0000000000
9605 2      13.3797711510      16.0000000000
9606 2      13.6308275453      17.0000000000
9607 2      13.7022138819      17.0000000000
9608 2      16.4741289934      22.0000000000
9609 2      17.4611120066      19.0000000000
9610 2      13.1718114007      15.0000000000
9611 2      15.6396853087      19.0000000000
9612 2      12.9862020719      18.0000000000
9613 2      15.5378387188      20.0000000000
9614 2      15.1340602741      19.0000000000
9615 2      15.9494452893      18.0000000000
9616 2      13.1488185257      15.0000000000
9617 2      14.3006237844      20.0000000000
9618 2      15.9279101381      17.0000000000
9619 2      14.9587782941      15.0000000000
9620 2      12.6694568202      14.0000000000
9621 2      12.1024329651      13.0000000000
9622 2      14.1548445576      17.0000000000
9623 2      15.6945895492      16.0000000000
9624 2      15.1952466337      18.0000000000
9625 2      15.3395386357      19.0000000000
9626 2      15.6324851526      21.0000000000
9627 2      16.1134259002      20.0000000000
9628 2      13.7313645150      16.0000000000
9629 2      13.8222362870      17.0000000000
9630 2      15.4962662378      15.0000000000
9631 2      15.3372586347      19.0000000000
9632 2      13.2304190515      16.0000000000
9633 2      17.3823716439      24.0000000000
9634 2      12.8461157174      18.0000000000
9635 2      15.7624519999      17.0000000000
9636 2      13.3937852818      17.0000000000
9637 2      15.3956392108      21.0000000000
9638 2      13.9089415583      18.0000000000
9639 2      13.4119483262      15.0000000000
9640 2      17.0997010933      18.0000000000
9641 2      12.4064426361      14.0000000000
9642 2      14.5329001641      15.0000000000
9643 2      14.3795395508      17.0000000000
9644 2      18.1373091729      19.0000000000
9645 2      15.9183482298      20.0000000000
9646 2      15.8485046502      16.0000000000
9647 2      13.7970815889      18.0000000000
9648 2      13.7324109901      16.0000000000
9649 2      15.5993530472      21.0000000000
9650 2      16.5123412729      19.0000000000
9651 2      14.1488993941      19.0000000000
9652 2      14.4323003366      19.0000000000
9653 2      15.4975309252      17.0000000000
9654 2      19.2676921535      23.0000000000
9655 2      14.7755552434      18.0000000000
9656 2      14.3863971147      20.0000000000
9657 2      11.7950539147      16.0000000000
9658 2      16.4448975868      17.0000000000
9659 2      15.6505690177      20.0000000000
9660 2      16.5483161278      19.0000000000
9661 2      14.1819218999      18.0000000000
9662 2      11.5828395442      15.0000000000
9663 2      15.8703609475      24.0000000000
9664 2      13.3001520691      15.0000000000
9665 2      15.5374370800      18.0000000000
9666 2      15.3242303038      19.0000000000
9667 2      15.3826567740      19.0000000000
9668 2      16.6100962992      19.0000000000
9669 2      14.3137304394      18.0000000000
9670 2      13.6134721890      19.0000000000
9671 2      14.8861706128      17.0000000000
9672 2      13.0753729829      16.0000000000
9673 2      16.4898283969      18.0000000000
9674 2      14.4950544296      17.0000000000
9675 2      14.4114247090      20.0000000000
9676 2      12.0081698712      15.0000000000
9677 2      13.7476500486      17.0000000000
9678 2      16.4970854218      22.0000000000
9679 2      15.8109644597      17.0000000000
9680 2      14.4668823182      16.0000000000
9681 2      12.9986257826      18.0000000000
9682 2      14.9175265507      18.0000000000
9683 2      13.6805290906      17.0000000000
9684 2      13.3833820293      19.0000000000
9685 2      14.5202274430      16.0000000000
9686 2      15.8059691709      19.0000000000
9687 2      15.7530239428      20.0000000000
9688 2      17.8189199965      18.0000000000
9689 2      15.1408768707      20.0000000000
9690 2      14.0076111042      18.0000000000
9691 2      14.7354127120      17.0000000000
9692 2      12.1923302688      15.0000000000
9693 2      12.4025338806      13.0000000000
9694 2      13.5219220954      16.0000000000
9695 2      15.7683101536      20.0000000000
9696 2      15.4445918081      19.0000000000
9697 2      14.7637968783      19.0000000000
9698 2      14.4761385607      18.0000000000
9699 2      11.2960327108      14.0000000000
9700 2      14.2811561269      20.0000000000
9701 2      13.4138012387      19.0000000000
9702 2      14.3152718355      22.0000000000
9703 2      14.5189328934      18.0000000000
9704 2      14.3419986269      19.0000000000
9705 2      15.8143634035      19.0000000000
9706 2      12.6919806086      16.0000000000
9707 2      16.4013960343      19.0000000000
9708 2      16.8726292056      19.0000000000
9709 2      12.3984630243      14.0000000000
9710 2      15.5040777557      19.0000000000
9711 2      15.3216921826      17.0000000000
9712 2      14.5177839133      22.0000000000
9713 2      15.0018136136      19.0000000000
9714 2      15.3356242151      18.0000000000
9715 2      11.9663267956      13.0000000000
9716 2      11.2399946553      17.0000000000
9717 2      15.1519795404      19.0000000000
9718 2      12.8448789839      13.0000000000
9719 2      13.7327893880      19.0000000000
9720 2      14.4354450067      17.0000000000
9721 2      14.0030398981      20.0000000000
9722 2      11.7644448557      15.0000000000
9723 2      12.5596352582      15.0000000000
9724 2      15.4143693044      24.0000000000
9725 2      14.5992071724      17.0000000000
9726 2      15.5928700370      15.0000000000
9727 2      13.7582946570      18.0000000000
9728 2      15.1129084129      17.0000000000
9729 2      13.8410272352      17.0000000000
9730 2      16.0193103719      20.0000000000
9731 2      14.0971038540      14.0000000000
9732 2      14.0340490458      15.0000000000
9733 2      15.5649554365      18.0000000000
9734 2      14.1237540518      17.0000000000
9735 2      16.1994333083      22.0000000000
9736 2      13.6305050731      18.0000000000
9737 2      15.2686294016      20.0000000000
9738 2      14.9870386741      17.0000000000
9739 2      14.0169457545      14.0000000000
9740 2      13.5702515197      17.0000000000
9741 2      15.3347186237      17.0000000000
9742 2      13.6285036473      20.0000000000
9743 2      13.2149636539      17.0000000000
9744 2      11.4528494664      16.0000000000
9745 2      11.8874663122      14.0000000000
9746 2      14.5364883060      21.0000000000
9747 2      12.5901624551      16.0000000000
9748 2      14.5518647436      18.0000000000
9749 2      12.5919759438      15.0000000000
9750 2      15.3278916446      18.0000000000
9751 2      16.7134710042      21.0000000000
9752 2      15.9730890499      21.0000000000
9753 2      14.7254796546      20.0000000000
9754 2      14.8418490990      17.0000000000
9755 2      16.1139510769      17.0000000000
9756 2      12.8862299016      19.0000000000
9757 2      13.9891161348      13.0000000000
9758 2      15.0458763042      18.0000000000
9759 2      14.6316970161      20.0000000000
9760 2      13.2058097562      18.0000000000
9761 2      14.6810995333      18.0000000000
9762 2      13.8947676949      16.0000000000
9763 2      14.5826771374      19.0000000000
9764 2      14.4521368539      20.0000000000
9765 2      16.5723155406      23.0000000000
9766 2      14.6581439650      18.0000000000
9767 2      17.4055012383      20.0000000000
9768 2      13.2512919462      16.0000000000
9769 2      13.1052785444      17.0000000000
9770 2      12.9626204108      18.0000000000
9771 2      15.1460209910      18.0000000000
9772 2      13.6297039676      17.0000000000
9773 2      13.2697061177      14.0000000000
9774 2      14.6164529029      19.0000000000
9775 2      14.2030664287      17.0000000000
9776 2      14.1582419032      19.0000000000
9777 2      13.4287586735      19.0000000000
9778 2      15.3532354331      21.0000000000
9779 2      11.5948748917      16.0000000000
9780 2      13.8087225558      15.0000000000
9781 2      12.6491863437      17.0000000000
9782 2      14.1921633345      17.0000000000
9783 2      16.1944599919      19.0000000000
9784 2      14.6661553383      18.0000000000
9785 2      14.0881757676      19.0000000000
9786 2      14.7565076653      18.0000000000
9787 2      16.7659445819      21.0000000000
9788 2      14.9206395367      19.0000000000
9789 2      14.2087888597      17.0000000000
9790 2      12.9765758242      17.0000000000
9791 2      15.6790784620      22.0000000000
9792 2      13.2948551524      17.0000000000
9793 2      16.9506691750      20.0000000000
9794 2      14.8206952539      17.0000000000
9795 2      14.3949843917      18.0000000000
9796 2      14.9112236122      19.0000000000
9797 2      15.8506626043      16.0000000000
9798 2      15.2397806762      18.0000000000
9799 2      13.7120519417      17.0000000000
9800 2      14.1426241329      18.0000000000
9801 2      16.7479754627      16.0000000000
9802 2      14.2308483749      19.0000000000
9803 2      15.7592841898      19.0000000000
9804 2      15.0078683453      19.0000000000
9805 2      16.3337526516      19.0000000000
9806 2      15.8402480506      22.0000000000
9807 2      13.8854340219      17.0000000000
9808 2      13.1533684646      16.0000000000
9809 2      12.9291483456      16.0000000000
9810 2      15.6711044547      18.0000000000
9811 2      12.2123295132      13.0000000000
9812 2      16.2783965216      20.0000000000
9813 2      13.0431061728      19.0000000000
9814 2      11.4011779565      15.0000000000
9815 2      16.3898787407      18.0000000000
9816 2      15.4400812116      21.0000000000
9817 2      15.7424380991      19.0000000000
9818 2      12.7955172093      15.0000000000
9819 2      13.7066141179      16.0000000000
9820 2      14.6877465588      18.0000000000
9821 2      13.2381956272      17.0000000000
9822 2      13.9565106557      15.0000000000
9823 2      15.4666825719      19.0000000000
9824 2      12.9624449196      17.0000000000
9825 2      12.7824548293      19.0000000000
9826 2      15.3063173542      20.0000000000
9827 2      15.8984283668      20.0000000000
9828 2      15.6806549481      19.0000000000
9829 2      16.1931579448      22.0000000000
9830 2      14.4003816438      18.0000000000
9831 2      14.6929243330      16.0000000000
9832 2      13.1367204982      16.0000000000
9833 2      14.6089374359      15.0000000000
9834 2      14.0970923158      17.0000000000
9835 2      15.1873887260      17.0000000000
9836 2      13.1034173674      17.0000000000
9837 2      15.8974076034      18.0000000000
9838 2      15.3339087042      20.0000000000
9839 2      13.2775959780      17.0000000000
9840 2      13.5253579268      15.0000000000
9841 2      13.9907116060      17.0000000000
9842 2      14.1928991652      19.0000000000
9843 2      16.2361458136      20.0000000000
9844 2      15.7212315870      18.0000000000
9845 2      14.1414191375      18.0000000000
9846 2      11.5656442003      14.0000000000
9847 2      14.9528996480      17.0000000000
9848 2      14.6520089691      18.0000000000
9849 2      12.8135978828      19.0000000000
9850 2      14.3508893685      16.0000000000
9851 2      13.7343199219      17.0000000000
9852 2      13.4665097343      20.0000000000
9853 2      17.0368393958      20.0000000000
9854 2      14.2227215463      17.0000000000
9855 2      17.6055028204      24.0000000000
9856 2      15.8073787364      18.0000000000
9857 2      15.3965308848      20.0000000000
9858 2      12.9821298288      15.0000000000
9859 2      14.5878889953      14.0000000000
9860 2      15.4192436396      17.0000000000
9861 2      17.0459150058      23.0000000000
9862 2      14.0294344010      19.0000000000
9863 2      13.8322290310      19.0000000000
9864 2      12.9087399938      16.0000000000
9865 2      13.2470516089      16.0000000000
9866 2      14.0446875398      16.0000000000
9867 2      13.4905183522      15.0000000000
9868 2      13.4939285848      17.0000000000
9869 2      15.6257934696      19.0000000000
9870 2      14.6446481272      19.0000000000
9871 2      16.8009806256      21.0000000000
9872 2      15.7925710126      18.0000000000
9873 2      14.3042885896      21.0000000000
9874 2      13.5764515189      17.0000000000
9875 2      14.9442458927      16.0000000000
9876 2      14.8644004898      20.0000000000
9877 2      14.5448141285      20.0000000000
9878 2      12.3490330855      17.0000000000
9879 2      15.6631225523      16.0000000000
9880 2      14.8182198050      18.0000000000
9881 2      14.9142558268      20.0000000000
9882 2      13.9790653576      16.0000000000
9883 2      13.1503735460      18.0000000000
9884 2      15.2025251270      22.0000000000
9885 2      13.8816445440      19.0000000000
9886 2      14.9392977784      19.0000000000
9887 2      15.2688126734      16.0000000000
9888 2      13.6261268116      16.0000000000
9889 2      15.2022095272      16.0000000000
9890 2      12.1975093161      14.0000000000
9891 2      13.7682979063      16.0000000000
9892 2      12.2116841809      17.0000000000
9893 2      13.6147306231      12.0000000000
9894 2      14.3868777808      21.0000000000
9895 2      14.6452831422      15.0000000000
9896 2      13.2976535801      16.0000000000
9897 2      14.4167589087      17.0000000000
9898 2      16.2028254029      19.0000000000
9899 2      12.9563528572      17.0000000000
9900 2      14.3141103676      16.0000000000
9901 2      11.6882281720      14.0000000000
9902 2      12.5225782189      15.0000000000
9903 2      14.6879341331      17.0000000000
9904 2      13.3020573994      19.0000000000
9905 2      13.0472637641      14.0000000000
9906 2      12.7728845607      14.0000000000
9907 2      16.6466139383      19.0000000000
9908 2      13.9736600022      14.0000000000
9909 2      15.7480911193      18.0000000000
9910 2      15.5705814365      20.0000000000
9911 2      12.9547805922      16.0000000000
9912 2      13.4593020574      16.0000000000
9913 2      15.4837969457      17.0000000000
9914 2      15.5337704410      17.0000000000
9915 2      14.6748089277      19.0000000000
9916 2      12.7946940672      16.0000000000
9917 2      13.1241964054      16.0000000000
9918 2      15.7166468164      21.0000000000
9919 2      13.4948647147      17.0000000000
9920 2      14.1859428366      18.0000000000
9921 2      12.6057393552      18.0000000000
9922 2      15.7240663430      21.0000000000
9923 2      10.4566013092      14.0000000000
9924 2      15.2385987567      18.0000000000
9925 2      12.2843637455      14.0000000000
9926 2      15.8760855903      17.0000000000
9927 2      14.4109510227      18.0000000000
9928 2      13.8858963988      19.0000000000
9929 2      16.2019240892      23.0000000000
9930 2      16.4866142221      21.0000000000
9931 2      13.2996358885      14.0000000000
9932 2      14.6375820120      21.0000000000
9933 2      12.6426078555      18.0000000000
9934 2      15.1263815256      19.0000000000
9935 2      13.9331399661      15.0000000000
9936 2      13.5860165989      18.0000000000
9937 2      12.4668566234      13.0000000000
9938 2      15.8357141690      21.0000000000
9939 2      13.4406534446      17.0000000000
9940 2      14.0425829925      16.0000000000
9941 2      16.5369767143      20.0000000000
9942 2      15.4570964428      22.0000000000
9943 2      13.6593778228      20.0000000000
9944 2      13.7154667332      19.0000000000
9945 2      15.0341415807      16.0000000000
9946 2      12.9919672179      17.0000000000
9947 2      15.2748454617      18.0000000000
9948 2      15.1343788356      17.0000000000
9949 2      16.7650686762      18.0000000000
9950 2      12.9184989382      14.0000000000
9951 2      18.8234586153      22.0000000000
9952 2      16.1033926001      16.0000000000
9953 2      17.0403937575      18.0000000000
9954 2      13.4870572958      14.0000000000
9955 2      15.6504506666      20.0000000000
9956 2      12.9328393397      19.0000000000
9957 2      16.1298976278      20.0000000000
9958 2      18.3983603265      19.0000000000
9959 2      14.4139935466      17.0000000000
9960 2      15.2320925212      14.0000000000
9961 2      15.3569758805      17.0000000000
9962 2      17.1725005002      21.0000000000
9963 2      12.9284035855      14.0000000000
9964 2      13.1002741948      21.0000000000
9965 2      14.8786467708      15.0000000000
9966 2      13.9308576951      16.0000000000
9967 2      16.3903848282      18.0000000000
9968 2      15.5753461588      14.0000000000
9969 2      15.3861330502      19.0000000000
9970 2      17.2843202906      20.0000000000
9971 2      15.2923315168      17.0000000000
9972 2      14.7768881357      20.0000000000
9973 2      16.7211739143      20.0000000000
9974 2      14.2291930134      20.0000000000
9975 2      17.4384500163      21.0000000000
9976 2      15.9856138479      19.0000000000
9977 2      11.9583755345      18.0000000000
9978 2      18.4018703261      21.0000000000
9979 2      13.6150849492      17.0000000000
9980 2      20.7275121202      25.0000000000
9981 2      11.4217369355      13.0000000000
9982 2      15.1744918307      19.0000000000
9983 2      14.0071615317      16.0000000000
9984 2      11.1467899669      15.0000000000
9985 2      15.0431327289      18.0000000000
9986 2      13.5225269309      15.0000000000
9987 2      14.4892638974      17.0000000000
9988 2      18.8428441940      21.0000000000
9989 2      16.4512331037      17.0000000000
9990 2      12.2960439864      18.0000000000
9991 2      13.4823673078      19.0000000000
9992 2      15.2232080804      18.0000000000
9993 2      14.2607290739      20.0000000000
9994 2      14.2923666303      18.0000000000
9995 2      14.0061244647      15.0000000000
9996 2      14.5921003465      18.0000000000
9997 2      15.0710217706      18.0000000000
9998 2      13.7442630135      19.0000000000
9999 2      14.1344346157      20.0000000000
10000 2      16.1885046702      14.0000000000
10001 2      16.0859031957      17.0000000000
10002 2      13.3247496034      16.0000000000
10003 2      15.7458652050      20.0000000000
10004 2      15.4257603182      19.0000000000
10005 2      14.0216984707      19.0000000000
10006 2      11.4362729016      12.0000000000
10007 2      16.3173685960      19.0000000000
10008 2      13.1674555391      18.0000000000
10009 2      14.9597131075      17.0000000000
10010 2      13.3421395071      17.0000000000
10011 2      12.4387767666      16.0000000000
10012 2      15.9783924597      20.0000000000
10013 2      12.8148880280      13.0000000000
10014 2      13.3057977657      13.0000000000
10015 2      14.4191568632      19.0000000000
10016 2      18.7055025241      21.0000000000
10017 2      14.1989482528      19.0000000000
10018 2      11.6914630439      13.0000000000
10019 2      13.6853372966      17.0000000000
10020 2      16.0639278766      20.0000000000
10021 2      14.1435014276      18.0000000000
10022 2      17.7593007859      19.0000000000
10023 2      15.6475053633      18.0000000000
10024 2      16.8338285972      19.0000000000
10025 2      16.0956481531      22.0000000000
10026 2      15.2535708432      18.0000000000
10027 2      13.9556520458      18.0000000000
10028 2      12.0721943868      14.0000000000
10029 2      14.5814786067      20.0000000000
10030 2      14.9786363210      19.0000000000
10031 2      14.9645494729      20.0000000000
10032 2      16.2463464432      19.0000000000
10033 2      13.9289061054      17.0000000000
10034 2      13.4048679198      19.0000000000
10035 2      16.0291533444      20.0000000000
10036 2      14.5899038731      18.0000000000
10037 2      15.6854073794      18.0000000000
10038 2      14.4063511250      21.0000000000
10039 2      14.9644238663      19.0000000000
10040 2      15.5773805726      17.0000000000
10041 2      14.7761135691      21.0000000000
10042 2      14.4646229377      18.0000000000
10043 2      14.7243266912      18.0000000000
10044 2      14.8809369217      19.0000000000
10045 2      15.2903936475      19.0000000000
10046 2      13.4097446788      17.0000000000
10047 2      15.2349242220      17.0000000000
10048 2      14.5176134802      20.0000000000
10049 2      14.0368163759      19.0000000000
10050 2      14.7420168489      17.0000000000
10051 2      13.8865487705      16.0000000000
10052 2      14.1260883241      14.0000000000
10053 2      15.4350337145      17.0000000000
10054 2      16.6291378301      16.0000000000
10055 2      16.4617894219      19.0000000000
10056 2      14.0982372477      16.0000000000
10057 2      12.3010738741      17.0000000000
10058 2      14.7617776343      19.0000000000
10059 2      14.8741480737      15.0000000000
10060 2      16.3451874966      19.0000000000
10061 2      12.8660205300      16.0000000000
10062 2      14.2913122507      17.0000000000
10063 2      13.6751683027      17.0000000000
10064 2      13.2197369098      18.0000000000
10065 2      14.7988874170      17.0000000000
10066 2      13.5185396107      19.0000000000
10067 2      18.5102588857      24.0000000000
10068 2      15.3782061016      17.0000000000
10069 2      13.6084027694      14.0000000000
10070 2      16.2639140320      18.0000000000
10071 2      14.7465111781      17.0000000000
10072 2      16.3071481279      18.0000000000
10073 2      14.8663498699      17.0000000000
10074 2      13.8275815135      19.0000000000
10075 2      15.3927166060      17.0000000000
10076 2      14.9771328778      17.0000000000
10077 2      16.0540899868      21.0000000000
10078 2      13.9780052866      21.0000000000
10079 2      17.5206275378      24.0000000000
10080 2      13.9679880089      20.0000000000
10081 2      11.6821530358      16.0000000000
10082 2      15.4986366686      17.0000000000
10083 2      16.8515599625      20.0000000000
10084 2      13.2063338530      20.0000000000
10085 2      14.1695502060      19.0000000000
10086 2      16.1540089901      19.0000000000
10087 2      15.2934432159      21.0000000000
10088 2      12.5735512278      16.0000000000
10089 2      13.1064632919      15.0000000000
10090 2      11.7606902295      17.0000000000
10091 2      14.5865330982      17.0000000000
10092 2      14.2171622735      18.0000000000
10093 2      14.3225753510      15.0000000000
10094 2      14.5980023705      17.0000000000
10095 2      13.5615784206      19.0000000000
10096 2      12.8751907011      19.0000000000
10097 2      12.9349679473      17.0000000000
10098 2      13.3514127380      15.0000000000
10099 2      13.7702615874      17.0000000000
10100 2      14.3341160230      17.0000000000
10101 2      15.0762876001      19.0000000000
10102 2      15.4216691378      15.0000000000
10103 2      15.9096236731      20.0000000000
10104 2      14.8272764405      18.0000000000
10105 2      14.0620186686      18.0000000000
10106 2      12.3596271690      17.0000000000
10107 2      12.3539969321      14.0000000000
10108 2      15.0354635237      21.0000000000
10109 2      14.6512346276      17.0000000000
10110 2      14.5636064117      17.0000000000
10111 2      13.4115075690      17.0000000000
10112 2      13.1389279070      16.0000000000
10113 2      14.0144049696      18.0000000000
10114 2      16.5133205142      22.0000000000
10115 2      16.2044833271      19.0000000000
10116 2      16.2642822698      17.0000000000
10117 2      16.3616590066      17.0000000000
10118 2      15.7986469530      20.0000000000
10119 2      17.3956673813      20.0000000000
10120 2      14.7246926998      19.0000000000
10121 2      14.6367016678      18.0000000000
10122 2      14.6932354015      19.0000000000
10123 2      14.0389769538      20.0000000000
10124 2      14.9037022908      21.0000000000
10125 2      15.1508485462      17.0000000000
10126 2      15.3324070591      18.0000000000
10127 2      13.9349422975      17.0000000000
10128 2      12.5376013880      17.0000000000
10129 2      15.9880555916      18.0000000000
10130 2      14.2028811074      15.0000000000
10131 2      13.0074039010      13.0000000000
10132 2      15.3177424676      21.0000000000
10133 2      16.3530960773      19.0000000000
10134 2      14.4827811014      18.0000000000
10135 2      13.5639411174      15.0000000000
10136 2      15.1690037619      20.0000000000
10137 2      13.8880780843      19.0000000000
10138 2      15.8741950993      19.0000000000
10139 2      14.2883917822      18.0000000000
10140 2      13.8975700507      19.0000000000
10141 2      18.8249650374      21.0000000000
10142 2      14.1997839247      17.0000000000
10143 2      14.3918924918      17.0000000000
10144 2      13.5707165391      17.0000000000
10145 2      14.5959920521      19.0000000000
10146 2      16.1858325347      18.0000000000
10147 2      14.0877733289      15.0000000000
10148 2      13.7425274637      17.0000000000
10149 2      12.8482436034      15.0000000000
10150 2      15.1817855686      19.0000000000
10151 2      17.7655536451      22.0000000000
10152 2      14.7721639074      18.0000000000
10153 2      15.8596439482      19.0000000000
10154 2      13.8702987408      19.0000000000
10155 2      14.6208891042      16.0000000000
10156 2      16.2229942142      17.0000000000
10157 2      15.8302060408      19.0000000000
10158 2      16.0360281629      19.0000000000
10159 2      12.6687862740      13.0000000000
10160 2      14.6149230022      15.0000000000
10161 2      14.5339241964      17.0000000000
10162 2      16.7313629064      19.0000000000
10163 2      13.9658004720      18.0000000000
10164 2      16.0519167916      15.0000000000
10165 2      14.2012267786      14.0000000000
10166 2      12.9189690962      16.0000000000
10167 2      13.1115889476      18.0000000000
10168 2      14.5721986429      15.0000000000
10169 2      15.3779196857      20.0000000000
10170 2      18.3589144912      18.0000000000
10171 2      13.6867471356      17.0000000000
10172 2      12.8150288509      13.0000000000
10173 2      12.6666109419      15.0000000000
10174 2      15.1070920255      18.0000000000
10175 2      13.9352460464      20.0000000000
10176 2      13.9143596838      18.0000000000
10177 2      15.5400530263      19.0000000000
10178 2      15.0160364155      17.0000000000
10179 2      17.8800862928      21.0000000000
10180 2      14.2726010771      18.0000000000
10181 2      18.0049045869      20.0000000000
10182 2      15.7327541282      20.0000000000
10183 2      16.0478972729      20.0000000000
10184 2      16.4128602319      17.0000000000
10185 2      14.2379177619      18.0000000000
10186 2      13.7271490391      17.0000000000
10187 2      14.8342838240      15.0000000000
10188 2      15.1099572842      19.0000000000
10189 2      15.9960121681      21.0000000000
10190 2      15.1662429541      14.0000000000
10191 2      14.8957549035      18.0000000000
10192 2      15.9609040912      19.0000000000
10193 2      15.5423860487      16.0000000000
10194 2      14.3472050937      18.0000000000
10195 2      11.3185560761      15.0000000000
10196 2      15.5624559035      20.0000000000
10197 2      12.4502154502      18.0000000000
10198 2      11.9159058565      16.0000000000
10199 2      14.2377514648      21.0000000000
10200 2      14.2527413663      17.0000000000
10201 2      13.2641793230      19.0000000000
10202 2      16.4347671406      19.0000000000
10203 2      14.2266469191      17.0000000000
10204 2      12.3441628172      17.0000000000
10205 2      11.8245258483      15.0000000000
10206 2      13.7440447170      17.0000000000
10207 2      15.6726437905      19.0000000000
10208 2      16.0281633939      21.0000000000
10209 2      15.7964853990      22.0000000000
10210 2      16.6942115378      18.0000000000
10211 2      16.8079098205      19.0000000000
10212 2      15.1874941252      18.0000000000
10213 2      15.2516709501      17.0000000000
10214 2      14.3068794664      16.0000000000
10215 2      15.3127525144      20.0000000000
10216 2      16.1273288639      20.0000000000
10217 2      15.1865971856      13.0000000000
10218 2      14.8205476319      18.0000000000
10219 2      15.7803525038      19.0000000000
10220 2      15.8450079697      19.0000000000
10221 2      13.3704198885      17.0000000000
10222 2      12.8185343648      18.0000000000
10223 2      15.8389244442      19.0000000000
10224 2      13.7440923636      15.0000000000
10225 2      13.8921214456      18.0000000000
10226 2      17.8621935038      19.0000000000
10227 2      17.7293238983      18.0000000000
10228 2      13.7247588931      16.0000000000
10229 2      14.3092473232      19.0000000000
10230 2      12.7995664983      18.0000000000
10231 2      13.1195422401      17.0000000000
10232 2      16.5162159031      19.0000000000
10233 2      14.7176562913      17.0000000000
10234 2      14.2040530111      18.0000000000
10235 2      13.1763076374      13.0000000000
10236 2      17.0877876508      21.0000000000
10237 2      14.2024815204      21.0000000000
10238 2      17.1583173531      21.0000000000
10239 2      14.7023814543      19.0000000000
10240 2      15.6240471460      15.0000000000
10241 2      13.4241875920      17.0000000000
10242 2      12.3994049257      14.0000000000
10243 2      14.9678060933      18.0000000000
10244 2      13.4439959219      21.0000000000
10245 2      13.5105092698      18.0000000000
10246 2      13.4574762198      15.0000000000
10247 2      13.6750795030      17.0000000000
10248 2      15.2658780093      19.0000000000
10249 2      15.5719102790      19.0000000000
10250 2      15.6327440239      20.0000000000
10251 2      13.3767196416      15.0000000000
10252 2      14.2781691932      19.0000000000
10253 2      14.9900145422      18.0000000000
10254 2      13.3919927265      16.0000000000
10255 2      15.3655065926      17.0000000000
10256 2      13.1133334851      19.0000000000
10257 2      13.8444085380      18.0000000000
10258 2      14.2149215980      17.0000000000
10259 2      13.3797345262      17.0000000000
10260 2      14.1167510633      17.0000000000
10261 2      15.9607355947      20.0000000000
10262 2      18.2376365498      22.0000000000
10263 2      16.1179821168      19.0000000000
10264 2      14.9262257836      16.0000000000
10265 2      13.5978117788      19.0000000000
10266 2      14.7878292113      21.0000000000
10267 2      15.1085135777      16.0000000000
10268 2      17.8169289962      16.0000000000
10269 2      16.5482440298      19.0000000000
10270 2      16.1609392529      22.0000000000
10271 2      14.9471501773      20.0000000000
10272 2      17.0354998804      22.0000000000
10273 2      12.7924441936      15.0000000000
10274 2      14.1568404309      18.0000000000
10275 2      15.6347180751      19.0000000000
10276 2      13.6866165515      16.0000000000
10277 2      13.2121840590      15.0000000000
10278 2      14.0081934752      15.0000000000
10279 2      17.3806723163      19.0000000000
10280 2      13.5303478355      19.0000000000
10281 2      14.7451237665      18.0000000000
10282 2      15.8228952045      19.0000000000
10283 2      13.2618778928      16.0000000000
10284 2      15.1043051285      15.0000000000
10285 2      12.3310019302      18.0000000000
10286 2      13.0608781292      14.0000000000
10287 2      14.9299524044      18.0000000000
10288 2      12.8345147513      14.0000000000
10289 2      16.7124459673      21.0000000000
10290 2      14.5469311611      16.0000000000
10291 2      12.2234856184      14.0000000000
10292 2      14.3509340128      16.0000000000
10293 2      14.5469308428      17.0000000000
10294 2      16.2742578462      24.0000000000
10295 2      14.1807054428      14.0000000000
10296 2      14.3420257520      16.0000000000
10297 2      14.1659126708      17.0000000000
10298 2      15.0049819822      19.0000000000
10299 2      12.9195838618      17.0000000000
10300 2      13.6833336647      17.0000000000
10301 2      13.5565421273      17.0000000000
10302 2      15.8815648371      21.0000000000
10303 2      13.3203960976      18.0000000000
10304 2      15.4971232556      18.0000000000
10305 2      17.7100984234      19.0000000000
10306 2      14.5766670440      16.0000000000
10307 2      13.6535067864      19.0000000000
10308 2      13.7117925209      17.0000000000
10309 2      15.5872231764      16.0000000000
10310 2      17.3261689814      17.0000000000
10311 2      17.3131964919      19.0000000000
10312 2      13.1157901086      17.0000000000
10313 2      16.4041004612      22.0000000000
10314 2      16.2491939806      22.0000000000
10315 2      13.4047442885      19.0000000000
10316 2      13.5286821195      14.0000000000
10317 2      14.6228017996      21.0000000000
10318 2      17.9164667369      19.0000000000
10319 2      13.4632592792      15.0000000000
10320 2      14.5377175562      18.0000000000
10321 2      15.9021575412      20.0000000000
10322 2      14.5344787299      17.0000000000
10323 2      11.3265759054      13.0000000000
10324 2      15.4479860527      18.0000000000
10325 2      12.7932556987      15.0000000000
10326 2      15.3265702531      21.0000000000
10327 2      13.5451088766      21.0000000000
10328 2      14.2137351970      22.0000000000
10329 2      15.2539239205      20.0000000000
10330 2      13.9832575576      19.0000000000
10331 2      12.8024757367      19.0000000000
10332 2      15.3308779871      18.0000000000
10333 2      15.0384683244      18.0000000000
10334 2      13.4092589057      16.0000000000
10335 2      14.7885804365      15.0000000000
10336 2      15.5409099240      19.0000000000
10337 2      15.3943864391      19.0000000000
10338 2      14.5465103011      19.0000000000
10339 2      17.2499045978      20.0000000000
10340 2      14.4323486386      18.0000000000
10341 2      17.2697001929      19.0000000000
10342 2      14.1491468937      17.0000000000
10343 2      12.6637330609      19.0000000000
10344 2      12.4463810499      17.0000000000
10345 2      15.4367426135      18.0000000000
10346 2      16.1732201951      18.0000000000
10347 2      14.5121332590      19.0000000000
10348 2      14.4749879052      17.0000000000
10349 2      15.9030021907      17.0000000000
10350 2      14.7764367806      16.0000000000
10351 2      12.8445919515      16.0000000000
10352 2      16.2629972921      23.0000000000
10353 2      12.5095941712      17.0000000000
10354 2      15.2219593077      23.0000000000
10355 2      16.5248048341      18.0000000000
10356 2      16.6359829255      16.0000000000
10357 2      16.0264994168      14.0000000000
10358 2      14.1147860444      17.0000000000
10359 2      14.2024743309      20.0000000000
10360 2      12.6316345487      15.0000000000
10361 2      14.6687043628      15.0000000000
10362 2      14.4279919238      16.0000000000
10363 2      13.8292691487      16.0000000000
10364 2      16.1665051946      18.0000000000
10365 2      12.5742359935      16.0000000000
10366 2      15.2556021434      18.0000000000
10367 2      14.6423230098      17.0000000000
10368 2      14.6213390573      18.0000000000
10369 2      14.9201325636      20.0000000000
10370 2      13.8716472242      17.0000000000
10371 2      17.6611469039      20.0000000000
10372 2      16.4408772923      20.0000000000
10373 2      12.9202025087      18.0000000000
10374 2      22.7571227271      25.0000000000
10375 2      14.6975705023      20.0000000000
10376 2      14.9399514840      22.0000000000
10377 2      13.1970465810      14.0000000000
10378 2      14.0883176526      17.0000000000
10379 2      17.3189652365      19.0000000000
10380 2      14.9981639440      16.0000000000
10381 2      13.7054706610      18.0000000000
10382 2      14.0443450848      19.0000000000
10383 2      12.9734690573      16.0000000000
10384 2      11.8699353332      17.0000000000
10385 2      15.5298055512      20.0000000000
10386 2      13.3526811575      16.0000000000
10387 2      13.8739988145      15.0000000000
10388 2      15.0284045251      22.0000000000
10389 2      17.3143209374      16.0000000000
10390 2      14.6659436974      19.0000000000
10391 2      12.8891073385      18.0000000000
10392 2      12.2127749873      15.0000000000
10393 2      12.3549894457      18.0000000000
10394 2      13.2986443371      17.0000000000
10395 2      14.6708943295      19.0000000000
10396 2      17.9118779393      20.0000000000
10397 2      16.0773908911      15.0000000000
10398 2      13.6534097012      16.0000000000
10399 2      13.1268565516      16.0000000000
10400 2      12.7458973072      18.0000000000
10401 2      14.6961865513      19.0000000000
10402 2      14.1660621974      16.0000000000
10403 2      13.9316364219      19.0000000000
10404 2      15.1219475585      21.0000000000
10405 2      14.8024820218      20.0000000000
10406 2      16.8212241711      21.0000000000
10407 2      12.2786848692      17.0000000000
10408 2      16.1647023697      18.0000000000
10409 2      14.4243330409      18.0000000000
10410 2      14.4408229996      19.0000000000
10411 2      12.9113273220      14.0000000000
10412 2      13.8074949935      14.0000000000
10413 2      12.6273048317      13.0000000000
10414 2      14.7836457307      17.0000000000
10415 2      14.2752027626      17.0000000000
10416 2      11.6345450166      19.0000000000
10417 2      17.9341286904      21.0000000000
10418 2      13.8102965529      18.0000000000
10419 2      16.5734038691      19.0000000000
10420 2      12.6967096319      14.0000000000
10421 2      12.7121510324      15.0000000000
10422 2      16.1573790801      18.0000000000
10423 2      15.2208697415      17.0000000000
10424 2      13.8243907087      18.0000000000
10425 2      16.5803618029      22.0000000000
10426 2      14.9648036947      18.0000000000
10427 2      16.9411701933      23.0000000000
10428 2      14.7434703022      15.0000000000
10429 2      15.6208952774      17.0000000000
10430 2      12.4175969542      15.0000000000
10431 2      18.9140889264      23.0000000000
10432 2      14.8562423337      16.0000000000
10433 2      13.5460237334      18.0000000000
10434 2      13.4336334592      19.0000000000
10435 2      13.8282217226      18.0000000000
10436 2      14.5500964566      17.0000000000
10437 2      16.0398834343      21.0000000000
10438 2      15.4591131941      21.0000000000
10439 2      13.6313667406      18.0000000000
10440 2      14.8949873554      19.0000000000
10441 2      17.4930489999      21.0000000000
10442 2      15.6755983662      21.0000000000
10443 2      14.1836196227      19.0000000000
10444 2      15.8253606493      20.0000000000
10445 2      15.7018868636      18.0000000000
10446 2      15.0094671293      20.0000000000
10447 2      12.9663700961      16.0000000000
10448 2      13.1824034378      17.0000000000
10449 2      13.6044242242      18.0000000000
10450 2      15.0356482920      16.0000000000
10451 2      15.8182747203      20.0000000000
10452 2      13.5805602778      18.0000000000
10453 2      14.9713832153      21.0000000000
10454 2      13.2131455250      13.0000000000
10455 2      15.0337519169      20.0000000000
10456 2      13.2939101524      17.0000000000
10457 2      13.8626924875      19.0000000000
10458 2      12.2006781191      14.0000000000
10459 2      15.8626278968      19.0000000000
10460 2      13.0572724302      16.0000000000
10461 2      14.6015748634      18.0000000000
10462 2      15.8560494610      22.0000000000
10463 2      14.9623157566      19.0000000000
10464 2      15.2365224833      21.0000000000
10465 2      16.8030526703      16.0000000000
10466 2      16.7876737633      19.0000000000
10467 2      14.7504318830      18.0000000000
10468 2      15.4940435996      21.0000000000
10469 2      17.6191725707      25.0000000000
10470 2      14.4171603579      16.0000000000
10471 2      12.6813719920      16.0000000000
10472 2      15.5864857333      17.0000000000
10473 2      13.1437688509      19.0000000000
10474 2      13.6427613011      17.0000000000
10475 2      13.4295671201      16.0000000000
10476 2      13.6324009625      16.0000000000
10477 2      13.3019105735      18.0000000000
10478 2      14.8599790689      19.0000000000
10479 2      14.4918700622      16.0000000000
10480 2      13.2386176762      16.0000000000
10481 2      12.9325768982      19.0000000000
10482 2      15.2016046514      21.0000000000
10483 2      13.2607469863      19.0000000000
10484 2      14.6765762286      16.0000000000
10485 2      12.7752390153      15.0000000000
10486 2      16.4542514533      20.0000000000
10487 2      15.5258700205      19.0000000000
10488 2      15.1801649554      18.0000000000
10489 2      14.1422747064      17.0000000000
10490 2      12.7773745241      17.0000000000
10491 2      13.6265112395      18.0000000000
10492 2      13.3043025124      17.0000000000
10493 2      14.4019351955      17.0000000000
10494 2      14.3017699066      19.0000000000
10495 2      16.1044445208      18.0000000000
10496 2      14.8501197026      20.0000000000
10497 2      15.3386507417      18.0000000000
10498 2      15.8987391507      17.0000000000
10499 2      15.6721767796      21.0000000000
10500 2      16.7964347831      19.0000000000
10501 2      17.5377697043      18.0000000000
10502 2      14.3954708506      18.0000000000
10503 2      15.6767238665      17.0000000000
10504 2      14.6567111051      18.0000000000
10505 2      14.5238297807      20.0000000000
10506 2      14.6229480063      17.0000000000
10507 2      13.0574831799      15.0000000000
10508 2      15.4552461045      19.0000000000
10509 2      15.0930084915      18.0000000000
10510 2      14.6485523623      18.0000000000
10511 2      14.1531897582      17.0000000000
10512 2      14.4860964524      19.0000000000
10513 2      12.7241286376      19.0000000000
10514 2      15.3422677112      23.0000000000
10515 2      16.2238498523      20.0000000000
10516 2      13.2221179932      19.0000000000
10517 2      17.8380141859      21.0000000000
10518 2      12.7308516294      15.0000000000
10519 2      15.5103176184      15.0000000000
10520 2      13.8805283476      18.0000000000
10521 2      16.8979752777      19.0000000000
10522 2      16.6167347055      20.0000000000
10523 2      16.7934814221      18.0000000000
10524 2      15.5190931394      18.0000000000
10525 2      13.7206455402      20.0000000000
10526 2      19.6164022961      18.0000000000
10527 2      13.3471125635      16.0000000000
10528 2      15.2587061945      18.0000000000
10529 2      12.2617695265      15.0000000000
10530 2      16.1906420897      18.0000000000
10531 2      12.5935619787      17.0000000000
10532 2      12.6271194438      16.0000000000
10533 2      12.4914234852      14.0000000000
10534 2      13.2290452080      19.0000000000
10535 2      17.4359480135      18.0000000000
10536 2      13.8757761111      17.0000000000
10537 2      15.9805285615      18.0000000000
10538 2      14.8857649182      20.0000000000
10539 2      15.3852656389      18.0000000000
10540 2      14.1414550843      18.0000000000
10541 2      13.9570391557      17.0000000000
10542 2      13.8463918848      20.0000000000
10543 2      14.2652361612      20.0000000000
10544 2      12.9411412821      18.0000000000
10545 2      14.1845202255      17.0000000000
10546 2      14.5094548089      17.0000000000
10547 2      13.5364871603      21.0000000000
10548 2      12.4035686562      15.0000000000
10549 2      16.4300234918      19.0000000000
10550 2      15.1866813797      19.0000000000
10551 2      14.6332211802      19.0000000000
10552 2      13.7334589410      20.0000000000
10553 2      13.9119005606      18.0000000000
10554 2      14.3646406284      21.0000000000
10555 2      14.4058703956      17.0000000000
10556 2      13.4210300584      17.0000000000
10557 2      11.9216765358      14.0000000000
10558 2      15.0946470026      20.0000000000
10559 2      16.0527079267      17.0000000000
10560 2      14.9740747405      18.0000000000
10561 2      14.5626742434      19.0000000000
10562 2      14.5321759556      19.0000000000
10563 2      13.0928886229      19.0000000000
10564 2      13.3604641291      18.0000000000
10565 2      13.8126970672      19.0000000000
10566 2      15.4362205098      20.0000000000
10567 2      17.7488589891      23.0000000000
10568 2      18.5559588813      19.0000000000
10569 2      15.6909240255      22.0000000000
10570 2      13.6920499468      20.0000000000
10571 2      12.9954125564      18.0000000000
10572 2      14.2832205980      17.0000000000
10573 2      11.6001368999      14.0000000000
10574 2      13.1496884065      16.0000000000
10575 2      13.9050909149      19.0000000000
10576 2      13.9401185126      16.0000000000
10577 2      15.3842998365      19.0000000000
10578 2      14.7535003989      17.0000000000
10579 2      12.4753739945      15.0000000000
10580 2      13.1973295628      18.0000000000
10581 2      14.0016523290      16.0000000000
10582 2      15.4819654544      16.0000000000
10583 2      13.9305161895      14.0000000000
10584 2      12.9154387499      17.0000000000
10585 2      14.0117308299      20.0000000000
10586 2      14.3311711870      17.0000000000
10587 2      16.9660460997      20.0000000000
10588 2      18.2297499811      20.0000000000
10589 2      15.1028347369      17.0000000000
10590 2      16.7698579504      19.0000000000
10591 2      14.7389316259      19.0000000000
10592 2      13.5079141679      22.0000000000
10593 2      15.3403777388      14.0000000000
10594 2      14.0477299617      16.0000000000
10595 2      14.7358720250      17.0000000000
10596 2      14.6849033243      17.0000000000
10597 2      12.0197303331      16.0000000000
10598 2      16.2457080172      23.0000000000
10599 2      14.6127195163      19.0000000000
10600 2      14.6279303321      15.0000000000
10601 2      14.7249363263      19.0000000000
10602 2      15.6778640778      20.0000000000
10603 2      13.1979962185      17.0000000000
10604 2      14.5767971577      17.0000000000
10605 2      15.7828470728      17.0000000000
10606 2      18.3221341503      24.0000000000
10607 2      12.8286614864      17.0000000000
10608 2      16.0451616033      21.0000000000
10609 2      17.0294304480      22.0000000000
10610 2      15.4273851511      15.0000000000
10611 2      14.1255739535      20.0000000000
10612 2      16.8463951144      19.0000000000
10613 2      12.4611580288      15.0000000000
10614 2      13.7528187881      17.0000000000
10615 2      15.3747170515      20.0000000000
10616 2      14.5241159277      17.0000000000
10617 2      13.9476752650      18.0000000000
10618 2      17.4052030708      17.0000000000
10619 2      12.7142587051      16.0000000000
10620 2      15.4820867841      17.0000000000
10621 2      14.7807694285      19.0000000000
10622 2      14.3138282646      14.0000000000
10623 2      12.7648506733      14.0000000000
10624 2      16.8867105220      21.0000000000
10625 2      15.0808041717      19.0000000000
10626 2      11.2693173959      13.0000000000
10627 2      16.8965975777      25.0000000000
10628 2      14.4867451676      18.0000000000
10629 2      15.8904647286      16.0000000000
10630 2      16.2679577411      19.0000000000
10631 2      16.6663941751      20.0000000000
10632 2      13.3536766980      17.0000000000
10633 2      17.1079208204      22.0000000000
10634 2      12.2860443285      15.0000000000
10635 2      12.9668088537      18.0000000000
10636 2      14.4654855000      16.0000000000
10637 2      14.1503088417      17.0000000000
10638 2      15.6720556816      18.0000000000
10639 2      13.9654249178      17.0000000000
10640 2      12.9255387877      15.0000000000
10641 2      13.2110330518      20.0000000000
10642 2      13.9196097347      18.0000000000
10643 2      14.0565411666      18.0000000000
10644 2      14.5065341907      17.0000000000
10645 2      14.4911066624      17.0000000000
10646 2      17.9641905842      18.0000000000
10647 2      14.7511023022      20.0000000000
10648 2      13.5399271290      17.0000000000
10649 2      11.7461331808      12.0000000000
10650 2      13.0870262082      18.0000000000
10651 2      14.3128857951      17.0000000000
10652 2      15.5893759009      15.0000000000
10653 2      16.0139627763      18.0000000000
10654 2      13.4639755625      15.0000000000
10655 2      14.9209003091      15.0000000000
10656 2      13.9104326069      16.0000000000
10657 2      15.8922048503      18.0000000000
10658 2      11.7032019591      17.0000000000
10659 2      15.4874244239      20.0000000000
10660 2      12.6502740641      13.0000000000
10661 2      18.6211830869      20.0000000000
10662 2      14.8509733876      21.0000000000
10663 2      14.1436823106      18.0000000000
10664 2      14.8660492977      16.0000000000
10665 2      15.6333356616      17.0000000000
10666 2      13.3693231757      18.0000000000
10667 2      13.3535953907      19.0000000000
10668 2      14.4038506256      19.0000000000
10669 2      14.5333303932      14.0000000000
10670 2      14.4966340281      17.0000000000
10671 2      12.9982589936      17.0000000000
10672 2      16.6606693057      18.0000000000
10673 2      14.2986225001      16.0000000000
10674 2      13.6839872274      15.0000000000
10675 2      15.7443115412      18.0000000000
10676 2      13.9963430568      18.0000000000
10677 2      15.7153093345      14.0000000000
10678 2      18.0226987719      19.0000000000
10679 2      12.7421116812      15.0000000000
10680 2      14.7125068183      19.0000000000
10681 2      15.6289593691      19.0000000000
10682 2      14.9651965997      20.0000000000
10683 2      14.6207100743      20.0000000000
10684 2      11.5316361986      15.0000000000
10685 2      13.2384486614      17.0000000000
10686 2      11.8467734802      16.0000000000
10687 2      12.0487701101      16.0000000000
10688 2      15.8848896147      20.0000000000
10689 2      15.4905333824      22.0000000000
10690 2      14.6373523368      19.0000000000
10691 2      13.8026827144      19.0000000000
10692 2      18.1193840079      20.0000000000
10693 2      17.3846697240      21.0000000000
10694 2      18.1858480394      23.0000000000
10695 2      14.7904870534      20.0000000000
10696 2      14.0252655629      18.0000000000
10697 2      15.1107772149      16.0000000000
10698 2      14.8253632115      17.0000000000
10699 2      15.2796930461      19.0000000000
10700 2      17.3598281839      22.0000000000
10701 2      15.2823893520      21.0000000000
10702 2      16.2908170915      18.0000000000
10703 2      14.6853489471      18.0000000000
10704 2      12.6613553135      15.0000000000
10705 2      12.6731991090      15.0000000000
10706 2      15.6663349922      24.0000000000
10707 2      13.9674445086      18.0000000000
10708 2      13.4690619655      15.0000000000
10709 2      15.3104386954      22.0000000000
10710 2      17.7236517005      19.0000000000
10711 2      15.4512118653      20.0000000000
10712 2      14.8419936255      17.0000000000
10713 2      15.3927901725      17.0000000000
10714 2      17.4644944517      20.0000000000
10715 2      13.3189011612      18.0000000000
10716 2      15.4423605696      17.0000000000
10717 2      16.3601558673      16.0000000000
10718 2      15.9987006731      20.0000000000
10719 2      13.4481909288      18.0000000000
10720 2      11.8200741092      17.0000000000
10721 2      14.5150369573      19.0000000000
10722 2      14.7341264094      15.0000000000
10723 2      12.7981202145      17.0000000000
10724 2      13.9880832171      18.0000000000
10725 2      13.4420707533      17.0000000000
10726 2      15.2661517618      18.0000000000
10727 2      12.3011188800      17.0000000000
10728 2      15.2663827109      20.0000000000
10729 2      11.8834199192      14.0000000000
10730 2      13.7895092664      15.0000000000
10731 2      14.7261644951      18.0000000000
10732 2      12.0942049544      17.0000000000
10733 2      12.6291661864      18.0000000000
10734 2      13.8423587235      17.0000000000
10735 2      14.4490404245      18.0000000000
10736 2      12.3669321660      16.0000000000
10737 2      13.5358562249      15.0000000000
10738 2      15.7977804538      23.0000000000
10739 2      14.2495628662      16.0000000000
10740 2      14.5910852311      18.0000000000
10741 2      14.5638091506      16.0000000000
10742 2      13.6489556734      17.0000000000
10743 2      14.8825598225      17.0000000000
10744 2      17.4176466361      23.0000000000
10745 2      15.0974875934      18.0000000000
10746 2      15.1642454337      17.0000000000
10747 2      14.2470015725      18.0000000000
10748 2      15.2468613480      22.0000000000
10749 2      15.2805331026      20.0000000000
10750 2      14.8877118817      20.0000000000
10751 2      13.9553522302      17.0000000000
10752 2      15.6278065419      17.0000000000
10753 2      13.6740334719      18.0000000000
10754 2      14.9825412452      15.0000000000
10755 2      15.0411042299      17.0000000000
10756 2      16.5531566224      21.0000000000
10757 2      15.2318628625      20.0000000000
10758 2      15.1594437276      19.0000000000
10759 2      16.5216309334      19.0000000000
10760 2      14.3855650945      20.0000000000
10761 2      11.0770184434      13.0000000000
10762 2      13.0105716866      15.0000000000
10763 2      14.3785211918      19.0000000000
10764 2      16.4838200898      17.0000000000
10765 2      14.5172158306      17.0000000000
10766 2      17.4628956078      21.0000000000
10767 2      13.8334760377      17.0000000000
10768 2      15.8674499375      19.0000000000
10769 2      13.6825171941      16.0000000000
10770 2      16.6502935400      23.0000000000
10771 2      11.5429333773      12.0000000000
10772 2      14.2572180927      18.0000000000
10773 2      14.6849982560      16.0000000000
10774 2      11.7396920309      17.0000000000
10775 2      15.7837626884      19.0000000000
10776 2      14.6897164063      16.0000000000
10777 2      17.1973310761      19.0000000000
10778 2      14.4176842095      18.0000000000
10779 2      17.5191031674      22.0000000000
10780 2      13.9336596387      18.0000000000
10781 2      11.7821585158      17.0000000000
10782 2      12.3368461457      16.0000000000
10783 2      11.4074597645      13.0000000000
10784 2      15.7040381155      19.0000000000
10785 2      13.9068971500      19.0000000000
10786 2      17.2798121255      20.0000000000
10787 2      20.4842722098      18.0000000000
10788 2      13.0279686000      18.0000000000
10789 2      12.7982302490      13.0000000000
10790 2      12.8328599991      15.0000000000
10791 2      15.5146650555      17.0000000000
10792 2      14.5366075849      17.0000000000
10793 2      16.3884962657      19.0000000000
10794 2      15.7777432068      18.0000000000
10795 2      17.6451836834      20.0000000000
10796 2      16.5108972220      21.0000000000
10797 2      14.5831424647      19.0000000000
10798 2      14.6363692286      14.0000000000
10799 2      12.6197630103      14.0000000000
10800 2      14.1879459804      17.0000000000
10801 2      16.2388772934      19.0000000000
10802 2      12.5422677476      15.0000000000
10803 2      11.8132023827      13.0000000000
10804 2      17.1151655550      22.0000000000
10805 2      13.8578527511      19.0000000000
10806 2      15.7280259833      23.0000000000
10807 2      16.5595287006      19.0000000000
10808 2      15.0525288073      20.0000000000
10809 2      13.0724166561      20.0000000000
10810 2      15.3844853993      21.0000000000
10811 2      15.0171848786      17.0000000000
10812 2      15.8712605196      21.0000000000
10813 2      14.7015612088      20.0000000000
10814 2      13.1542739542      15.0000000000
10815 2      15.2197173741      19.0000000000
10816 2      14.7334493265      20.0000000000
10817 2      15.3398404604      18.0000000000
10818 2      17.6974457863      16.0000000000
10819 2      14.7378784594      14.0000000000
10820 2      14.7384499488      16.0000000000
10821 2      13.8736229503      14.0000000000
10822 2      14.8063445223      15.0000000000
10823 2      15.2171829731      18.0000000000
10824 2      12.3119992923      14.0000000000
10825 2      13.3955974410      15.0000000000
10826 2      11.8285326884      11.0000000000
10827 2      13.2064040791      20.0000000000
10828 2      12.9659249866      16.0000000000
10829 2      16.0373047417      19.0000000000
10830 2      17.0901925993      19.0000000000
10831 2      16.7158802329      20.0000000000
10832 2      13.2528731499      15.0000000000
10833 2      15.0221040621      16.0000000000
10834 2      16.1171589073      17.0000000000
10835 2      15.7898393071      19.0000000000
10836 2      15.5383939868      18.0000000000
10837 2      13.4218899175      17.0000000000
10838 2      14.7342834111      19.0000000000
10839 2      15.5983371128      18.0000000000
10840 2      13.5938018740      19.0000000000
10841 2      13.5665832136      18.0000000000
10842 2      12.9004575754      16.0000000000
10843 2      14.7573667811      17.0000000000
10844 2      15.4330173009      20.0000000000
10845 2      14.5691436460      15.0000000000
10846 2      13.1606473738      15.0000000000
10847 2      16.4760383549      19.0000000000
10848 2      12.6584091065      14.0000000000
10849 2      13.1600207910      19.0000000000
10850 2      15.1146195167      20.0000000000
10851 2      14.0172644644      19.0000000000
10852 2      14.1202544219      17.0000000000
10853 2      12.4556866911      13.0000000000
10854 2      13.4336266940      14.0000000000
10855 2      14.1354952377      20.0000000000
10856 2      13.9214550593      18.0000000000
10857 2      14.0419323502      17.0000000000
10858 2      17.8644219315      22.0000000000
10859 2      15.2886282466      17.0000000000
10860 2      13.5909338324      17.0000000000
10861 2      14.3756473684      16.0000000000
10862 2      12.5901463977      22.0000000000
10863 2      15.1807077507      19.0000000000
10864 2      13.5665991142      19.0000000000
10865 2      15.9379277061      21.0000000000
10866 2      16.1641589504      18.0000000000
10867 2      16.9411473626      17.0000000000
10868 2      13.9843035216      21.0000000000
10869 2      17.3726082713      19.0000000000
10870 2      13.6776195572      17.0000000000
10871 2      15.4641019874      16.0000000000
10872 2      14.3515696842      16.0000000000
10873 2      14.3696883299      20.0000000000
10874 2      16.1564717994      18.0000000000
10875 2      13.5229728549      19.0000000000
10876 2      11.6821524533      15.0000000000
10877 2      18.9519320582      26.0000000000
10878 2      13.8624635469      17.0000000000
10879 2      16.1259603830      22.0000000000
10880 2      14.4402043702      17.0000000000
10881 2      15.9393353387      18.0000000000
10882 2      12.7003701882      18.0000000000
10883 2      14.3781705177      18.0000000000
10884 2      14.9089539249      19.0000000000
10885 2      13.2807582292      16.0000000000
10886 2      13.9763040775      16.0000000000
10887 2      12.2345946199      16.0000000000
10888 2      14.6253522153      20.0000000000
10889 2      14.4904873941      17.0000000000
10890 2      16.9032784813      20.0000000000
10891 2      14.5019930246      22.0000000000
10892 2      12.6161732252      16.0000000000
10893 2      15.2749539310      17.0000000000
10894 2      13.7734296794      17.0000000000
10895 2      15.6203604432      19.0000000000
10896 2      14.0106914680      17.0000000000
10897 2      14.8742670771      17.0000000000
10898 2      14.9609984246      18.0000000000
10899 2      15.3862008591      19.0000000000
10900 2      14.8561383935      20.0000000000
10901 2      13.9215644576      17.0000000000
10902 2      13.3882588856      14.0000000000
10903 2      18.9163869287      18.0000000000
10904 2      14.0249515467      19.0000000000
10905 2      14.2521950129      16.0000000000
10906 2      19.0241090695      21.0000000000
10907 2      15.2760066455      19.0000000000
10908 2      13.2252282519      21.0000000000
10909 2      13.9042542169      20.0000000000
10910 2      13.7307846589      18.0000000000
10911 2      14.7582774463      19.0000000000
10912 2      12.8481245441      15.0000000000
10913 2      12.8790520814      18.0000000000
10914 2      13.9548141861      17.0000000000
10915 2      16.7514142151      21.0000000000
10916 2      13.7375537343      15.0000000000
10917 2      12.5605006835      17.0000000000
10918 2      13.0805913052      16.0000000000
10919 2      13.9412268450      19.0000000000
10920 2      12.8121026239      15.0000000000
10921 2      16.6674830633      19.0000000000
10922 2      16.4409405118      16.0000000000
10923 2      12.9096407249      16.0000000000
10924 2      15.3891483072      24.0000000000
10925 2      14.9877974176      18.0000000000
10926 2      15.4289463220      16.0000000000
10927 2      12.6170010109      18.0000000000
10928 2      13.2108257351      14.0000000000
10929 2      13.1068267341      15.0000000000
10930 2      15.1231151023      19.0000000000
10931 2      13.0800212336      16.0000000000
10932 2      14.9922103234      13.0000000000
10933 2      14.3638664302      18.0000000000
10934 2      16.2435176312      16.0000000000
10935 2      11.8360037542      16.0000000000
10936 2      15.0434740662      16.0000000000
10937 2      11.2161547617      15.0000000000
10938 2      14.6694248313      18.0000000000
10939 2      14.1709128407      18.0000000000
10940 2      17.9530345227      20.0000000000
10941 2      16.5062456851      21.0000000000
10942 2      16.1106266956      16.0000000000
10943 2      16.3353502067      19.0000000000
10944 2      12.7117994875      14.0000000000
10945 2      15.9134888300      18.0000000000
10946 2      14.6989830501      19.0000000000
10947 2      14.8137267656      18.0000000000
10948 2      15.4430158968      17.0000000000
10949 2      15.1181747360      18.0000000000
10950 2      16.1841605799      18.0000000000
10951 2      13.4177437393      18.0000000000
10952 2      13.4468773065      16.0000000000
10953 2      16.0545437414      18.0000000000
10954 2      12.8565276608      15.0000000000
10955 2      12.9228592843      16.0000000000
10956 2      13.5004715263      20.0000000000
10957 2      13.1125216738      16.0000000000
10958 2      15.4476244796      16.0000000000
10959 2      13.5625516926      20.0000000000
10960 2      15.2683704260      18.0000000000
10961 2      14.2890683353      18.0000000000
10962 2      13.9430557014      16.0000000000
10963 2      12.9126277042      16.0000000000
10964 2      18.9578060073      21.0000000000
10965 2      16.4933587939      23.0000000000
10966 2      17.5766321622      22.0000000000
10967 2      12.9061628818      18.0000000000
10968 2      15.1275739207      23.0000000000
10969 2      14.4334164464      16.0000000000
10970 2      14.5489823734      18.0000000000
10971 2      15.4892360370      17.0000000000
10972 2      13.7576520141      15.0000000000
10973 2      13.7123404879      18.0000000000
10974 2      15.0465454897      18.0000000000
10975 2      14.8456896904      21.0000000000
10976 2      15.4067814348      18.0000000000
10977 2      12.7416248844      13.0000000000
10978 2      14.8417174226      18.0000000000
10979 2      13.4030608788      19.0000000000
10980 2      14.4688046214      21.0000000000
10981 2      13.3768665686      15.0000000000
10982 2      15.5418380107      19.0000000000
10983 2      15.6765679801      18.0000000000
10984 2      15.7926068733      18.0000000000
10985 2      15.0011730198      16.0000000000
10986 2      16.5964089851      17.0000000000
10987 2      16.1527481624      20.0000000000
10988 2      14.5231283764      20.0000000000
10989 2      15.1856222231      18.0000000000
10990 2      17.1796641648      20.0000000000
10991 2      15.2292973465      20.0000000000
10992 2      13.5462944007      19.0000000000
10993 2      14.3643377331      18.0000000000
10994 2      13.9368517690      18.0000000000
10995 2      16.1630444517      17.0000000000
10996 2      13.6651236214      16.0000000000
10997 2      14.2689912305      17.0000000000
10998 2      13.8251788939      17.0000000000
10999 2      13.9010959493      20.0000000000
11000 2      15.5143601201      21.0000000000
11001 2      15.1753375215      17.0000000000
11002 2      13.6606860251      19.0000000000
11003 2      13.0607471387      17.0000000000
11004 2      16.3944602174      19.0000000000
11005 2      18.4665828825      22.0000000000
11006 2      16.6019690308      18.0000000000
11007 2      14.6626417515      17.0000000000
11008 2      11.9043929602      13.0000000000
11009 2      14.3272223670      18.0000000000
11010 2      13.3736589420      16.0000000000
11011 2      15.0434722327      20.0000000000
11012 2      16.5387677159      21.0000000000
11013 2      17.0971814758      18.0000000000
11014 2      15.3231320640      18.0000000000
11015 2      15.9337175352      19.0000000000
11016 2      14.1209929587      15.0000000000
11017 2      18.2589669315      23.0000000000
11018 2      13.8549852842      21.0000000000
11019 2      14.3823782083      16.0000000000
11020 2      15.3408396547      20.0000000000
11021 2      17.4074742947      18.0000000000
11022 2      13.4218464779      18.0000000000
11023 2      14.1355033562      17.0000000000
11024 2      16.2037685407      17.0000000000
11025 2      13.8784848847      18.0000000000
11026 2      14.9833488007      17.0000000000
11027 2      13.6269237305      17.0000000000
11028 2      13.0941829016      14.0000000000
11029 2      14.2883342393      18.0000000000
11030 2      13.3161374042      15.0000000000
11031 2      16.5211878123      17.0000000000
11032 2      11.9389514529      16.0000000000
11033 2      13.8509688141      17.0000000000
11034 2      16.6243623289      20.0000000000
11035 2      13.6013969342      18.0000000000
11036 2      12.7234564702      15.0000000000
11037 2      14.2540396227      17.0000000000
11038 2      13.7947222963      16.0000000000
11039 2      12.6138278404      18.0000000000
11040 2      13.5448028909      22.0000000000
11041 2      12.9866056012      17.0000000000
11042 2      15.1922728947      21.0000000000
11043 2      15.2557810997      20.0000000000
11044 2      15.8498615521      19.0000000000
11045 2      14.8144171709      19.0000000000
11046 2      14.6949671625      18.0000000000
11047 2      13.8612526098      17.0000000000
11048 2      14.7366407679      20.0000000000
11049 2      13.6055550158      18.0000000000
11050 2      13.9825661572      18.0000000000
11051 2      17.6887894735      23.0000000000
11052 2      15.9010961104      21.0000000000
11053 2      15.0719830490      21.0000000000
11054 2      13.3608574332      20.0000000000
11055 2      13.2652086136      18.0000000000
11056 2      15.5387628760      19.0000000000
11057 2      16.0090814352      20.0000000000
11058 2      18.9531145476      21.0000000000
11059 2      16.5097931125      22.0000000000
11060 2      14.5704177384      20.0000000000
11061 2      13.1851594919      19.0000000000
11062 2      16.1422904431      19.0000000000
11063 2      16.2171509069      20.0000000000
11064 2      15.2629670693      19.0000000000
11065 2      15.0411166867      19.0000000000
11066 2      14.6027872593      18.0000000000
11067 2      15.4006554723      21.0000000000
11068 2      14.2871223259      19.0000000000
11069 2      14.5980324331      21.0000000000
11070 2      14.9821075236      21.0000000000
11071 2      14.8576681513      17.0000000000
11072 2      14.0636653596      18.0000000000
11073 2      14.7514393566      17.0000000000
11074 2      17.5170007293      21.0000000000
11075 2      14.8887672793      18.0000000000
11076 2      16.3284452886      20.0000000000
11077 2      15.6973833734      20.0000000000
11078 2      13.1987215628      16.0000000000
11079 2      15.2941539299      17.0000000000
11080 2      15.0002118511      19.0000000000
11081 2      15.9324135490      23.0000000000
11082 2      15.9347917426      19.0000000000
11083 2      14.4118183973      17.0000000000
11084 2      13.6503118032      15.0000000000
11085 2      14.2640025108      16.0000000000
11086 2      14.0725570957      20.0000000000
11087 2      16.1283373630      19.0000000000
11088 2      14.2246755274      19.0000000000
11089 2      13.5199926083      14.0000000000
11090 2      14.7307812048      16.0000000000
11091 2      14.6547554765      20.0000000000
11092 2      12.5376659565      16.0000000000
11093 2      17.4190100734      20.0000000000
11094 2      16.0826665385      21.0000000000
11095 2      13.4509269662      17.0000000000
11096 2      11.3722117217      14.0000000000
11097 2      13.5763656780      18.0000000000
11098 2      15.0874959586      19.0000000000
11099 2      14.2735594689      21.0000000000
11100 2      12.1802505448      13.0000000000
11101 2      14.2371396837      13.0000000000
11102 2      14.9389904754      20.0000000000
11103 2      15.8894527633      19.0000000000
11104 2      13.4281663184      19.0000000000
11105 2      14.9541347679      19.0000000000
11106 2      16.3743223158      19.0000000000
11107 2      15.6134544223      19.0000000000
11108 2      14.1936512806      17.0000000000
11109 2      15.9837601894      22.0000000000
11110 2      15.4155995786      25.0000000000
11111 2      13.3229074674      17.0000000000
11112 2      13.6982184296      21.0000000000
11113 2      16.7308042274      20.0000000000
11114 2      13.8282268576      20.0000000000
11115 2      13.7849185428      19.0000000000
11116 2      16.9165092870      21.0000000000
11117 2      14.4288363025      19.0000000000
11118 2      12.3855429316      18.0000000000
11119 2      15.2129147110      19.0000000000
11120 2      12.9844636863      15.0000000000
11121 2      15.7025550303      23.0000000000
11122 2      15.7810575863      19.0000000000
11123 2      15.9565030370      17.0000000000
11124 2      17.0746716745      19.0000000000
11125 2      15.7528731241      20.0000000000
11126 2      11.4472572394      16.0000000000
11127 2      16.5836576049      22.0000000000
11128 2      16.5479195381      20.0000000000
11129 2      13.2882352985      16.0000000000
11130 2      13.9643392519      18.0000000000
11131 2      14.1588695408      16.0000000000
11132 2      14.2129983096      14.0000000000
11133 2      17.3050099465      21.0000000000
11134 2      16.2775090298      23.0000000000
11135 2      14.4768757231      17.0000000000
11136 2      15.1093468273      18.0000000000
11137 2      12.8646427366      17.0000000000
11138 2      12.3579460345      17.0000000000
11139 2      16.1948584423      20.0000000000
11140 2      16.3042111594      22.0000000000
11141 2      14.6937212414      17.0000000000
11142 2      13.6354690181      15.0000000000
11143 2      12.9409470985      18.0000000000
11144 2      13.5729679380      16.0000000000
11145 2      13.5324809511      20.0000000000
11146 2      15.7570432666      17.0000000000
11147 2      14.4619161480      20.0000000000
11148 2      13.9387814875      18.0000000000
11149 2      12.6234417514      21.0000000000
11150 2      13.0149380195      16.0000000000
11151 2      13.4362264192      18.0000000000
11152 2      12.9236722848      16.0000000000
11153 2      17.5350989854      21.0000000000
11154 2      12.8958280927      18.0000000000
11155 2      14.0475416858      16.0000000000
11156 2      13.5762179341      15.0000000000
11157 2      14.0952868984      20.0000000000
11158 2      14.2844254954      15.0000000000
11159 2      12.5011017975      16.0000000000
11160 2      13.2891072637      16.0000000000
11161 2      16.0744997849      18.0000000000
11162 2      15.5880114086      21.0000000000
11163 2      14.9983605209      19.0000000000
11164 2      12.9285064799      16.0000000000
11165 2      12.5896577990      16.0000000000
11166 2      11.9711733274      18.0000000000
11167 2      14.1921191407      15.0000000000
11168 2      15.9189601796      16.0000000000
11169 2      16.8251703752      20.0000000000
11170 2      16.5021944198      17.0000000000
11171 2      15.5833047673      17.0000000000
11172 2      15.5934846048      18.0000000000
11173 2      13.9499778975      19.0000000000
11174 2      15.4856264812      15.0000000000
11175 2      13.7639081341      17.0000000000
11176 2      14.9736123442      18.0000000000
11177 2      18.2052342663      20.0000000000
11178 2      14.2387817949      17.0000000000
11179 2      16.3131003927      19.0000000000
11180 2      15.2973684719      20.0000000000
11181 2      12.0648334710      13.0000000000
11182 2      13.8677522785      19.0000000000
11183 2      14.1455616312      20.0000000000
11184 2      12.5628581734      17.0000000000
11185 2      13.1264432505      20.0000000000
11186 2      12.8658316960      18.0000000000
11187 2      12.8278834985      20.0000000000
11188 2      13.6754429591      15.0000000000
11189 2      12.6007167458      14.0000000000
11190 2      13.1867007990      18.0000000000
11191 2      13.6370354306      18.0000000000
11192 2      13.3355625380      18.0000000000
11193 2      14.7017723129      19.0000000000
11194 2      17.3000994469      22.0000000000
11195 2      13.5977493139      16.0000000000
11196 2      14.8315192214      19.0000000000
11197 2      14.2856710222      18.0000000000
11198 2      16.7580716391      20.0000000000
11199 2      14.9148491360      17.0000000000
11200 2      11.4111515608      13.0000000000
11201 2      15.9394148768      24.0000000000
11202 2      17.1198371546      19.0000000000
11203 2      14.5101595710      21.0000000000
11204 2      15.6629576932      16.0000000000
11205 2      16.5631439632      25.0000000000
11206 2      12.5794788212      20.0000000000
11207 2      15.5585420407      20.0000000000
11208 2      16.5663143432      21.0000000000
11209 2      14.6359660175      18.0000000000
11210 2      15.3707612791      19.0000000000
11211 2      16.8120647447      25.0000000000
11212 2      13.3392018551      17.0000000000
11213 2      15.1496593755      17.0000000000
11214 2      14.2048755162      18.0000000000
11215 2      16.4051026729      22.0000000000
11216 2      14.1284759759      19.0000000000
11217 2      16.4587889972      17.0000000000
11218 2      14.7044918280      16.0000000000
11219 2      14.7755819802      15.0000000000
11220 2      16.6153500324      21.0000000000
11221 2      14.3017839646      16.0000000000
11222 2      15.1252820971      19.0000000000
11223 2      13.8212830963      17.0000000000
11224 2      11.9339898620      12.0000000000
11225 2      12.8463441182      16.0000000000
11226 2      12.3280595699      16.0000000000
11227 2      16.9804296490      23.0000000000
11228 2      15.2602217807      19.0000000000
11229 2      13.7736627213      19.0000000000
11230 2      13.8215327085      17.0000000000
11231 2      15.1497433964      20.0000000000
11232 2      15.5635012310      20.0000000000
11233 2      14.7739312040      18.0000000000
11234 2      17.9612713347      21.0000000000
11235 2      15.3707253950      19.0000000000
11236 2      14.7343209568      18.0000000000
11237 2      14.1603483002      17.0000000000
11238 2      16.1190407645      20.0000000000
11239 2      15.0881352512      21.0000000000
11240 2      13.3257986621      18.0000000000
11241 2      12.4205213811      18.0000000000
11242 2      14.1626669356      14.0000000000
11243 2      13.8731973121      19.0000000000
11244 2      13.1970838415      15.0000000000
11245 2      14.3365278517      16.0000000000
11246 2      17.0255294073      20.0000000000
11247 2      14.8749270802      16.0000000000
11248 2      16.8537614734      21.0000000000
11249 2      14.4011135891      21.0000000000
11250 2      12.9858137820      17.0000000000
11251 2      13.8695568182      16.0000000000
11252 2      12.9506900430      17.0000000000
11253 2      17.2181051945      18.0000000000
11254 2      16.6668379704      23.0000000000
11255 2      14.1678711616      19.0000000000
11256 2      14.0207956663      15.0000000000
11257 2      14.3510633848      18.0000000000
11258 2      15.3120047457      18.0000000000
11259 2      15.9744215340      20.0000000000
11260 2      17.3959092121      20.0000000000
11261 2      12.7927508729      15.0000000000
11262 2      18.2353315094      21.0000000000
11263 2      12.3792316399      18.0000000000
11264 2      14.2079862008      20.0000000000
11265 2      12.1427762157      16.0000000000
11266 2      15.4689199524      17.0000000000
11267 2      11.4913513231      15.0000000000
11268 2      15.2265802656      18.0000000000
11269 2      14.6069441497      17.0000000000
11270 2      13.9149669588      18.0000000000
11271 2      18.7046146901      20.0000000000
11272 2      14.9161874116      18.0000000000
11273 2      16.1201808383      21.0000000000
11274 2      12.9953479311      16.0000000000
11275 2      14.0449665713      15.0000000000
11276 2      16.1673106785      16.0000000000
11277 2      13.2227977653      20.0000000000
11278 2      13.6446554241      16.0000000000
11279 2      15.6696084006      21.0000000000
11280 2      14.4662978242      18.0000000000
11281 2      13.7192526444      14.0000000000
11282 2      12.5709468022      17.0000000000
11283 2      13.6831549245      19.0000000000
11284 2      13.1377895212      15.0000000000
11285 2      15.8788739482      21.0000000000
11286 2      13.6332003997      20.0000000000
11287 2      11.9415223151      17.0000000000
11288 2      13.1621444026      18.0000000000
11289 2      12.9950675556      18.0000000000
11290 2      13.5973165806      17.0000000000
11291 2      13.7940965939      18.0000000000
11292 2      15.3420969156      14.0000000000
11293 2      13.7159273196      17.0000000000
11294 2      13.9453036245      18.0000000000
11295 2      15.5558538064      20.0000000000
11296 2      14.6494304265      16.0000000000
11297 2      16.7761326555      20.0000000000
11298 2      14.0636606009      20.0000000000
11299 2      14.3463221250      18.0000000000
11300 2      15.1111108773      19.0000000000
11301 2      14.9111892447      15.0000000000
11302 2      13.1648417526      15.0000000000
11303 2      13.5391705963      18.0000000000
11304 2      14.3125662988      17.0000000000
11305 2      13.1709994032      15.0000000000
11306 2      15.9034353558      18.0000000000
11307 2      15.5470222235      20.0000000000
11308 2      13.2275539719      16.0000000000
11309 2      15.9557359975      18.0000000000
11310 2      14.8180299836      21.0000000000
11311 2      13.3469725883      15.0000000000
11312 2      12.9009760647      20.0000000000
11313 2      15.9616767716      18.0000000000
11314 2      15.4931814031      18.0000000000
11315 2      15.7465957834      17.0000000000
11316 2      13.1750617858      19.0000000000
11317 2      13.7242927404      18.0000000000
11318 2      13.9206044450      17.0000000000
11319 2      13.7728092009      16.0000000000
11320 2      14.4418354576      17.0000000000
11321 2      13.2755584737      14.0000000000
11322 2      13.8388982333      20.0000000000
11323 2      17.6174346427      20.0000000000
11324 2      15.2344865736      18.0000000000
11325 2      14.9258267960      18.0000000000
11326 2      14.9136465139      19.0000000000
11327 2      16.5363277117      16.0000000000
11328 2      14.1460910434      16.0000000000
11329 2      15.8846096815      21.0000000000
11330 2      16.0837933437      20.0000000000
11331 2      17.1105526003      18.0000000000
11332 2      15.7601399683      21.0000000000
11333 2      12.3506542906      12.0000000000
11334 2      15.8741020410      18.0000000000
11335 2      16.5706961305      17.0000000000
11336 2      13.3354359650      15.0000000000
11337 2      16.2937240013      19.0000000000
11338 2      16.6219915337      18.0000000000
11339 2      15.0576027834      19.0000000000
11340 2      14.5917058447      19.0000000000
11341 2      15.3902394074      23.0000000000
11342 2      15.3388402911      19.0000000000
11343 2      14.5729260525      17.0000000000
11344 2      13.5253483978      17.0000000000
11345 2      13.9915513608      19.0000000000
11346 2      13.8050319536      19.0000000000
11347 2      13.6890196474      18.0000000000
11348 2      14.7439199179      19.0000000000
11349 2      16.9956173528      19.0000000000
11350 2      16.6378738001      22.0000000000
11351 2      14.7738277309      17.0000000000
11352 2      14.7643876638      19.0000000000
11353 2      16.3725766405      19.0000000000
11354 2      12.9538544841      15.0000000000
11355 2      15.2942699724      19.0000000000
11356 2      16.8491787071      20.0000000000
11357 2      15.1435683717      21.0000000000
11358 2      14.9112194462      17.0000000000
11359 2      14.5569241635      18.0000000000
11360 2      15.6167061392      18.0000000000
11361 2      17.6094087455      21.0000000000
11362 2      14.2704943872      13.0000000000
11363 2      14.6139251218      19.0000000000
11364 2      12.3232782645      16.0000000000
11365 2      16.4204504910      20.0000000000
11366 2      11.5207674448      15.0000000000
11367 2      15.9786049164      17.0000000000
11368 2      13.4654308152      19.0000000000
11369 2      14.3015117382      15.0000000000
11370 2      12.6853414543      16.0000000000
11371 2      15.2978996970      19.0000000000
11372 2      13.8519188654      15.0000000000
11373 2      14.2915277115      19.0000000000
11374 2      16.4443934149      21.0000000000
11375 2      12.8132416911      15.0000000000
11376 2      18.9913625228      18.0000000000
11377 2      11.9427245877      13.0000000000
11378 2      15.1689027989      16.0000000000
11379 2      13.6138834668      14.0000000000
11380 2      14.7990513351      21.0000000000
11381 2      15.8677534973      19.0000000000
11382 2      13.5141861077      14.0000000000
11383 2      15.6234221408      19.0000000000
11384 2      15.0039191611      16.0000000000
11385 2      14.8685862502      19.0000000000
11386 2      14.5066595841      20.0000000000
11387 2      14.4596379199      20.0000000000
11388 2      13.3801140834      19.0000000000
11389 2      18.0409986607      22.0000000000
11390 2      15.1796551538      22.0000000000
11391 2      14.5888959309      19.0000000000
11392 2      13.3756589065      17.0000000000
11393 2      14.4927637411      17.0000000000
11394 2      15.6035923420      21.0000000000
11395 2      14.4518487606      17.0000000000
11396 2      15.2888453921      16.0000000000
11397 2      12.7539124740      12.0000000000
11398 2      13.9702429619      16.0000000000
11399 2      13.1550926012      20.0000000000
11400 2      14.8663288252      15.0000000000
11401 2      12.7135190344      16.0000000000
11402 2      15.4686514009      17.0000000000
11403 2      13.8204032582      17.0000000000
11404 2      14.9676309021      21.0000000000
11405 2      13.8200575530      17.0000000000
11406 2      11.7391173741      16.0000000000
11407 2      14.7302764740      17.0000000000
11408 2      13.6225179045      18.0000000000
11409 2      16.8512286907      21.0000000000
11410 2      12.1909387432      16.0000000000
11411 2      14.8495827747      16.0000000000
11412 2      11.8653003216      17.0000000000
11413 2      13.3402511782      17.0000000000
11414 2      14.1627767929      17.0000000000
11415 2      15.7685713458      19.0000000000
11416 2      14.9103633752      21.0000000000
11417 2      13.3578781672      16.0000000000
11418 2      13.3053874836      19.0000000000
11419 2      13.4791694924      18.0000000000
11420 2      15.4885002576      17.0000000000
11421 2      17.6843430892      17.0000000000
11422 2      15.5391987891      16.0000000000
11423 2      14.7274010212      17.0000000000
11424 2      15.8108909356      19.0000000000
11425 2      14.6863397318      17.0000000000
11426 2      13.5458826381      16.0000000000
11427 2      13.5589077943      20.0000000000
11428 2      14.4579892430      19.0000000000
11429 2      15.1247994190      18.0000000000
11430 2      14.3871778951      16.0000000000
11431 2      17.6388152798      22.0000000000
11432 2      15.6268887516      17.0000000000
11433 2      14.9621732083      20.0000000000
11434 2      13.7934775327      18.0000000000
11435 2      17.0968947809      19.0000000000
11436 2      14.6424093723      16.0000000000
11437 2      12.6728895512      17.0000000000
11438 2      14.8000079187      18.0000000000
11439 2      15.9680511302      20.0000000000
11440 2      15.5203229977      18.0000000000
11441 2      13.1389652947      17.0000000000
11442 2      16.5612622740      19.0000000000
11443 2      13.2548240625      17.0000000000
11444 2      16.2213739953      22.0000000000
11445 2      15.8115416524      15.0000000000
11446 2      13.8847686700      14.0000000000
11447 2      17.1576174480      23.0000000000
11448 2      14.6672247219      16.0000000000
11449 2      12.6455958938      18.0000000000
11450 2      15.5265183816      16.0000000000
11451 2      13.7733009217      18.0000000000
11452 2      14.3373435379      19.0000000000
11453 2      13.3030111030      15.0000000000
11454 2      14.6625125051      17.0000000000
11455 2      14.9878498160      21.0000000000
11456 2      13.8684219838      18.0000000000
11457 2      17.2417527134      17.0000000000
11458 2      13.7577360990      16.0000000000
11459 2      15.0282213682      20.0000000000
11460 2      13.5950607080      15.0000000000
11461 2      14.5752466867      18.0000000000
11462 2      15.8483729620      17.0000000000
11463 2      12.0963627793      15.0000000000
11464 2      12.8949158830      15.0000000000
11465 2      14.3082109501      16.0000000000
11466 2      13.2400454464      12.0000000000
11467 2      12.0990296527      17.0000000000
11468 2      16.2477027420      18.0000000000
11469 2      15.0430852879      15.0000000000
11470 2      15.3513609155      19.0000000000
11471 2      14.5773799282      21.0000000000
11472 2      16.0317848659      18.0000000000
11473 2      14.0454084446      17.0000000000
11474 2      16.6935487693      22.0000000000
11475 2      14.0391723413      17.0000000000
11476 2      13.6363652490      13.0000000000
11477 2      13.0868334770      16.0000000000
11478 2      16.2364745162      18.0000000000
11479 2      15.5756419261      18.0000000000
11480 2      13.7029407484      17.0000000000
11481 2      15.8636020997      21.0000000000
11482 2      17.3574210876      22.0000000000
11483 2      14.1031681448      14.0000000000
11484 2      12.9649152775      18.0000000000
11485 2      16.6802390362      18.0000000000
11486 2      14.7040411293      17.0000000000
11487 2      18.6495303345      17.0000000000
11488 2      15.0364324610      17.0000000000
11489 2      13.5724086181      18.0000000000
11490 2      12.4253785974      16.0000000000
11491 2      14.9500963461      19.0000000000
11492 2      16.1384134643      18.0000000000
11493 2      14.5365361821      19.0000000000
11494 2      16.3036662488      19.0000000000
11495 2      12.5888584442      17.0000000000
11496 2      16.1476519467      19.0000000000
11497 2      13.7413653904      15.0000000000
11498 2      16.4382722506      15.0000000000
11499 2      16.3543691796      22.0000000000
11500 2      11.4471180896      17.0000000000
11501 2      12.6101213757      17.0000000000
11502 2      16.6453295584      20.0000000000
11503 2      12.2398318611      15.0000000000
11504 2      16.2305303939      22.0000000000
11505 2      16.0548332076      18.0000000000
11506 2      15.1759271425      17.0000000000
11507 2      15.2689843109      21.0000000000
11508 2      14.4738159257      18.0000000000
11509 2      13.6706427310      16.0000000000
11510 2      12.5987934073      17.0000000000
11511 2      17.3570712337      15.0000000000
11512 2      12.9241077465      15.0000000000
11513 2      14.0102788768      20.0000000000
11514 2      14.0612278412      17.0000000000
11515 2      14.0608045697      16.0000000000
11516 2      15.4967953672      17.0000000000
11517 2      13.1161787742      18.0000000000
11518 2      15.6547682945      19.0000000000
11519 2      14.5872820351      18.0000000000
11520 2      14.4014569115      18.0000000000
11521 2      16.2891244099      19.0000000000
11522 2      13.0736295947      18.0000000000
11523 2      13.2649764837      17.0000000000
11524 2      14.9645138463      16.0000000000
11525 2      14.8949633963      19.0000000000
11526 2      14.2328971971      18.0000000000
11527 2      14.7112951976      19.0000000000
11528 2      15.6325215427      22.0000000000
11529 2      16.5545133569      17.0000000000
11530 2      17.1545141132      19.0000000000
11531 2      14.2661496982      19.0000000000
11532 2      14.9810440887      19.0000000000
11533 2      16.3762524696      16.0000000000
11534 2      14.4240782459      14.0000000000
11535 2      17.9100486296      20.0000000000
11536 2      15.1501635135      16.0000000000
11537 2      12.5853182804      16.0000000000
11538 2      12.4349673369      17.0000000000
11539 2      16.9638033906      16.0000000000
11540 2      12.0943066664      15.0000000000
11541 2      14.7302542257      20.0000000000
11542 2      14.0821825546      18.0000000000
11543 2      15.2551397023      21.0000000000
11544 2      11.6480880789      15.0000000000
11545 2      14.9298282091      17.0000000000
11546 2      12.9203324998      16.0000000000
11547 2      12.8184700731      16.0000000000
11548 2      14.3747118896      18.0000000000
11549 2      15.4875869249      17.0000000000
11550 2      13.5187264423      13.0000000000
11551 2      15.5245396431      20.0000000000
11552 2      15.9411868762      17.0000000000
11553 2      14.3832146072      18.0000000000
11554 2      15.9459138039      21.0000000000
11555 2      16.5171674138      20.0000000000
11556 2      13.5431157117      17.0000000000
11557 2      17.9205958131      20.0000000000
11558 2      14.8609224112      22.0000000000
11559 2      10.9659080234      16.0000000000
11560 2      11.5195489095      17.0000000000
11561 2      15.1233652393      18.0000000000
11562 2      15.1401636840      17.0000000000
11563 2      13.2882284523      14.0000000000
11564 2      15.2016082552      20.0000000000
11565 2      15.4385668138      18.0000000000
11566 2      14.0521945987      16.0000000000
11567 2      11.9915519620      18.0000000000
11568 2      14.7985781412      17.0000000000
11569 2      14.9006290032      19.0000000000
11570 2      14.4381546263      20.0000000000
11571 2      13.5515835763      14.0000000000
11572 2      14.2961503530      17.0000000000
11573 2      11.7070040416      14.0000000000
11574 2      15.8056473955      19.0000000000
11575 2      15.3872968040      18.0000000000
11576 2      14.9171651887      22.0000000000
11577 2      14.7985347375      18.0000000000
11578 2      16.2093891580      20.0000000000
11579 2      16.7111940137      18.0000000000
11580 2      14.0942728518      15.0000000000
11581 2      16.2018243869      17.0000000000
11582 2      14.5022133346      15.0000000000
11583 2      17.0992912270      22.0000000000
11584 2      13.5064967462      18.0000000000
11585 2      16.4154178280      19.0000000000
11586 2      13.8506040597      15.0000000000
11587 2      14.8522596635      15.0000000000
11588 2      13.8419477059      18.0000000000
11589 2      15.2811119880      19.0000000000
11590 2      15.1595331709      17.0000000000
11591 2      15.2500604282      17.0000000000
11592 2      13.7133366487      20.0000000000
11593 2      12.4631825014      14.0000000000
11594 2      16.7967320146      21.0000000000
11595 2      14.1061322046      14.0000000000
11596 2      15.5462231601      18.0000000000
11597 2      12.6614768890      16.0000000000
11598 2      14.1367674124      16.0000000000
11599 2      14.0072038147      16.0000000000
11600 2      13.5115287138      19.0000000000
11601 2      12.2786579782      16.0000000000
11602 2      13.1492534537      15.0000000000
11603 2      14.2754586314      17.0000000000
11604 2      13.9622183296      20.0000000000
11605 2      14.5631698404      18.0000000000
11606 2      14.8107662976      16.0000000000
11607 2      13.7718416741      15.0000000000
11608 2      15.3857874681      16.0000000000
11609 2      14.6703406586      15.0000000000
11610 2      13.5243332670      17.0000000000
11611 2      15.5532468486      17.0000000000
11612 2      16.0829643264      18.0000000000
11613 2      11.3165439842      14.0000000000
11614 2      13.1024393133      17.0000000000
11615 2      12.9011912061      15.0000000000
11616 2      14.1513304878      16.0000000000
11617 2      16.3769322668      18.0000000000
11618 2      14.6500329708      21.0000000000
11619 2      14.1235027603      16.0000000000
11620 2      13.5148044322      16.0000000000
11621 2      18.2139551187      15.0000000000
11622 2      15.1832456533      19.0000000000
11623 2      13.9562285643      19.0000000000
11624 2      14.8566153949      19.0000000000
11625 2      12.7769035631      14.0000000000
11626 2      14.0533857667      18.0000000000
11627 2      14.1780284221      16.0000000000
11628 2      14.2172184865      16.0000000000
11629 2      16.3685834671      18.0000000000
11630 2      14.0289491092      19.0000000000
11631 2      13.8314872606      14.0000000000
11632 2      15.4401500863      17.0000000000
11633 2      15.2452974460      21.0000000000
11634 2      15.8595189140      17.0000000000
11635 2      12.5776438380      13.0000000000
11636 2      15.1242428684      17.0000000000
11637 2      14.4267814016      17.0000000000
11638 2      12.5761187375      17.0000000000
11639 2      13.3510120370      19.0000000000
11640 2      14.0723146061      18.0000000000
11641 2      13.9001003966      14.0000000000
11642 2      13.7573814276      17.0000000000
11643 2      14.1476768092      18.0000000000
11644 2      14.6316507919      17.0000000000
11645 2      14.4168585877      15.0000000000
11646 2      13.0737981925      19.0000000000
11647 2      15.1762932013      17.0000000000
11648 2      14.7018513895      18.0000000000
11649 2      13.7841295035      17.0000000000
11650 2      11.9500720441      13.0000000000
11651 2      13.0725220840      16.0000000000
11652 2      14.3379481031      20.0000000000
11653 2      12.6948153132      16.0000000000
11654 2      15.7563813341      19.0000000000
11655 2      14.3667988502      17.0000000000
11656 2      15.8803019676      19.0000000000
11657 2      16.5718016858      16.0000000000
11658 2      14.1578335113      17.0000000000
11659 2      14.8530582745      18.0000000000
11660 2      17.4771308571      21.0000000000
11661 2      15.5167746639      20.0000000000
11662 2      17.2278683530      17.0000000000
11663 2      13.0893585676      17.0000000000
11664 2      14.7053025240      21.0000000000
11665 2      16.2010634801      17.0000000000
11666 2      13.9987319462      16.0000000000
11667 2      14.7495172393      19.0000000000
11668 2      16.2189039250      17.0000000000
11669 2      16.7886868009      18.0000000000
11670 2      15.5208285637      19.0000000000
11671 2      14.7455108023      15.0000000000
11672 2      13.0717817510      15.0000000000
11673 2      12.1313325289      16.0000000000
11674 2      12.9925048519      16.0000000000
11675 2      14.5137765887      18.0000000000
11676 2      16.8795908841      16.0000000000
11677 2      15.4825573476      21.0000000000
11678 2      15.0415619188      16.0000000000
11679 2      18.2245888633      20.0000000000
11680 2      12.5555626076      15.0000000000
11681 2      13.0130301713      16.0000000000
11682 2      18.2247483272      17.0000000000
11683 2      15.5312206675      18.0000000000
11684 2      16.2271990066      19.0000000000
11685 2      14.5476498886      17.0000000000
11686 2      14.9574977724      17.0000000000
11687 2      17.7306371897      23.0000000000
11688 2      14.5717050480      19.0000000000
11689 2      12.8658046976      17.0000000000
11690 2      16.6031700145      19.0000000000
11691 2      14.3241125668      15.0000000000
11692 2      13.2695313755      16.0000000000
11693 2      11.8522059470      16.0000000000
11694 2      12.7592015096      16.0000000000
11695 2      14.2403359187      15.0000000000
11696 2      15.2652785640      19.0000000000
11697 2      16.4660580029      20.0000000000
11698 2      14.7859667052      17.0000000000
11699 2      15.2077560027      17.0000000000
11700 2      14.7900906172      17.0000000000
11701 2      16.2620507139      20.0000000000
11702 2      16.5831356580      17.0000000000
11703 2      14.9718016610      17.0000000000
11704 2      15.9094724422      16.0000000000
11705 2      16.3467851590      16.0000000000
11706 2      13.7429034088      18.0000000000
11707 2      11.7199307283      17.0000000000
11708 2      13.6646403655      16.0000000000
11709 2      14.1738853825      18.0000000000
11710 2      14.6986941879      17.0000000000
11711 2      13.8535264436      17.0000000000
11712 2      14.5012163973      17.0000000000
11713 2      14.6252759713      18.0000000000
11714 2      15.6329515154      18.0000000000
11715 2      14.1523328883      18.0000000000
11716 2      11.8483716920      14.0000000000
11717 2      15.5352467925      16.0000000000
11718 2      12.9240421975      17.0000000000
11719 2      16.3628547026      17.0000000000
11720 2      14.0605859186      17.0000000000
11721 2      16.7080714886      19.0000000000
11722 2      14.6141963654      16.0000000000
11723 2      17.1853916484      20.0000000000
11724 2      12.5545543256      17.0000000000
11725 2      12.8976224141      15.0000000000
11726 2      14.0756718362      16.0000000000
11727 2      15.3695741743      21.0000000000
11728 2      12.9246487233      15.0000000000
11729 2      12.7053000140      18.0000000000
11730 2      14.0077728553      21.0000000000
11731 2      11.8228022698      16.0000000000
11732 2      15.4725256158      21.0000000000
11733 2      13.4349979094      14.0000000000
11734 2      11.6832462469      12.0000000000
11735 2      15.7474573156      17.0000000000
11736 2      14.6413307242      17.0000000000
11737 2      14.0510252998      17.0000000000
11738 2      15.0536285459      18.0000000000
11739 2      11.6371995303      16.0000000000
11740 2      16.5782841995      21.0000000000
11741 2      16.7308681749      19.0000000000
11742 2      16.1612362218      20.0000000000
11743 2      12.0721632593      13.0000000000
11744 2      13.9980518935      18.0000000000
11745 2      14.0491794407      20.0000000000
11746 2      13.9920343798      16.0000000000
11747 2      14.6490584125      19.0000000000
11748 2      11.6459853721      17.0000000000
11749 2      15.7226038564      21.0000000000
11750 2      14.2699472601      18.0000000000
11751 2      13.5553314625      17.0000000000
11752 2      16.1173582177      18.0000000000
11753 2      15.9687997662      21.0000000000
11754 2      15.6313979655      19.0000000000
11755 2      14.8416009355      17.0000000000
11756 2      13.2004106453      20.0000000000
11757 2      14.5118096920      19.0000000000
11758 2      14.1203918018      14.0000000000
11759 2      14.3701198913      18.0000000000
11760 2      14.9913220827      21.0000000000
11761 2      14.2692344564      18.0000000000
11762 2      13.6126781443      16.0000000000
11763 2      14.0513470889      13.0000000000
11764 2      14.1686465259      19.0000000000
11765 2      14.6226887925      15.0000000000
11766 2      15.7642153104      21.0000000000
11767 2      13.9174695647      18.0000000000
11768 2      15.3174347962      21.0000000000
11769 2      11.0960546674      14.0000000000
11770 2      16.5252234135      23.0000000000
11771 2      14.5832847680      21.0000000000
11772 2      16.1213850808      18.0000000000
11773 2      15.3430472003      18.0000000000
11774 2      14.8605837947      20.0000000000
11775 2      16.5412953762      20.0000000000
11776 2      12.6244106744      15.0000000000
11777 2      12.4212553753      14.0000000000
11778 2      13.9280406500      16.0000000000
11779 2      12.7550334318      20.0000000000
11780 2      13.0227439255      16.0000000000
11781 2      15.6784516637      17.0000000000
11782 2      17.7447242593      21.0000000000
11783 2      14.1201876428      18.0000000000
11784 2      13.6965061827      17.0000000000
11785 2      14.8305491890      16.0000000000
11786 2      13.5144937890      15.0000000000
11787 2      17.7823447063      16.0000000000
11788 2      12.3833547207      17.0000000000
11789 2      14.3751746145      16.0000000000
11790 2      13.8190781279      18.0000000000
11791 2      14.4074159212      21.0000000000
11792 2      17.9482155139      24.0000000000
11793 2      13.9007522548      17.0000000000
11794 2      13.8156001792      14.0000000000
11795 2      13.7640964188      17.0000000000
11796 2      14.2429409927      18.0000000000
11797 2      14.3395572006      21.0000000000
11798 2      15.6084170061      18.0000000000
11799 2      14.0758218510      16.0000000000
11800 2      13.7568206066      17.0000000000
11801 2      17.0582507171      15.0000000000
11802 2      15.4531186724      20.0000000000
11803 2      16.7218959361      19.0000000000
11804 2      14.9033287515      23.0000000000
11805 2      15.0674623657      21.0000000000
11806 2      12.9858414607      16.0000000000
11807 2      15.8226649564      18.0000000000
11808 2      14.7096293374      17.0000000000
11809 2      12.6952382741      16.0000000000
11810 2      14.4187503252      17.0000000000
11811 2      15.6007590921      20.0000000000
11812 2      13.6246416806      15.0000000000
11813 2      13.7206149899      18.0000000000
11814 2      17.0055671423      19.0000000000
11815 2      14.3829731763      18.0000000000
11816 2      15.9841478424      15.0000000000
11817 2      15.1059473686      19.0000000000
11818 2      14.8695070231      18.0000000000
11819 2      13.1450845867      18.0000000000
11820 2      16.4202133778      22.0000000000
11821 2      11.6975170974      14.0000000000
11822 2      13.7148694088      17.0000000000
11823 2      13.3732088000      18.0000000000
11824 2      14.2953431818      18.0000000000
11825 2      13.4125939307      16.0000000000
11826 2      18.6490875656      21.0000000000
11827 2      14.1266062205      18.0000000000
11828 2      16.3020223978      19.0000000000
11829 2      13.4202697333      18.0000000000
11830 2      15.0230286775      18.0000000000
11831 2      14.1823221112      20.0000000000
11832 2      12.4198375030      18.0000000000
11833 2      13.3393858200      16.0000000000
11834 2      14.2796457898      20.0000000000
11835 2      13.9071985494      13.0000000000
11836 2      13.0362049981      16.0000000000
11837 2      11.9735586433      12.0000000000
11838 2      16.2773227450      21.0000000000
11839 2      16.8054102124      19.0000000000
11840 2      15.1558140305      21.0000000000
11841 2      14.7100963849      18.0000000000
11842 2      14.6256681846      17.0000000000
11843 2      14.7197379278      17.0000000000
11844 2      14.4581356720      17.0000000000
11845 2      13.7183964751      17.0000000000
11846 2      16.0767610194      20.0000000000
11847 2      12.6118154121      19.0000000000
11848 2      14.0120213485      17.0000000000
11849 2      13.7583960994      18.0000000000
11850 2      13.5207009211      18.0000000000
11851 2      16.2713068219      17.0000000000
11852 2      14.8513547280      17.0000000000
11853 2      13.1392438100      16.0000000000
11854 2      13.5857253792      18.0000000000
11855 2      13.5219354468      14.0000000000
11856 2      17.1005493779      21.0000000000
11857 2      13.9775449417      17.0000000000
11858 2      16.9961514724      23.0000000000
11859 2      15.4859673457      17.0000000000
11860 2      14.8417935195      16.0000000000
11861 2      13.5432114225      19.0000000000
11862 2      14.4551552969      18.0000000000
11863 2      16.7845726380      18.0000000000
11864 2      11.1113271795      14.0000000000
11865 2      11.9075764816      13.0000000000
11866 2      12.6111368285      18.0000000000
11867 2      13.9607863102      16.0000000000
11868 2      15.2394510299      20.0000000000
11869 2      12.6862209778      16.0000000000
11870 2      13.2486120625      15.0000000000
11871 2      14.3665474769      18.0000000000
11872 2      12.4179533773      13.0000000000
11873 2      12.1130366144      14.0000000000
11874 2      14.3756000900      19.0000000000
11875 2      14.4930899053      19.0000000000
11876 2      13.9688580000      17.0000000000
11877 2      15.6813773903      21.0000000000
11878 2      14.5298728994      21.0000000000
11879 2      13.5966426426      16.0000000000
11880 2      15.7547138625      20.0000000000
11881 2      14.6751642929      18.0000000000
11882 2      14.5309799212      17.0000000000
11883 2      14.7450117041      19.0000000000
11884 2      13.1381957117      17.0000000000
11885 2      13.8805218505      18.0000000000
11886 2      14.2527092810      17.0000000000
11887 2      14.9025996231      22.0000000000
11888 2      16.3667247176      23.0000000000
11889 2      14.5249890122      17.0000000000
11890 2      14.2802125069      17.0000000000
11891 2      13.0623126934      18.0000000000
11892 2      14.7444099294      18.0000000000
11893 2      12.0557888380      15.0000000000
11894 2      17.6027999636      16.0000000000
11895 2      13.0880183090      19.0000000000
11896 2      14.8546061362      18.0000000000
11897 2      14.5202730081      18.0000000000
11898 2      14.8756737571      15.0000000000
11899 2      12.9282968866      17.0000000000
11900 2      14.6189992989      19.0000000000
11901 2      12.1177283397      13.0000000000
11902 2      14.3864133738      15.0000000000
11903 2      16.9935965746      22.0000000000
11904 2      12.8888575599      14.0000000000
11905 2      15.9796585022      19.0000000000
11906 2      15.2273846380      18.0000000000
11907 2      15.2032541995      13.0000000000
11908 2      14.3066812490      19.0000000000
11909 2      12.7732585695      16.0000000000
11910 2      14.6403635627      18.0000000000
11911 2      14.8893993927      19.0000000000
11912 2      12.8912850284      16.0000000000
11913 2      15.0877809239      20.0000000000
11914 2      14.2142718956      16.0000000000
11915 2      13.0241598713      16.0000000000
11916 2      13.5644189957      20.0000000000
11917 2      14.9023563415      20.0000000000
11918 2      12.7875854047      17.0000000000
11919 2      13.8252824491      19.0000000000
11920 2      15.7038085385      18.0000000000
11921 2      16.0643324813      16.0000000000
11922 2      15.5256758961      15.0000000000
11923 2      13.5941754533      15.0000000000
11924 2      15.0961771563      18.0000000000
11925 2      11.4481713626      14.0000000000
11926 2      13.3653375715      15.0000000000
11927 2      16.7875592163      20.0000000000
11928 2      13.9595147484      20.0000000000
11929 2      15.5248922233      15.0000000000
11930 2      13.8985515377      19.0000000000
11931 2      15.2203924283      16.0000000000
11932 2      14.8228962696      17.0000000000
11933 2      14.4886222183      15.0000000000
11934 2      12.2486559921      16.0000000000
11935 2      12.6028619774      15.0000000000
11936 2      15.6432757848      21.0000000000
11937 2      14.4035521168      19.0000000000
11938 2      11.7572153609      15.0000000000
11939 2      13.5056391958      18.0000000000
11940 2      16.1158678609      21.0000000000
11941 2      15.7308030946      24.0000000000
11942 2      18.9911834420      18.0000000000
11943 2      15.3443506279      20.0000000000
11944 2      13.4300225908      17.0000000000
11945 2      13.3406724156      18.0000000000
11946 2      16.5538093664      18.0000000000
11947 2      12.9776477813      19.0000000000
11948 2      13.8841506595      15.0000000000
11949 2      15.4152268822      19.0000000000
11950 2      13.6559924815      19.0000000000
11951 2      12.9442832408      18.0000000000
11952 2      13.4727070428      19.0000000000
11953 2      15.9265924500      19.0000000000
11954 2      13.6615976207      18.0000000000
11955 2      16.2545651282      21.0000000000
11956 2      14.1234655599      19.0000000000
11957 2      14.8281335500      21.0000000000
11958 2      11.9460744506      15.0000000000
11959 2      15.0537472903      16.0000000000
11960 2      16.8722998657      20.0000000000
11961 2      15.3398352859      19.0000000000
11962 2      14.2343721953      18.0000000000
11963 2      13.0337847498      15.0000000000
11964 2      13.5062269788      16.0000000000
11965 2      16.5884800557      20.0000000000
11966 2      15.8743331935      17.0000000000
11967 2      15.0074130807      17.0000000000
11968 2      15.4400750556      19.0000000000
11969 2      15.5738254968      19.0000000000
11970 2      13.8882192059      18.0000000000
11971 2      13.8051491454      13.0000000000
11972 2      15.2489331240      19.0000000000
11973 2      13.6149564221      16.0000000000
11974 2      19.6773916278      24.0000000000
11975 2      16.1995607787      17.0000000000
11976 2      15.4133813398      19.0000000000
11977 2      14.6076435501      20.0000000000
11978 2      16.4141806307      18.0000000000
11979 2      11.8624628925      13.0000000000
11980 2      16.0604456002      18.0000000000
11981 2      15.1885042391      18.0000000000
11982 2      14.7481593237      18.0000000000
11983 2      13.6521090241      21.0000000000
11984 2      15.4496389952      19.0000000000
11985 2      14.3634481094      15.0000000000
11986 2      12.8922493133      15.0000000000
11987 2      15.9256382601      18.0000000000
11988 2      18.6399186577      20.0000000000
11989 2      13.5506122842      16.0000000000
11990 2      14.8731367780      22.0000000000
11991 2      15.5024859411      23.0000000000
11992 2      11.6183671278      17.0000000000
11993 2      15.7102864184      22.0000000000
11994 2      13.8982626200      15.0000000000
11995 2      13.3602998486      20.0000000000
11996 2      13.5732882882      16.0000000000
11997 2      18.4605433390      21.0000000000
11998 2      15.1825686331      20.0000000000
11999 2      13.7566046580      20.0000000000
12000 2      14.0563341369      19.0000000000
12001 2      16.0887013007      18.0000000000
12002 2      14.3246784635      17.0000000000
12003 2      14.3357497582      20.0000000000
12004 2      16.1444221942      17.0000000000
12005 2      14.2309793367      18.0000000000
12006 2      12.5737255932      14.0000000000
12007 2      14.1577046415      17.0000000000
12008 2      14.1251960282      19.0000000000
12009 2      12.5748995177      15.0000000000
12010 2      14.5369950489      18.0000000000
12011 2      13.0321093443      16.0000000000
12012 2      12.6939091808      17.0000000000
12013 2      14.6919032423      22.0000000000
12014 2      14.0199239381      17.0000000000
12015 2      16.4606600075      18.0000000000
12016 2      12.8641216475      17.0000000000
12017 2      15.2593588209      19.0000000000
12018 2      13.7218143050      18.0000000000
12019 2      15.0881376793      19.0000000000
12020 2      12.6066580191      14.0000000000
12021 2      14.1030835539      17.0000000000
12022 2      14.1015234093      17.0000000000
12023 2      12.9273828475      19.0000000000
12024 2      15.8272041185      21.0000000000
12025 2      11.5398223091      16.0000000000
12026 2      16.7639806315      25.0000000000
12027 2      14.8905838377      17.0000000000
12028 2      17.8141752067      17.0000000000
12029 2      14.0742633216      18.0000000000
12030 2      15.1316621925      17.0000000000
12031 2      13.8595684103      16.0000000000
12032 2      14.8342796732      20.0000000000
12033 2      18.1073282377      24.0000000000
12034 2      14.3148449828      18.0000000000
12035 2      16.5585555841      18.0000000000
12036 2      13.4248594052      15.0000000000
12037 2      16.2526159855      20.0000000000
12038 2      18.3068815009      21.0000000000
12039 2      14.6533267109      21.0000000000
12040 2      12.6448468884      15.0000000000
12041 2      14.0822091595      18.0000000000
12042 2      16.1802410593      18.0000000000
12043 2      17.6663959506      24.0000000000
12044 2      14.8401143995      17.0000000000
12045 2      13.2637678266      15.0000000000
12046 2      12.7174451500      18.0000000000
12047 2      13.8348633602      20.0000000000
12048 2      17.3667880726      18.0000000000
12049 2      13.0900719230      18.0000000000
12050 2      15.3367795646      21.0000000000
12051 2      13.8456512670      17.0000000000
12052 2      13.0351496921      19.0000000000
12053 2      14.1379318323      16.0000000000
12054 2      12.0787307561      13.0000000000
12055 2      13.7011990151      20.0000000000
12056 2      12.0466705816      13.0000000000
12057 2      16.7343380244      16.0000000000
12058 2      17.1385844113      19.0000000000
12059 2      14.6825016257      17.0000000000
12060 2      13.7806309140      15.0000000000
12061 2      13.5850833517      17.0000000000
12062 2      14.6441267271      24.0000000000
12063 2      12.3900911059      14.0000000000
12064 2      16.7135658588      19.0000000000
12065 2      18.2576003771      22.0000000000
12066 2      12.3619924471      16.0000000000
12067 2      16.5041107010      20.0000000000
12068 2      12.6674007082      17.0000000000
12069 2      14.4737004962      18.0000000000
12070 2      16.0530865462      19.0000000000
12071 2      15.0328908935      15.0000000000
12072 2      14.0565829096      20.0000000000
12073 2      16.3323480911      16.0000000000
12074 2      13.1700117344      17.0000000000
12075 2      13.8366659430      21.0000000000
12076 2      14.9747935073      19.0000000000
12077 2      14.6786136290      17.0000000000
12078 2      12.9744090709      16.0000000000
12079 2      17.5922484375      17.0000000000
12080 2      14.6261161105      16.0000000000
12081 2      15.0476410707      20.0000000000
12082 2      14.7045581709      18.0000000000
12083 2      14.7869044351      18.0000000000
12084 2      15.9740994596      18.0000000000
12085 2      16.6961285729      21.0000000000
12086 2      13.2308605722      16.0000000000
12087 2      13.0180417218      20.0000000000
12088 2      13.7350501328      16.0000000000
12089 2      15.4750744861      19.0000000000
12090 2      13.2750384571      16.0000000000
12091 2      14.2665784922      19.0000000000
12092 2      16.0058199663      20.0000000000
12093 2      13.1352646565      19.0000000000
12094 2      14.7087362062      18.0000000000
12095 2      14.5599555885      21.0000000000
12096 2      13.0090505342      15.0000000000
12097 2      15.7317697539      19.0000000000
12098 2      13.3188141927      17.0000000000
12099 2      19.1294919897      24.0000000000
12100 2      11.5421274880      18.0000000000
12101 2      16.2341094407      21.0000000000
12102 2      17.7562641461      22.0000000000
12103 2      15.7722627743      19.0000000000
12104 2      17.9209358639      19.0000000000
12105 2      11.9296796648      14.0000000000
12106 2      13.8673993559      18.0000000000
12107 2      14.6510979943      16.0000000000
12108 2      13.6396574666      18.0000000000
12109 2      14.4005926989      14.0000000000
12110 2      14.0958652041      18.0000000000
12111 2      15.2558316094      18.0000000000
12112 2      13.3074584855      13.0000000000
12113 2      17.1447144355      18.0000000000
12114 2      13.6203210756      17.0000000000
12115 2      14.5519173116      17.0000000000
12116 2      15.3468565224      19.0000000000
12117 2      15.9883368421      19.0000000000
12118 2      14.8496386151      17.0000000000
12119 2      11.0188654753      13.0000000000
12120 2      14.4669030278      18.0000000000
12121 2      17.2195644257      19.0000000000
12122 2      14.0056910544      19.0000000000
12123 2      12.5123618642      18.0000000000
12124 2      14.5929932845      21.0000000000
12125 2      13.9993345509      17.0000000000
12126 2      11.1516708907      15.0000000000
12127 2      13.5075265259      16.0000000000
12128 2      15.9436078714      21.0000000000
12129 2      17.4018414052      23.0000000000
12130 2      11.0908081279      15.0000000000
12131 2      12.9324470355      16.0000000000
12132 2      14.3774942342      18.0000000000
12133 2      12.6793676223      16.0000000000
12134 2      14.3342242146      21.0000000000
12135 2      16.3798646723      20.0000000000
12136 2      13.7057412875      17.0000000000
12137 2      15.8491575500      21.0000000000
12138 2      15.5229192374      17.0000000000
12139 2      17.7515635194      21.0000000000
12140 2      13.1854380579      19.0000000000
12141 2      13.8351914052      19.0000000000
12142 2      13.9148853552      19.0000000000
12143 2      15.1368754898      19.0000000000
12144 2      13.7488105754      20.0000000000
12145 2      14.6611853135      18.0000000000
12146 2      15.1235637908      16.0000000000
12147 2      13.4363457034      15.0000000000
12148 2      16.4588105733      21.0000000000
12149 2      15.0607055160      19.0000000000
12150 2      14.8841426576      20.0000000000
12151 2      14.0068670759      18.0000000000
12152 2      13.8239821395      20.0000000000
12153 2      15.8507792047      22.0000000000
12154 2      16.0506564912      20.0000000000
12155 2      13.1463636057      18.0000000000
12156 2      14.6299886204      16.0000000000
12157 2      16.4725881493      18.0000000000
12158 2      16.6452864188      21.0000000000
12159 2      15.9642306116      19.0000000000
12160 2      17.2402810515      21.0000000000
12161 2      14.1696339759      19.0000000000
12162 2      15.0231730628      16.0000000000
12163 2      14.4191523062      18.0000000000
12164 2      13.6026372560      15.0000000000
12165 2      14.5794974595      19.0000000000
12166 2      14.2166891561      19.0000000000
12167 2      12.3140727054      14.0000000000
12168 2      14.2092227775      15.0000000000
12169 2      15.2894874472      19.0000000000
12170 2      15.7480083839      24.0000000000
12171 2      13.9955684295      18.0000000000
12172 2      15.4344798170      21.0000000000
12173 2      18.3726781073      19.0000000000
12174 2      14.1928993482      16.0000000000
12175 2      17.2281718584      21.0000000000
12176 2      13.7486394338      20.0000000000
12177 2      15.0808900025      19.0000000000
12178 2      14.5686662951      20.0000000000
12179 2      13.1995774213      18.0000000000
12180 2      14.1295344193      18.0000000000
12181 2      12.1603091198      14.0000000000
12182 2      13.2401412751      19.0000000000
12183 2      15.7034891734      21.0000000000
12184 2      14.5803282300      16.0000000000
12185 2      17.4407857023      20.0000000000
12186 2      13.4769331272      17.0000000000
12187 2      16.2127494052      21.0000000000
12188 2      12.3306763367      16.0000000000
12189 2      16.0120379803      18.0000000000
12190 2      14.7757440287      20.0000000000
12191 2      14.3815452973      18.0000000000
12192 2      12.6142399763      16.0000000000
12193 2      11.8159210831      16.0000000000
12194 2      14.9503933613      16.0000000000
12195 2      14.8998666321      17.0000000000
12196 2      13.7892426735      19.0000000000
12197 2      12.4457318144      16.0000000000
12198 2      15.2758560524      18.0000000000
12199 2      16.8540762644      17.0000000000
12200 2      13.7169541895      16.0000000000
12201 2      17.1312677693      18.0000000000
12202 2      16.3198196474      21.0000000000
12203 2      15.8946023831      19.0000000000
12204 2      14.3456316181      21.0000000000
12205 2      14.6770191899      17.0000000000
12206 2      14.1205628284      16.0000000000
12207 2      15.6851125915      20.0000000000
12208 2      14.1586740693      18.0000000000
12209 2      12.3677926901      18.0000000000
12210 2      15.1387326212      16.0000000000
12211 2      13.1747460505      16.0000000000
12212 2      14.7151498394      18.0000000000
12213 2      12.9067738412      17.0000000000
12214 2      14.4169633373      17.0000000000
12215 2      13.8412920905      22.0000000000
12216 2      13.3384457467      17.0000000000
12217 2      18.9103041768      25.0000000000
12218 2      15.9417262416      19.0000000000
12219 2      15.6073163811      19.0000000000
12220 2      16.6149805164      21.0000000000
12221 2      14.6205456305      18.0000000000
12222 2      12.6108988355      16.0000000000
12223 2      16.3824135016      17.0000000000
12224 2      14.1895865647      19.0000000000
12225 2      14.6824734372      18.0000000000
12226 2      12.6996158684      14.0000000000
12227 2      14.3911920953      16.0000000000
12228 2      13.3586226450      15.0000000000
12229 2      15.4262439795      20.0000000000
12230 2      13.6415366386      19.0000000000
12231 2      16.3161240770      20.0000000000
12232 2      14.7852117792      15.0000000000
12233 2      14.3531427923      14.0000000000
12234 2      14.1354368826      16.0000000000
12235 2      13.9795470693      19.0000000000
12236 2      14.7664758593      17.0000000000
12237 2      15.2061133944      19.0000000000
12238 2      16.0069890461      18.0000000000
12239 2      16.4554698386      22.0000000000
12240 2      16.3267500500      18.0000000000
12241 2      16.7840344660      19.0000000000
12242 2      14.9765755785      21.0000000000
12243 2      13.3455213889      17.0000000000
12244 2      16.8759975469      22.0000000000
12245 2      13.4820243841      14.0000000000
12246 2      14.0437386132      19.0000000000
12247 2      12.9105507779      15.0000000000
12248 2      14.4560543148      16.0000000000
12249 2      15.1714412231      19.0000000000
12250 2      14.8731714153      19.0000000000
12251 2      13.3052336698      16.0000000000
12252 2      14.6353013659      17.0000000000
12253 2      12.3821214984      17.0000000000
12254 2      15.0863221399      21.0000000000
12255 2      16.3554413760      21.0000000000
12256 2      16.4722094838      16.0000000000
12257 2      14.5826404754      16.0000000000
12258 2      15.0877124471      17.0000000000
12259 2      16.6357173826      19.0000000000
12260 2      15.4919677952      18.0000000000
12261 2      15.9802809331      19.0000000000
12262 2      17.0711086325      20.0000000000
12263 2      13.7068227918      16.0000000000
12264 2      12.2812053740      17.0000000000
12265 2      15.9628028804      18.0000000000
12266 2      13.1851225914      16.0000000000
12267 2      14.5960790976      18.0000000000
12268 2      15.7304363936      17.0000000000
12269 2      13.7769506051      16.0000000000
12270 2      14.4788815277      18.0000000000
12271 2      15.3098024329      19.0000000000
12272 2      15.6241166527      19.0000000000
12273 2      14.3549518131      21.0000000000
12274 2      12.3644874300      16.0000000000
12275 2      13.4248318989      20.0000000000
12276 2      14.3738468736      17.0000000000
12277 2      15.0728732037      19.0000000000
12278 2      16.2395279192      21.0000000000
12279 2      15.9878664233      18.0000000000
12280 2      12.3140072702      16.0000000000
12281 2      13.6991732114      18.0000000000
12282 2      13.9386600757      14.0000000000
12283 2      16.5898192773      18.0000000000
12284 2      13.2387476951      19.0000000000
12285 2      16.7967646644      22.0000000000
12286 2      14.0324530666      21.0000000000
12287 2      12.8910993428      16.0000000000
12288 2      16.7360307047      21.0000000000
12289 2      14.5968224103      17.0000000000
12290 2      16.1991738101      16.0000000000
12291 2      13.2795060846      17.0000000000
12292 2      15.2736158891      23.0000000000
12293 2      15.0482988193      15.0000000000
12294 2      14.2189268444      21.0000000000
12295 2      14.6130912653      17.0000000000
12296 2      13.1097181714      17.0000000000
12297 2      15.3772378927      21.0000000000
12298 2      14.7557945572      14.0000000000
12299 2      13.0682497804      17.0000000000
12300 2      14.8216138642      19.0000000000
12301 2      16.0503351985      16.0000000000
12302 2      18.1791670892      19.0000000000
12303 2      16.7846411957      17.0000000000
12304 2      13.0528095352      14.0000000000
12305 2      14.0306241161      18.0000000000
12306 2      14.5906943102      19.0000000000
12307 2      14.9057785964      20.0000000000
12308 2      13.9789196458      18.0000000000
12309 2      15.4743888209      23.0000000000
12310 2      14.6694895032      16.0000000000
12311 2      12.9340800643      18.0000000000
12312 2      13.7906047728      20.0000000000
12313 2      16.0874961728      15.0000000000
12314 2      13.1167731180      16.0000000000
12315 2      14.9942311207      22.0000000000
12316 2      14.2115575613      17.0000000000
12317 2      14.0890860527      18.0000000000
12318 2      14.4753634132      15.0000000000
12319 2      14.2651105208      17.0000000000
12320 2      15.6066317829      17.0000000000
12321 2      13.9636061009      14.0000000000
12322 2      12.4513081496      18.0000000000
12323 2      13.9667239849      20.0000000000
12324 2      12.8139530285      16.0000000000
12325 2      12.4306500185      16.0000000000
12326 2      16.7888172489      23.0000000000
12327 2      15.0480042386      19.0000000000
12328 2      15.3934732760      19.0000000000
12329 2      15.2702086232      17.0000000000
12330 2      17.2409534165      19.0000000000
12331 2      13.1163441459      19.0000000000
12332 2      11.7655553710      16.0000000000
12333 2      18.5600719027      26.0000000000
12334 2      15.7380007141      17.0000000000
12335 2      16.7931834828      20.0000000000
12336 2      17.2016630135      20.0000000000
12337 2      14.9704403261      17.0000000000
12338 2      15.1210874417      17.0000000000
12339 2      14.7647289733      18.0000000000
12340 2      16.5433807824      17.0000000000
12341 2      16.9787827464      24.0000000000
12342 2      14.1757556515      18.0000000000
12343 2      14.7933465075      16.0000000000
12344 2      11.6525277139      15.0000000000
12345 2      14.4545362932      19.0000000000
12346 2      12.7952034713      18.0000000000
12347 2      15.0797728742      20.0000000000
12348 2      15.6147584591      19.0000000000
12349 2      14.4810098873      17.0000000000
12350 2      12.2912810617      15.0000000000
12351 2      15.2196293843      17.0000000000
12352 2      14.7750004584      19.0000000000
12353 2      11.8382065670      14.0000000000
12354 2      11.1156678360      16.0000000000
12355 2      16.3682951232      17.0000000000
12356 2      10.9505282930      15.0000000000
12357 2      14.7192682848      20.0000000000
12358 2      15.0817345542      19.0000000000
12359 2      12.8369377305      17.0000000000
12360 2      13.2817685085      19.0000000000
12361 2      13.1157083578      15.0000000000
12362 2      13.9781650901      19.0000000000
12363 2      18.0680843139      25.0000000000
12364 2      14.1460501233      18.0000000000
12365 2      16.4349218285      18.0000000000
12366 2      16.4100509163      21.0000000000
12367 2      13.1997761458      16.0000000000
12368 2      15.4386552881      20.0000000000
12369 2      15.3331105412      18.0000000000
12370 2      13.4851446197      15.0000000000
12371 2      14.6083054041      14.0000000000
12372 2      12.6502263576      16.0000000000
12373 2      16.1937267436      16.0000000000
12374 2      13.2948479533      18.0000000000
12375 2      15.1946749765      22.0000000000
12376 2      14.3723749021      17.0000000000
12377 2      17.7073097509      21.0000000000
12378 2      15.7788421784      17.0000000000
12379 2      13.2092794528      17.0000000000
12380 2      14.3891490617      18.0000000000
12381 2      14.1617641395      17.0000000000
12382 2      13.2378123662      16.0000000000
12383 2      13.7700181710      16.0000000000
12384 2      16.2200441474      21.0000000000
12385 2      11.6467901231      14.0000000000
12386 2      12.0390188435      14.0000000000
12387 2      12.5750967557      17.0000000000
12388 2      14.5511311144      17.0000000000
12389 2      15.6273230767      19.0000000000
12390 2      14.8944213259      16.0000000000
12391 2      15.6975422470      19.0000000000
12392 2      14.9130672466      18.0000000000
12393 2      13.7746744418      16.0000000000
12394 2      15.0567093537      17.0000000000
12395 2      13.8516502230      17.0000000000
12396 2      14.7373624974      15.0000000000
12397 2      15.5670854967      21.0000000000
12398 2      16.2714042313      22.0000000000
12399 2      15.2549686049      22.0000000000
12400 2      15.2494965723      19.0000000000
12401 2      12.4545701871      18.0000000000
12402 2      14.8657590711      21.0000000000
12403 2      14.4332461070      18.0000000000
12404 2      13.0574512520      18.0000000000
12405 2      13.5045392521      15.0000000000
12406 2      14.2311242719      18.0000000000
12407 2      13.6414218066      14.0000000000
12408 2      16.2164595085      14.0000000000
12409 2      13.1972176079      19.0000000000
12410 2      14.3684006204      19.0000000000
12411 2      15.5713486692      18.0000000000
12412 2      14.8169232496      18.0000000000
12413 2      16.1450276892      17.0000000000
12414 2      13.8958191158      17.0000000000
12415 2      12.6528727634      15.0000000000
12416 2      14.4275677022      21.0000000000
12417 2      13.9933151689      17.0000000000
12418 2      14.8911501863      20.0000000000
12419 2      15.7855257949      21.0000000000
12420 2      15.1905643975      19.0000000000
12421 2      14.5503831255      18.0000000000
12422 2      13.4171216432      17.0000000000
12423 2      14.7407200466      17.0000000000
12424 2      13.8192454803      19.0000000000
12425 2      14.8749458508      18.0000000000
12426 2      15.2324154072      19.0000000000
12427 2      12.3593767732      17.0000000000
12428 2      14.9448412704      17.0000000000
12429 2      14.3299648007      18.0000000000
12430 2      17.5808585403      18.0000000000
12431 2      12.5809785384      18.0000000000
12432 2      16.6436232991      20.0000000000
12433 2      16.7522923087      20.0000000000
12434 2      15.3536693207      19.0000000000
12435 2      12.4852021572      17.0000000000
12436 2      13.9183659314      21.0000000000
12437 2      18.2072718357      20.0000000000
12438 2      14.9352111207      19.0000000000
12439 2      13.9766068638      16.0000000000
12440 2      14.3305419118      22.0000000000
12441 2      15.4698500243      19.0000000000
12442 2      12.3389609677      15.0000000000
12443 2      13.8874200365      18.0000000000
12444 2      15.4707904804      19.0000000000
12445 2      13.9725427533      21.0000000000
12446 2      13.0252709031      17.0000000000
12447 2      13.6557035097      19.0000000000
12448 2      16.4346556352      19.0000000000
12449 2      13.2519678770      17.0000000000
12450 2      13.4701565462      17.0000000000
12451 2      15.3372499858      19.0000000000
12452 2      13.4844152841      18.0000000000
12453 2      17.2633532576      18.0000000000
12454 2      13.5713081518      15.0000000000
12455 2      16.7170377019      21.0000000000
12456 2      11.8123550114      15.0000000000
12457 2      12.5981008637      14.0000000000
12458 2      14.2589050702      17.0000000000
12459 2      12.3641261890      15.0000000000
12460 2      16.4284576074      16.0000000000
12461 2      14.9483976657      18.0000000000
12462 2      13.6059378277      20.0000000000
12463 2      11.4475058479      18.0000000000
12464 2      13.3648418019      20.0000000000
12465 2      15.9782854554      15.0000000000
12466 2      13.9659511400      16.0000000000
12467 2      13.8689871942      16.0000000000
12468 2      13.5298844731      18.0000000000
12469 2      16.6608368713      20.0000000000
12470 2      13.3818678060      17.0000000000
12471 2      15.6285851402      17.0000000000
12472 2      15.4422800389      18.0000000000
12473 2      17.7576091059      19.0000000000
12474 2      18.6599964835      26.0000000000
12475 2      14.0980368084      15.0000000000
12476 2      15.3448856461      14.0000000000
12477 2      18.3451066262      22.0000000000
12478 2      14.9823280696      20.0000000000
12479 2      13.4919328758      18.0000000000
12480 2      13.4617460161      17.0000000000
12481 2      12.4349103511      16.0000000000
12482 2      11.9539563384      14.0000000000
12483 2      12.4684283673      20.0000000000
12484 2      17.9299215148      22.0000000000
12485 2      16.3660558845      24.0000000000
12486 2      15.3075095835      19.0000000000
12487 2      14.0891456349      17.0000000000
12488 2      15.2237635111      17.0000000000
12489 2      16.1099960928      16.0000000000
12490 2      12.3996293089      14.0000000000
12491 2      14.8053527951      17.0000000000
12492 2      14.9509419108      19.0000000000
12493 2      14.6403688496      17.0000000000
12494 2      14.8639549708      17.0000000000
12495 2      13.6904318094      17.0000000000
12496 2      13.1275704846      18.0000000000
12497 2      12.7475967624      17.0000000000
12498 2      14.6673394089      19.0000000000
12499 2      14.6366114553      17.0000000000
12500 2      15.2979738341      22.0000000000
12501 4      15.5248712508      16.0000000000
12502 4      18.9458022400      18.0000000000
12503 4      15.8610844069      21.0000000000
12504 4      20.0310708780      18.0000000000
12505 4      17.6778897890      18.0000000000
12506 4      14.1487460433      16.0000000000
12507 4      16.3114306512      16.0000000000
12508 4      16.0150903530      18.0000000000
12509 4      19.5597617446      19.0000000000
12510 4      13.4998346294      14.0000000000
12511 4      17.2442247842      14.0000000000
12512 4      15.8382391247      17.0000000000
12513 4      15.9273418967      18.0000000000
12514 4      13.6010927198      16.0000000000
12515 4      16.8245588993      16.0000000000
12516 4      16.6479145565      18.0000000000
12517 4      15.9459256684      17.0000000000
12518 4      17.1381861247      19.0000000000
12519 4      19.1040971594      17.0000000000
12520 4      17.4729283427      19.0000000000
12521 4      16.5751150120      16.0000000000
12522 4      19.0690533933      22.0000000000
12523 4      15.7994896271      13.0000000000
12524 4      14.3899243714      14.0000000000
12525 4      16.2443890138      16.0000000000
12526 4      19.2467007365      20.0000000000
12527 4      15.4608194280      18.0000000000
12528 4      13.7431173844      14.0000000000
12529 4      18.2829807371      15.0000000000
12530 4      15.8427354180      14.0000000000
12531 4      19.1295365095      17.0000000000
12532 4      17.9770066178      16.0000000000
12533 4      15.0699673651      13.0000000000
12534 4      22.0874210465      18.0000000000
12535 4      19.8702833128      22.0000000000
12536 4      15.2810556942      16.0000000000
12537 4      15.6563781211      14.0000000000
12538 4      14.7764137435      17.0000000000
12539 4      13.7634458018      13.0000000000
12540 4      17.6618012157      22.0000000000
12541 4      18.1384590045      21.0000000000
12542 4      16.9001856036      17.0000000000
12543 4      17.7182644032      16.0000000000
12544 4      14.6904625496      16.0000000000
12545 4      15.8624959006      18.0000000000
12546 4      20.7877406899      20.0000000000
12547 4      15.7887062063      15.0000000000
12548 4      16.1791376214      19.0000000000
12549 4      16.0452681615      15.0000000000
12550 4      17.8814432215      18.0000000000
12551 4      17.1929140112      19.0000000000
12552 4      16.0047243271      16.0000000000
12553 4      15.0763365518      18.0000000000
12554 4      14.9190200871      15.0000000000
12555 4      14.9654376659      17.0000000000
12556 4      16.1404558302      14.0000000000
12557 4      17.3639549008      15.0000000000
12558 4      19.5994987322      18.0000000000
12559 4      19.6798818253      21.0000000000
12560 4      15.2743833113      16.0000000000
12561 4      14.2910157770      16.0000000000
12562 4      16.4042190968      19.0000000000
12563 4      17.2449369849      18.0000000000
12564 4      13.7966863732      18.0000000000
12565 4      14.9316900286      15.0000000000
12566 4      15.6734583203      19.0000000000
12567 4      17.9994841391      18.0000000000
12568 4      19.3555822165      22.0000000000
12569 4      15.7888301729      16.0000000000
12570 4      15.6567797648      14.0000000000
12571 4      13.7012246225      16.0000000000
12572 4      15.4704618955      21.0000000000
12573 4      17.2731260785      18.0000000000
12574 4      16.6260871208      18.0000000000
12575 4      19.0667217844      16.0000000000
12576 4      14.8671666236      18.0000000000
12577 4      15.5337223743      20.0000000000
12578 4      14.2432668955      13.0000000000
12579 4      18.9299692686      18.0000000000
12580 4      13.5928081367      15.0000000000
12581 4      15.5383064520      23.0000000000
12582 4      16.5763854849      17.0000000000
12583 4      17.1966932597      15.0000000000
12584 4      20.1184066051      22.0000000000
12585 4      17.5757676532      18.0000000000
12586 4      18.1450037238      17.0000000000
12587 4      13.5630489001      19.0000000000
12588 4      14.7021120555      17.0000000000
12589 4      23.3191780411      20.0000000000
12590 4      15.6899655196      14.0000000000
12591 4      18.0852264486      23.0000000000
12592 4      18.5799040629      16.0000000000
12593 4      17.0799300352      17.0000000000
12594 4      15.1113452868      18.0000000000
12595 4      17.8791636875      21.0000000000
12596 4      19.2830186350      21.0000000000
12597 4      14.9287851760      17.0000000000
12598 4      14.5675249641      18.0000000000
12599 4      16.8178025513      17.0000000000
12600 4      14.5092919867      16.0000000000
12601 4      15.0286279710      14.0000000000
12602 4      18.9880480404      18.0000000000
12603 4      17.2783203337      22.0000000000
12604 4      11.3764589622      14.0000000000
12605 4      17.3806445956      19.0000000000
12606 4      21.9895174598      21.0000000000
12607 4      17.4133931913      22.0000000000
12608 4      19.1668520890      17.0000000000
12609 4      20.0168180531      24.0000000000
12610 4      19.9921282089      23.0000000000
12611 4      15.7603332482      18.0000000000
12612 4      22.3847452925      20.0000000000
12613 4      17.8112648254      14.0000000000
12614 4      17.2612370051      17.0000000000
12615 4      15.9815186760      16.0000000000
12616 4      15.1362178472      15.0000000000
12617 4      16.4734616968      18.0000000000
12618 4      15.8037554501      17.0000000000
12619 4      18.4915087402      18.0000000000
12620 4      14.7390093285      16.0000000000
12621 4      26.6752753159      27.0000000000
12622 4      16.1125878593      15.0000000000
12623 4      17.2554168157      20.0000000000
12624 4      15.5567272955      15.0000000000
12625 4      18.1941608957      16.0000000000
12626 4      20.5662301251      19.0000000000
12627 4      15.4502737252      14.0000000000
12628 4      14.1569845754      20.0000000000
12629 4      16.1833626970      15.0000000000
12630 4      20.7666399494      20.0000000000
12631 4      14.3025324919      14.0000000000
12632 4      20.5274347205      21.0000000000
12633 4      19.1442194710      22.0000000000
12634 4      18.9815024370      23.0000000000
12635 4      20.9902382167      21.0000000000
12636 4      15.0646401736      13.0000000000
12637 4      19.7303860733      18.0000000000
12638 4      17.7243232575      23.0000000000
12639 4      17.5275052875      18.0000000000
12640 4      15.0259697145      17.0000000000
12641 4      18.6089152643      16.0000000000
12642 4      16.3579073096      18.0000000000
12643 4      13.9175263464      15.0000000000
12644 4      14.6727468536      16.0000000000
12645 4      17.3343817298      20.0000000000
12646 4      17.8445701328      20.0000000000
12647 4      19.7636371455      18.0000000000
12648 4      17.7938356245      19.0000000000
12649 4      16.8621421517      18.0000000000
12650 4      15.3862335224      17.0000000000
12651 4      18.4942012143      19.0000000000
12652 4      16.2558263433      16.0000000000
12653 4      16.4999199188      15.0000000000
12654 4      22.8802695774      24.0000000000
12655 4      15.9175610919      20.0000000000
12656 4      15.1345599257      18.0000000000
12657 4      16.1114479359      18.0000000000
12658 4      13.5888044222      17.0000000000
12659 4      14.8860408237      15.0000000000
12660 4      16.3082411660      19.0000000000
12661 4      15.4761597272      17.0000000000
12662 4      13.3073509516      14.0000000000
12663 4      14.1798819775      13.0000000000
12664 4      18.1514695978      18.0000000000
12665 4      14.3645459524      18.0000000000
12666 4      17.9728625227      20.0000000000
12667 4      19.2527073906      19.0000000000
12668 4      15.1255852279      16.0000000000
12669 4      15.3585093021      16.0000000000
12670 4      16.7222440044      20.0000000000
12671 4      18.2135081662      19.0000000000
12672 4      17.5264484391      18.0000000000
12673 4      15.5656542308      22.0000000000
12674 4      15.1385624687      13.0000000000
12675 4      18.7278857034      17.0000000000
12676 4      15.6097645333      16.0000000000
12677 4      17.3287621499      19.0000000000
12678 4      14.3503162236      16.0000000000
12679 4      16.2553166497      15.0000000000
12680 4      13.8594327015      19.0000000000
12681 4      14.6107037167      14.0000000000
12682 4      16.8073293371      16.0000000000
12683 4      14.8319943028      15.0000000000
12684 4      21.3756308625      16.0000000000
12685 4      18.4591726246      18.0000000000
12686 4      18.6263606254      18.0000000000
12687 4      14.3268635313      14.0000000000
12688 4      18.4589300408      17.0000000000
12689 4      13.6019676512      16.0000000000
12690 4      18.4887022167      17.0000000000
12691 4      18.2224191477      19.0000000000
12692 4      15.8001896564      18.0000000000
12693 4      17.5210031557      18.0000000000
12694 4      13.6637821071      15.0000000000
12695 4      16.4799546882      18.0000000000
12696 4      17.9244327918      17.0000000000
12697 4      14.5918587100      17.0000000000
12698 4      14.8866828378      18.0000000000
12699 4      15.5321307356      16.0000000000
12700 4      15.7364454661      15.0000000000
12701 4      18.7893485328      24.0000000000
12702 4      15.2128686251      17.0000000000
12703 4      17.6380298795      18.0000000000
12704 4      21.9525127388      25.0000000000
12705 4      14.2729975498      16.0000000000
12706 4      19.2685269145      20.0000000000
12707 4      16.6255194194      18.0000000000
12708 4      15.0670956025      17.0000000000
12709 4      21.9771922090      23.0000000000
12710 4      17.2624287391      22.0000000000
12711 4      15.8834090724      16.0000000000
12712 4      13.6298668824      18.0000000000
12713 4      22.7898985508      15.0000000000
12714 4      17.7009280707      17.0000000000
12715 4      18.2968856235      21.0000000000
12716 4      17.4744529059      19.0000000000
12717 4      17.2897370408      17.0000000000
12718 4      15.9037191287      18.0000000000
12719 4      23.4063502424      23.0000000000
12720 4      15.5336724682      18.0000000000
12721 4      17.0596942348      21.0000000000
12722 4      17.0340503294      15.0000000000
12723 4      14.8802097582      18.0000000000
12724 4      18.7784166218      20.0000000000
12725 4      15.9612334709      20.0000000000
12726 4      17.9405055067      19.0000000000
12727 4      14.3565212236      15.0000000000
12728 4      17.5501417182      17.0000000000
12729 4      18.8341634460      16.0000000000
12730 4      17.2409241608      16.0000000000
12731 4      17.2825490754      19.0000000000
12732 4      16.3409285358      20.0000000000
12733 4      18.5510494703      20.0000000000
12734 4      17.5299694006      22.0000000000
12735 4      15.6197589158      15.0000000000
12736 4      18.3558639074      21.0000000000
12737 4      16.1597353683      19.0000000000
12738 4      17.5306754475      16.0000000000
12739 4      18.4086984503      16.0000000000
12740 4      18.8032945877      21.0000000000
12741 4      14.0238301398      16.0000000000
12742 4      18.4492717002      22.0000000000
12743 4      16.5826859627      18.0000000000
12744 4      21.0697635352      17.0000000000
12745 4      18.8989382836      19.0000000000
12746 4      20.1023379328      19.0000000000
12747 4      20.7951591330      20.0000000000
12748 4      18.4355741928      22.0000000000
12749 4      17.5720981785      17.0000000000
12750 4      14.3757943943      17.0000000000
12751 4      12.5007985673      14.0000000000
12752 4      16.4400158507      14.0000000000
12753 4      17.2046154276      17.0000000000
12754 4      16.4796076726      21.0000000000
12755 4      14.6446560205      18.0000000000
12756 4      18.7930968829      17.0000000000
12757 4      14.1883723829      18.0000000000
12758 4      13.8038438013      17.0000000000
12759 4      18.7472700718      22.0000000000
12760 4      14.4362506993      15.0000000000
12761 4      13.7287649516      13.0000000000
12762 4      16.8647418122      21.0000000000
12763 4      17.0780348346      23.0000000000
12764 4      17.3013887100      20.0000000000
12765 4      15.0872472765      13.0000000000
12766 4      17.3609783940      22.0000000000
12767 4      17.0938460918      19.0000000000
12768 4      13.2853922140      12.0000000000
12769 4      14.1245299177      19.0000000000
12770 4      14.4666098672      13.0000000000
12771 4      19.9655377256      20.0000000000
12772 4      17.7554184385      15.0000000000
12773 4      16.8766361437      19.0000000000
12774 4      16.3252104709      22.0000000000
12775 4      17.7534437420      18.0000000000
12776 4      15.0238572053      12.0000000000
12777 4      19.3868639815      20.0000000000
12778 4      15.6585950280      16.0000000000
12779 4      17.7467824183      24.0000000000
12780 4      17.5121165079      19.0000000000
12781 4      16.7388786831      17.0000000000
12782 4      18.7504545394      21.0000000000
12783 4      18.3045924042      17.0000000000
12784 4      15.0941151440      14.0000000000
12785 4      14.0263434255      14.0000000000
12786 4      17.3784890669      19.0000000000
12787 4      16.9838457740      17.0000000000
12788 4      17.8319551123      21.0000000000
12789 4      17.0886835385      19.0000000000
12790 4      15.2366131915      17.0000000000
12791 4      12.6219692556      13.0000000000
12792 4      16.3922123858      18.0000000000
12793 4      21.4276290922      18.0000000000
12794 4      16.7742399178      19.0000000000
12795 4      17.0983124157      15.0000000000
12796 4      18.5233448323      20.0000000000
12797 4      14.4938762377      14.0000000000
12798 4      20.3588365689      24.0000000000
12799 4      18.8560339083      25.0000000000
12800 4      14.5837298675      18.0000000000
12801 4      16.8601493030      18.0000000000
12802 4      17.2671493220      17.0000000000
12803 4      19.6959052409      20.0000000000
12804 4      21.5333248561      18.0000000000
12805 4      15.9059467709      15.0000000000
12806 4      20.4650315248      19.0000000000
12807 4      15.7904927631      13.0000000000
12808 4      13.4750127008      14.0000000000
12809 4      16.2165590357      15.0000000000
12810 4      17.1143501678      19.0000000000
12811 4      15.0164974342      19.0000000000
12812 4      16.6423812328      19.0000000000
12813 4      17.4543183152      19.0000000000
12814 4      22.4686438958      20.0000000000
12815 4      17.6194085590      20.0000000000
12816 4      17.6349081179      17.0000000000
12817 4      16.4824953269      21.0000000000
12818 4      17.4195111875      17.0000000000
12819 4      18.3694793955      23.0000000000
12820 4      19.6901140951      17.0000000000
12821 4      17.1032834537      18.0000000000
12822 4      14.6403084954      19.0000000000
12823 4      14.0172563411      15.0000000000
12824 4      18.1953498250      19.0000000000
12825 4      16.4563286965      18.0000000000
12826 4      17.3386317267      20.0000000000
12827 4      17.6342366699      20.0000000000
12828 4      14.1449882991      15.0000000000
12829 4      15.5541584541      19.0000000000
12830 4      17.4855980176      16.0000000000
12831 4      15.4273795445      17.0000000000
12832 4      16.9069847668      17.0000000000
12833 4      19.0082912889      20.0000000000
12834 4      15.3834397152      20.0000000000
12835 4      14.7610348150      15.0000000000
12836 4      22.0823251275      16.0000000000
12837 4      18.2662019389      20.0000000000
12838 4      18.4881189222      16.0000000000
12839 4      16.5292491147      18.0000000000
12840 4      15.3200417256      17.0000000000
12841 4      18.0252344055      19.0000000000
12842 4      17.0366292992      20.0000000000
12843 4      12.9453006409      18.0000000000
12844 4      15.8924683569      18.0000000000
12845 4      15.1438753287      17.0000000000
12846 4      15.5653944751      19.0000000000
12847 4      20.3017130675      22.0000000000
12848 4      15.9607890544      15.0000000000
12849 4      16.9231013785      17.0000000000
12850 4      11.9725489848      15.0000000000
12851 4      17.9462513060      23.0000000000
12852 4      15.2577166276      16.0000000000
12853 4      17.2543598975      21.0000000000
12854 4      13.7935948495      15.0000000000
12855 4      11.7923401003      14.0000000000
12856 4      15.3185392620      16.0000000000
12857 4      16.6082645293      16.0000000000
12858 4      19.2301595921      20.0000000000
12859 4      16.4432794910      20.0000000000
12860 4      13.7069475275      17.0000000000
12861 4      17.2055902829      16.0000000000
12862 4      14.6856861357      14.0000000000
12863 4      16.0871655504      17.0000000000
12864 4      15.5822768077      15.0000000000
12865 4      17.7050811447      17.0000000000
12866 4      14.7079130891      15.0000000000
12867 4      21.1198995946      21.0000000000
12868 4      13.8527305285      19.0000000000
12869 4      16.7115536168      17.0000000000
12870 4      13.7058772395      16.0000000000
12871 4      21.1795536163      23.0000000000
12872 4      15.7760297261      18.0000000000
12873 4      17.8475092088      21.0000000000
12874 4      14.6047986564      15.0000000000
12875 4      14.5184283007      18.0000000000
12876 4      17.9927024563      20.0000000000
12877 4      16.8025869641      17.0000000000
12878 4      16.7487254861      17.0000000000
12879 4      17.7423619852      17.0000000000
12880 4      15.5187064856      16.0000000000
12881 4      25.6491167472      22.0000000000
12882 4      18.7446635260      18.0000000000
12883 4      14.5806944860      17.0000000000
12884 4      17.5757699326      19.0000000000
12885 4      14.8869986698      18.0000000000
12886 4      17.1361926056      18.0000000000
12887 4      15.6642870949      18.0000000000
12888 4      15.4158935766      19.0000000000
12889 4      15.5507527594      16.0000000000
12890 4      16.2658936200      21.0000000000
12891 4      15.8328780559      18.0000000000
12892 4      14.5540046558      16.0000000000
12893 4      19.5863851291      25.0000000000
12894 4      17.6413008034      18.0000000000
12895 4      16.0413272816      19.0000000000
12896 4      14.8897907159      14.0000000000
12897 4      16.4313516243      16.0000000000
12898 4      15.8354925545      20.0000000000
12899 4      19.2295281436      18.0000000000
12900 4      17.1801200859      18.0000000000
12901 4      15.5620934767      17.0000000000
12902 4      18.7724628543      19.0000000000
12903 4      17.9526915648      18.0000000000
12904 4      14.6004777734      18.0000000000
12905 4      15.2505592124      18.0000000000
12906 4      16.7185393361      19.0000000000
12907 4      17.6554078593      20.0000000000
12908 4      18.4187397494      18.0000000000
12909 4      16.5641749661      16.0000000000
12910 4      18.9463555909      17.0000000000
12911 4      14.2655641320      18.0000000000
12912 4      16.2404933158      15.0000000000
12913 4      16.5190002131      15.0000000000
12914 4      17.7271866425      18.0000000000
12915 4      15.5210879625      15.0000000000
12916 4      14.7121372847      16.0000000000
12917 4      19.1457501138      18.0000000000
12918 4      20.2306616537      20.0000000000
12919 4      14.7725769788      16.0000000000
12920 4      19.9923563445      21.0000000000
12921 4      15.0755872689      13.0000000000
12922 4      13.5043095972      15.0000000000
12923 4      16.6712071100      18.0000000000
12924 4      18.5168089487      23.0000000000
12925 4      15.1890387307      14.0000000000
12926 4      18.4022729339      19.0000000000
12927 4      18.2043917469      21.0000000000
12928 4      16.4578174502      18.0000000000
12929 4      20.5344968350      21.0000000000
12930 4      15.4575179107      20.0000000000
12931 4      17.8782369804      22.0000000000
12932 4      16.9310120736      16.0000000000
12933 4      15.9919891332      21.0000000000
12934 4      19.3472526728      23.0000000000
12935 4      17.2551916601      17.0000000000
12936 4      15.5839088315      16.0000000000
12937 4      17.4529741980      18.0000000000
12938 4      15.7874740270      15.0000000000
12939 4      15.7635908905      17.0000000000
12940 4      15.4126366755      18.0000000000
12941 4      18.9333411817      18.0000000000
12942 4      15.2888613604      18.0000000000
12943 4      16.9661115376      17.0000000000
12944 4      13.9423093708      14.0000000000
12945 4      13.2581682290      13.0000000000
12946 4      18.8312912340      20.0000000000
12947 4      17.1734289241      18.0000000000
12948 4      15.1387015866      18.0000000000
12949 4      19.5367417674      19.0000000000
12950 4      16.9681262430      17.0000000000
12951 4      16.8718194660      17.0000000000
12952 4      14.6065223009      14.0000000000
12953 4      18.3253593845      18.0000000000
12954 4      23.6640081934      19.0000000000
12955 4      15.5607840564      17.0000000000
12956 4      17.6456315196      14.0000000000
12957 4      17.7625559910      19.0000000000
12958 4      15.0571916862      17.0000000000
12959 4      13.3271925121      15.0000000000
12960 4      17.4371816598      22.0000000000
12961 4      18.2597972636      21.0000000000
12962 4      16.7201494718      17.0000000000
12963 4      14.5736203028      14.0000000000
12964 4      14.5891866540      15.0000000000
12965 4      19.6711197204      23.0000000000
12966 4      15.9746994654      18.0000000000
12967 4      16.9365155595      18.0000000000
12968 4      13.2031650254      14.0000000000
12969 4      18.6450382785      17.0000000000
12970 4      18.7680130045      23.0000000000
12971 4      13.5642967420      11.0000000000
12972 4      16.0209949944      18.0000000000
12973 4      20.0143120734      21.0000000000
12974 4      18.4411880208      18.0000000000
12975 4      16.5038972866      19.0000000000
12976 4      16.6010486185      19.0000000000
12977 4      13.7996083717      19.0000000000
12978 4      18.6516207269      23.0000000000
12979 4      18.0519727320      18.0000000000
12980 4      16.0711061408      17.0000000000
12981 4      17.3522918876      19.0000000000
12982 4      15.8298559640      17.0000000000
12983 4      15.2250561493      19.0000000000
12984 4      20.7207464488      18.0000000000
12985 4      14.4585420706      12.0000000000
12986 4      14.5804170498      15.0000000000
12987 4      16.9122310977      24.0000000000
12988 4      16.8085222071      16.0000000000
12989 4      17.0913598473      16.0000000000
12990 4      13.3075248483      14.0000000000
12991 4      14.4576542638      17.0000000000
12992 4      17.5369891212      16.0000000000
12993 4      20.4004004070      22.0000000000
12994 4      15.8584546710      18.0000000000
12995 4      15.1179340925      15.0000000000
12996 4      15.1951491455      19.0000000000
12997 4      17.2611732329      22.0000000000
12998 4      16.2570188528      17.0000000000
12999 4      15.3577751762      18.0000000000
13000 4      17.5773063249      18.0000000000
13001 4      17.9722862129      17.0000000000
13002 4      17.7332240116      21.0000000000
13003 4      16.0168042970      17.0000000000
13004 4      15.4388394081      16.0000000000
13005 4      16.9301818783      19.0000000000
13006 4      16.8612927172      17.0000000000
13007 4      19.8737358272      18.0000000000
13008 4      24.3906396754      23.0000000000
13009 4      17.3622289063      16.0000000000
13010 4      15.0721347352      17.0000000000
13011 4      15.1376659035      18.0000000000
13012 4      20.0795863194      20.0000000000
13013 4      18.2259957359      20.0000000000
13014 4      19.6249386139      18.0000000000
13015 4      18.3221992195      14.0000000000
13016 4      21.5436806783      21.0000000000
13017 4      16.7310406716      16.0000000000
13018 4      17.2454354235      19.0000000000
13019 4      15.0008519755      15.0000000000
13020 4      15.2429566670      18.0000000000
13021 4      13.4270888055      19.0000000000
13022 4      22.1219283493      19.0000000000
13023 4      24.8417329040      20.0000000000
13024 4      16.4569788931      20.0000000000
13025 4      15.5658398141      17.0000000000
13026 4      21.6382811850      21.0000000000
13027 4      15.5136438352      17.0000000000
13028 4      18.7710137152      15.0000000000
13029 4      15.3309485100      20.0000000000
13030 4      18.3788659858      22.0000000000
13031 4      15.9245016152      19.0000000000
13032 4      19.6137674355      20.0000000000
13033 4      17.1563503049      17.0000000000
13034 4      16.1294204809      18.0000000000
13035 4      16.5424350445      18.0000000000
13036 4      20.2211628440      20.0000000000
13037 4      18.3102516142      17.0000000000
13038 4      16.9665567438      14.0000000000
13039 4      16.5932951479      16.0000000000
13040 4      14.1976226063      16.0000000000
13041 4      17.3296549271      19.0000000000
13042 4      15.4467489409      19.0000000000
13043 4      18.8209194933      23.0000000000
13044 4      18.5732973855      18.0000000000
13045 4      15.3890976375      18.0000000000
13046 4      12.7575035276      15.0000000000
13047 4      19.6789142901      19.0000000000
13048 4      17.7778904228      19.0000000000
13049 4      20.0378063326      23.0000000000
13050 4      14.1429604378      13.0000000000
13051 4      18.3204832023      19.0000000000
13052 4      14.1860215887      18.0000000000
13053 4      21.2644244925      21.0000000000
13054 4      14.0126248439      15.0000000000
13055 4      20.1931147845      18.0000000000
13056 4      17.7614502041      16.0000000000
13057 4      17.0467643131      14.0000000000
13058 4      16.9088681480      18.0000000000
13059 4      15.7080717863      16.0000000000
13060 4      12.3631509019      11.0000000000
13061 4      16.3279632301      17.0000000000
13062 4      20.3423185422      21.0000000000
13063 4      15.5816097731      15.0000000000
13064 4      21.3127868225      23.0000000000
13065 4      18.2345804505      21.0000000000
13066 4      16.4025031388      14.0000000000
13067 4      14.2777841609      17.0000000000
13068 4      20.7072962736      19.0000000000
13069 4      16.6198111934      17.0000000000
13070 4      17.6549066396      14.0000000000
13071 4      18.6794675905      19.0000000000
13072 4      17.4986149392      16.0000000000
13073 4      14.2324719414      17.0000000000
13074 4      17.1431483538      18.0000000000
13075 4      17.1097196765      15.0000000000
13076 4      16.5339837055      21.0000000000
13077 4      17.1910544644      19.0000000000
13078 4      20.0206331047      18.0000000000
13079 4      15.4097814874      19.0000000000
13080 4      24.0903592997      25.0000000000
13081 4      15.5266718856      17.0000000000
13082 4      12.2449417931      13.0000000000
13083 4      14.3659295470      14.0000000000
13084 4      16.7724865243      18.0000000000
13085 4      16.5220107031      15.0000000000
13086 4      19.8656017105      20.0000000000
13087 4      17.1059321224      22.0000000000
13088 4      16.3114908775      19.0000000000
13089 4      16.6095769616      20.0000000000
13090 4      16.3225781879      20.0000000000
13091 4      14.9005197364      16.0000000000
13092 4      14.4205138172      14.0000000000
13093 4      16.2026758966      16.0000000000
13094 4      18.0849777096      22.0000000000
13095 4      17.7294032128      20.0000000000
13096 4      17.2830269369      18.0000000000
13097 4      16.2358967095      18.0000000000
13098 4      14.4581515783      15.0000000000
13099 4      17.9883504445      20.0000000000
13100 4      19.4631402067      22.0000000000
13101 4      23.0808352127      20.0000000000
13102 4      16.3483551946      19.0000000000
13103 4      15.5846350323      17.0000000000
13104 4      15.0734701540      16.0000000000
13105 4      15.1842408407      14.0000000000
13106 4      18.7597425717      20.0000000000
13107 4      15.8514866452      16.0000000000
13108 4      15.3395225852      17.0000000000
13109 4      14.0573456623      18.0000000000
13110 4      14.0683285792      15.0000000000
13111 4      18.8882818084      16.0000000000
13112 4      15.8138291343      19.0000000000
13113 4      18.3233563485      20.0000000000
13114 4      17.9380314859      20.0000000000
13115 4      14.5749044087      15.0000000000
13116 4      14.0742283930      15.0000000000
13117 4      16.0684122567      21.0000000000
13118 4      19.6046473015      21.0000000000
13119 4      15.6552540862      18.0000000000
13120 4      13.3518350570      16.0000000000
13121 4      15.0935548644      14.0000000000
13122 4      15.1429444467      16.0000000000
13123 4      15.3740002579      16.0000000000
13124 4      17.2733245813      13.0000000000
13125 4      14.9192382217      15.0000000000
13126 4      19.0412586930      22.0000000000
13127 4      13.4953648549      16.0000000000
13128 4      17.0951218497      17.0000000000
13129 4      16.4758389290      15.0000000000
13130 4      13.9113083207      17.0000000000
13131 4      17.2490843707      15.0000000000
13132 4      13.0288838043      15.0000000000
13133 4      23.5964415037      20.0000000000
13134 4      14.9354773335      15.0000000000
13135 4      15.9717724431      15.0000000000
13136 4      22.3822896399      23.0000000000
13137 4      17.0942325053      19.0000000000
13138 4      15.9003226441      18.0000000000
13139 4      14.8749084080      15.0000000000
13140 4      14.3815353853      15.0000000000
13141 4      14.5269316908      16.0000000000
13142 4      16.3992649865      17.0000000000
13143 4      13.3713760601      18.0000000000
13144 4      15.2849968973      19.0000000000
13145 4      14.6236746426      14.0000000000
13146 4      14.6982859905      19.0000000000
13147 4      16.4342255381      18.0000000000
13148 4      15.4456698464      16.0000000000
13149 4      14.0163401039      18.0000000000
13150 4      14.1921501282      15.0000000000
13151 4      15.7576231682      16.0000000000
13152 4      16.4301297463      16.0000000000
13153 4      18.0651371584      20.0000000000
13154 4      16.7304631401      20.0000000000
13155 4      16.3463537272      15.0000000000
13156 4      15.6099466181      18.0000000000
13157 4      15.1107282825      17.0000000000
13158 4      17.1866580088      15.0000000000
13159 4      15.4529420230      19.0000000000
13160 4      16.7319692200      18.0000000000
13161 4      13.1865658164      15.0000000000
13162 4      17.7192008526      13.0000000000
13163 4      14.0446147516      15.0000000000
13164 4      17.4786876934      19.0000000000
13165 4      16.8755219289      20.0000000000
13166 4      16.4709455081      17.0000000000
13167 4      17.4788038822      20.0000000000
13168 4      21.8438465194      24.0000000000
13169 4      19.1746182905      21.0000000000
13170 4      18.8617900710      22.0000000000
13171 4      19.8602689800      16.0000000000
13172 4      23.8734532405      24.0000000000
13173 4      18.0944008692      18.0000000000
13174 4      14.6964601857      14.0000000000
13175 4      14.4687288631      12.0000000000
13176 4      15.9274704723      17.0000000000
13177 4      17.2678170578      19.0000000000
13178 4      14.2617462489      13.0000000000
13179 4      12.8609952641      13.0000000000
13180 4      16.3885995468      17.0000000000
13181 4      19.2426750216      19.0000000000
13182 4      19.2247246870      17.0000000000
13183 4      14.9947123559      18.0000000000
13184 4      14.0347423917      18.0000000000
13185 4      19.9304950197      19.0000000000
13186 4      18.8842787822      21.0000000000
13187 4      17.4035206458      19.0000000000
13188 4      15.7375106611      17.0000000000
13189 4      17.3813586102      14.0000000000
13190 4      13.5928636027      18.0000000000
13191 4      16.2879092098      15.0000000000
13192 4      16.0108883204      18.0000000000
13193 4      18.8573623650      20.0000000000
13194 4      14.6605578663      16.0000000000
13195 4      14.9768793670      16.0000000000
13196 4      17.0798534068      23.0000000000
13197 4      16.4203076052      15.0000000000
13198 4      15.6568251177      16.0000000000
13199 4      15.8742504837      15.0000000000
13200 4      18.8091950070      18.0000000000
13201 4      14.5945523663      18.0000000000
13202 4      16.7650965019      18.0000000000
13203 4      17.4714960624      19.0000000000
13204 4      15.9132859686      17.0000000000
13205 4      14.3606248235      14.0000000000
13206 4      15.5167842330      14.0000000000
13207 4      16.6110829173      18.0000000000
13208 4      16.1617204919      16.0000000000
13209 4      18.4099387399      17.0000000000
13210 4      13.2326692310      16.0000000000
13211 4      16.4843646166      18.0000000000
13212 4      15.6590188693      17.0000000000
13213 4      16.8295767819      20.0000000000
13214 4      15.0959121902      16.0000000000
13215 4      16.1898062705      15.0000000000
13216 4      16.7516619630      15.0000000000
13217 4      13.9009802472      13.0000000000
13218 4      14.0682207548      18.0000000000
13219 4      16.7395852664      18.0000000000
13220 4      13.8982969446      15.0000000000
13221 4      18.0808225898      20.0000000000
13222 4      20.2922643504      19.0000000000
13223 4      14.7802344569      18.0000000000
13224 4      17.5667426376      18.0000000000
13225 4      14.6871007489      17.0000000000
13226 4      19.3502421710      19.0000000000
13227 4      17.0724174504      18.0000000000
13228 4      18.8290536345      21.0000000000
13229 4      20.5295951394      18.0000000000
13230 4      17.4366325134      15.0000000000
13231 4      15.5574328868      17.0000000000
13232 4      22.6147415056      18.0000000000
13233 4      17.5128960185      16.0000000000
13234 4      16.6807809273      21.0000000000
13235 4      21.2432987169      21.0000000000
13236 4      15.2664319992      20.0000000000
13237 4      17.1701343913      18.0000000000
13238 4      18.7498758463      19.0000000000
13239 4      17.9985631386      17.0000000000
13240 4      14.9370143619      16.0000000000
13241 4      16.0543197504      17.0000000000
13242 4      18.4979685533      20.0000000000
13243 4      13.6336685800      12.0000000000
13244 4      13.7688553097      17.0000000000
13245 4      15.8028702411      14.0000000000
13246 4      14.8458222685      14.0000000000
13247 4      15.4665793404      16.0000000000
13248 4      13.8775750296      16.0000000000
13249 4      15.9250687535      17.0000000000
13250 4      13.8128217071      19.0000000000
13251 4      14.5104410988      16.0000000000
13252 4      15.7815525419      17.0000000000
13253 4      17.8730328565      18.0000000000
13254 4      15.0800981133      20.0000000000
13255 4      17.2673242271      18.0000000000
13256 4      18.7351559813      21.0000000000
13257 4      18.5170094942      19.0000000000
13258 4      13.6763513590      16.0000000000
13259 4      13.7888509287      17.0000000000
13260 4      17.4848293347      19.0000000000
13261 4      15.8305445501      15.0000000000
13262 4      20.1081537851      16.0000000000
13263 4      16.8086789359      18.0000000000
13264 4      16.5349857762      17.0000000000
13265 4      14.7424635413      16.0000000000
13266 4      16.2609360238      14.0000000000
13267 4      15.4023225654      19.0000000000
13268 4      14.4399358746      15.0000000000
13269 4      18.6015887065      21.0000000000
13270 4      17.6423476316      18.0000000000
13271 4      18.4259491873      18.0000000000
13272 4      19.8017799181      21.0000000000
13273 4      17.3342862444      23.0000000000
13274 4      21.1202139085      21.0000000000
13275 4      19.9888544329      20.0000000000
13276 4      15.7634690769      16.0000000000
13277 4      20.6037335267      24.0000000000
13278 4      15.6562540094      17.0000000000
13279 4      18.6553027555      19.0000000000
13280 4      14.9762696143      13.0000000000
13281 4      16.5877829771      17.0000000000
13282 4      15.9316900737      19.0000000000
13283 4      17.7882538963      16.0000000000
13284 4      15.4992302212      15.0000000000
13285 4      16.4704495428      14.0000000000
13286 4      14.9453078501      16.0000000000
13287 4      17.0854798814      18.0000000000
13288 4      20.7574699346      17.0000000000
13289 4      17.3838791168      20.0000000000
13290 4      20.0523966174      19.0000000000
13291 4      13.9044000970      17.0000000000
13292 4      13.8239374882      14.0000000000
13293 4      15.7216480839      14.0000000000
13294 4      16.1076350865      19.0000000000
13295 4      12.7171468174      16.0000000000
13296 4      18.7049382498      18.0000000000
13297 4      15.2118261137      14.0000000000
13298 4      16.6383738686      18.0000000000
13299 4      15.6279181353      19.0000000000
13300 4      15.7059904622      15.0000000000
13301 4      13.8452414510      18.0000000000
13302 4      17.7071609648      16.0000000000
13303 4      14.7837521550      17.0000000000
13304 4      17.6059562332      19.0000000000
13305 4      16.8603846043      17.0000000000
13306 4      18.2645581758      19.0000000000
13307 4      16.6001334988      15.0000000000
13308 4      16.1167154918      18.0000000000
13309 4      18.8125552873      17.0000000000
13310 4      15.0553030144      18.0000000000
13311 4      16.8261058445      15.0000000000
13312 4      19.7893304126      22.0000000000
13313 4      18.0244772224      20.0000000000
13314 4      14.5091399397      13.0000000000
13315 4      18.6346923115      19.0000000000
13316 4      15.1018926893      17.0000000000
13317 4      16.5221787754      18.0000000000
13318 4      16.7904770618      17.0000000000
13319 4      18.4134917873      18.0000000000
13320 4      14.8695518820      16.0000000000
13321 4      16.9262311851      14.0000000000
13322 4      13.9984770548      14.0000000000
13323 4      14.9583876782      18.0000000000
13324 4      16.9105178508      18.0000000000
13325 4      18.2892181570      20.0000000000
13326 4      15.0120976096      18.0000000000
13327 4      14.8897948030      14.0000000000
13328 4      15.7933117619      19.0000000000
13329 4      16.3036786385      15.0000000000
13330 4      19.1073129010      24.0000000000
13331 4      15.0025766377      16.0000000000
13332 4      16.4078946328      14.0000000000
13333 4      16.2809327741      18.0000000000
13334 4      17.3035836562      17.0000000000
13335 4      15.2652041677      18.0000000000
13336 4      13.6056031339      12.0000000000
13337 4      18.3265738598      19.0000000000
13338 4      16.1801768593      15.0000000000
13339 4      16.6557185669      21.0000000000
13340 4      17.0495319885      18.0000000000
13341 4      16.9541699203      21.0000000000
13342 4      18.4803082727      19.0000000000
13343 4      13.9964689873      18.0000000000
13344 4      15.9968360130      14.0000000000
13345 4      19.3616171807      21.0000000000
13346 4      14.5688668226      17.0000000000
13347 4      16.0365287069      17.0000000000
13348 4      13.4195726048      16.0000000000
13349 4      15.3803437207      18.0000000000
13350 4      15.4401637022      17.0000000000
13351 4      17.7826449555      21.0000000000
13352 4      16.6620373548      24.0000000000
13353 4      16.4192489702      21.0000000000
13354 4      16.4712159212      23.0000000000
13355 4      16.9795559181      20.0000000000
13356 4      16.5913841201      18.0000000000
13357 4      17.1448054188      17.0000000000
13358 4      18.6105000068      20.0000000000
13359 4      17.6035098371      19.0000000000
13360 4      14.9330884771      16.0000000000
13361 4      18.3216940877      16.0000000000
13362 4      17.9743231381      17.0000000000
13363 4      19.0741531893      20.0000000000
13364 4      15.0167441227      17.0000000000
13365 4      15.9768935169      18.0000000000
13366 4      16.6179329364      18.0000000000
13367 4      22.6004772376      25.0000000000
13368 4      16.4973904756      16.0000000000
13369 4      15.5830040145      15.0000000000
13370 4      19.6022590057      20.0000000000
13371 4      17.2620863918      18.0000000000
13372 4      18.8834779723      20.0000000000
13373 4      16.5384497050      24.0000000000
13374 4      12.7177726178      13.0000000000
13375 4      14.4908701202      13.0000000000
13376 4      16.2495194997      17.0000000000
13377 4      16.3712476215      15.0000000000
13378 4      14.1780595733      13.0000000000
13379 4      16.2921677813      20.0000000000
13380 4      20.3189112726      21.0000000000
13381 4      15.5112127380      21.0000000000
13382 4      14.6582617214      16.0000000000
13383 4      18.3302591132      16.0000000000
13384 4      15.6751852762      17.0000000000
13385 4      13.8245098049      16.0000000000
13386 4      18.0528853956      16.0000000000
13387 4      20.0340151950      19.0000000000
13388 4      18.2781477762      22.0000000000
13389 4      15.1817702035      14.0000000000
13390 4      15.3210740450      16.0000000000
13391 4      14.6868136540      17.0000000000
13392 4      17.1244653655      15.0000000000
13393 4      16.0806626397      17.0000000000
13394 4      17.3700847579      20.0000000000
13395 4      15.4307138381      18.0000000000
13396 4      16.4658692520      17.0000000000
13397 4      18.1040438929      19.0000000000
13398 4      16.6822764244      19.0000000000
13399 4      13.1268219667      14.0000000000
13400 4      16.0186952074      18.0000000000
13401 4      15.5056121458      19.0000000000
13402 4      21.8645750206      19.0000000000
13403 4      16.7501047469      20.0000000000
13404 4      15.6797805030      17.0000000000
13405 4      20.5053617919      22.0000000000
13406 4      16.9716993781      22.0000000000
13407 4      14.9078990717      16.0000000000
13408 4      15.9802301859      19.0000000000
13409 4      18.2637973302      19.0000000000
13410 4      15.2618676309      18.0000000000
13411 4      18.6720857667      18.0000000000
13412 4      19.1809447869      17.0000000000
13413 4      15.6977333981      16.0000000000
13414 4      13.8982356456      17.0000000000
13415 4      15.7320566400      17.0000000000
13416 4      16.8321939385      15.0000000000
13417 4      19.5013786604      23.0000000000
13418 4      21.6747122464      17.0000000000
13419 4      21.0646311705      20.0000000000
13420 4      19.8376037358      18.0000000000
13421 4      17.3254058345      17.0000000000
13422 4      16.6282272686      17.0000000000
13423 4      16.1704090653      15.0000000000
13424 4      18.5330501359      19.0000000000
13425 4      13.6726053643      14.0000000000
13426 4      15.6535862280      14.0000000000
13427 4      21.7474018321      22.0000000000
13428 4      18.6487987641      18.0000000000
13429 4      15.6455224787      19.0000000000
13430 4      18.4314845368      20.0000000000
13431 4      17.3237597230      19.0000000000
13432 4      15.7126552481      16.0000000000
13433 4      17.0110222733      17.0000000000
13434 4      16.5425040912      15.0000000000
13435 4      18.2243194918      18.0000000000
13436 4      15.0022468286      19.0000000000
13437 4      17.3483180364      17.0000000000
13438 4      17.1556496440      14.0000000000
13439 4      20.0292898816      18.0000000000
13440 4      19.7989290251      21.0000000000
13441 4      14.1197365413      19.0000000000
13442 4      20.3575747970      19.0000000000
13443 4      17.3022281243      18.0000000000
13444 4      16.5408261401      19.0000000000
13445 4      19.6974456089      19.0000000000
13446 4      17.6116285448      17.0000000000
13447 4      17.3836751749      19.0000000000
13448 4      12.7577838959      14.0000000000
13449 4      16.8879931184      18.0000000000
13450 4      15.4744449891      20.0000000000
13451 4      18.5739681863      22.0000000000
13452 4      14.4995275253      17.0000000000
13453 4      16.1799404081      21.0000000000
13454 4      12.7648585090      12.0000000000
13455 4      17.6424112316      17.0000000000
13456 4      14.8989305082      17.0000000000
13457 4      17.5371747201      17.0000000000
13458 4      14.1719106382      16.0000000000
13459 4      21.1968855293      18.0000000000
13460 4      14.5769760880      18.0000000000
13461 4      15.3911395759      14.0000000000
13462 4      15.2757788593      18.0000000000
13463 4      16.4651319316      19.0000000000
13464 4      16.1971213971      15.0000000000
13465 4      14.6464513073      17.0000000000
13466 4      16.1849889699      16.0000000000
13467 4      15.8372864378      17.0000000000
13468 4      17.5520790495      20.0000000000
13469 4      16.4093727848      19.0000000000
13470 4      19.0274746723      20.0000000000
13471 4      16.8516139539      18.0000000000
13472 4      17.5282455859      18.0000000000
13473 4      20.6583169428      19.0000000000
13474 4      17.8013548508      18.0000000000
13475 4      25.1860104223      23.0000000000
13476 4      15.2516897005      19.0000000000
13477 4      13.6328151124      15.0000000000
13478 4      19.6801243461      20.0000000000
13479 4      15.2375808739      17.0000000000
13480 4      13.7023817305      16.0000000000
13481 4      18.4868517408      19.0000000000
13482 4      17.5031635223      21.0000000000
13483 4      19.4478775414      20.0000000000
13484 4      15.2820107889      19.0000000000
13485 4      18.7209137572      20.0000000000
13486 4      20.0892467826      18.0000000000
13487 4      18.2881992031      16.0000000000
13488 4      17.6401798682      17.0000000000
13489 4      16.9626970412      14.0000000000
13490 4      15.6161852989      17.0000000000
13491 4      15.3719369855      17.0000000000
13492 4      20.0550992189      18.0000000000
13493 4      13.7602117106      15.0000000000
13494 4      17.6527613781      16.0000000000
13495 4      17.1622498670      18.0000000000
13496 4      18.3008605161      18.0000000000
13497 4      13.4500175883      12.0000000000
13498 4      13.9844151738      15.0000000000
13499 4      15.8603101667      17.0000000000
13500 4      13.9892852571      18.0000000000
13501 4      18.1611914425      17.0000000000
13502 4      13.2960600040      13.0000000000
13503 4      15.3158404190      17.0000000000
13504 4      19.2348654727      19.0000000000
13505 4      19.6472568665      20.0000000000
13506 4      15.0459824672      17.0000000000
13507 4      17.6199820955      18.0000000000
13508 4      15.6223252893      18.0000000000
13509 4      15.7723078427      18.0000000000
13510 4      17.0902793741      21.0000000000
13511 4      16.1295883076      19.0000000000
13512 4      15.9589740546      22.0000000000
13513 4      18.1555665510      21.0000000000
13514 4      14.3659341464      19.0000000000
13515 4      17.0220688284      13.0000000000
13516 4      17.3178573828      16.0000000000
13517 4      16.2826852120      19.0000000000
13518 4      19.4852747207      23.0000000000
13519 4      20.4531594142      24.0000000000
13520 4      20.4048935065      21.0000000000
13521 4      20.8959270571      24.0000000000
13522 4      14.8022010285      15.0000000000
13523 4      15.8981405032      16.0000000000
13524 4      18.4833218852      19.0000000000
13525 4      11.8062164233      11.0000000000
13526 4      17.6167996845      19.0000000000
13527 4      16.9669829794      20.0000000000
13528 4      18.3319293643      20.0000000000
13529 4      18.0682937747      21.0000000000
13530 4      15.4374278990      17.0000000000
13531 4      16.3306206410      14.0000000000
13532 4      16.2068017102      18.0000000000
13533 4      15.3749116245      17.0000000000
13534 4      15.3012546372      19.0000000000
13535 4      16.5597600508      19.0000000000
13536 4      15.0584135579      18.0000000000
13537 4      17.8127227877      21.0000000000
13538 4      16.5129916502      19.0000000000
13539 4      17.9196612846      22.0000000000
13540 4      17.5627821459      24.0000000000
13541 4      15.9268833696      22.0000000000
13542 4      17.8048727744      20.0000000000
13543 4      19.8171134026      21.0000000000
13544 4      15.8461821719      19.0000000000
13545 4      16.4320471611      18.0000000000
13546 4      15.0059064128      15.0000000000
13547 4      17.1658293669      17.0000000000
13548 4      15.3524856220      18.0000000000
13549 4      13.0873723686      16.0000000000
13550 4      14.4674440968      15.0000000000
13551 4      15.6918984484      17.0000000000
13552 4      15.9908507456      17.0000000000
13553 4      16.7606845285      19.0000000000
13554 4      19.2626977959      19.0000000000
13555 4      13.3698180171      16.0000000000
13556 4      18.8774502273      21.0000000000
13557 4      16.7024658850      20.0000000000
13558 4      16.6280604878      18.0000000000
13559 4      15.9383447235      17.0000000000
13560 4      15.8802492280      13.0000000000
13561 4      16.0373142625      17.0000000000
13562 4      18.9211118354      22.0000000000
13563 4      18.4763621381      19.0000000000
13564 4      16.2744019875      17.0000000000
13565 4      16.7421600800      18.0000000000
13566 4      18.0211608384      22.0000000000
13567 4      15.9806419971      18.0000000000
13568 4      14.3814438002      17.0000000000
13569 4      21.9005781511      22.0000000000
13570 4      17.2869895189      19.0000000000
13571 4      17.7436974392      18.0000000000
13572 4      16.4511186876      22.0000000000
13573 4      14.7883452625      17.0000000000
13574 4      21.4410913076      23.0000000000
13575 4      15.5661905570      19.0000000000
13576 4      22.1682225207      20.0000000000
13577 4      22.3781530868      25.0000000000
13578 4      18.9045260011      18.0000000000
13579 4      16.2442317408      17.0000000000
13580 4      17.4664805240      19.0000000000
13581 4      16.4031501484      18.0000000000
13582 4      16.3244054646      16.0000000000
13583 4      19.1852818309      18.0000000000
13584 4      19.1449814634      22.0000000000
13585 4      15.5772774992      17.0000000000
13586 4      13.6657648317      13.0000000000
13587 4      16.1992854706      16.0000000000
13588 4      17.4319175096      14.0000000000
13589 4      17.3615206844      18.0000000000
13590 4      15.8029405406      18.0000000000
13591 4      15.9205975580      18.0000000000
13592 4      15.4969564211      18.0000000000
13593 4      16.6821472554      17.0000000000
13594 4      13.9711449123      16.0000000000
13595 4      14.9626255922      14.0000000000
13596 4      15.1265391425      17.0000000000
13597 4      16.3734779785      13.0000000000
13598 4      16.9581885387      15.0000000000
13599 4      20.2208227647      19.0000000000
13600 4      16.5375517273      19.0000000000
13601 4      14.7533149122      18.0000000000
13602 4      19.2411398376      16.0000000000
13603 4      16.9837257098      16.0000000000
13604 4      16.4698716306      18.0000000000
13605 4      20.4161281410      20.0000000000
13606 4      16.6182228315      21.0000000000
13607 4      14.2297762025      11.0000000000
13608 4      17.2575788962      17.0000000000
13609 4      15.4530762676      19.0000000000
13610 4      19.9570562123      25.0000000000
13611 4      15.8669864677      20.0000000000
13612 4      20.2454639468      19.0000000000
13613 4      18.5203868775      19.0000000000
13614 4      13.7672235156      15.0000000000
13615 4      19.1573822606      20.0000000000
13616 4      16.3185965365      17.0000000000
13617 4      17.8487159401      18.0000000000
13618 4      17.7010918470      21.0000000000
13619 4      16.1310515952      21.0000000000
13620 4      18.7177510982      20.0000000000
13621 4      17.0433609547      16.0000000000
13622 4      17.5539944740      18.0000000000
13623 4      18.4412811825      21.0000000000
13624 4      20.2739603010      20.0000000000
13625 4      16.8558928327      19.0000000000
13626 4      17.3023718527      16.0000000000
13627 4      15.4305216023      17.0000000000
13628 4      14.9341835003      16.0000000000
13629 4      16.0513437017      18.0000000000
13630 4      15.5868819724      19.0000000000
13631 4      14.7006036285      14.0000000000
13632 4      17.6119183609      20.0000000000
13633 4      20.1148247930      17.0000000000
13634 4      17.4377968587      19.0000000000
13635 4      23.3362413079      25.0000000000
13636 4      15.7132877553      19.0000000000
13637 4      14.5301353132      18.0000000000
13638 4      16.5707289705      24.0000000000
13639 4      17.6087273992      16.0000000000
13640 4      14.1772331369      15.0000000000
13641 4      17.0168302612      20.0000000000
13642 4      19.4636796837      23.0000000000
13643 4      20.6902711575      23.0000000000
13644 4      18.2052174870      19.0000000000
13645 4      25.6917250943      26.0000000000
13646 4      15.0018751898      13.0000000000
13647 4      15.3025602006      17.0000000000
13648 4      16.4770524323      16.0000000000
13649 4      14.9923797567      17.0000000000
13650 4      15.4854466204      18.0000000000
13651 4      21.3674372760      20.0000000000
13652 4      17.9325584666      16.0000000000
13653 4      16.6647207837      16.0000000000
13654 4      17.6213706659      19.0000000000
13655 4      15.5148166162      15.0000000000
13656 4      17.8779228174      15.0000000000
13657 4      14.9697671186      16.0000000000
13658 4      16.7368841318      18.0000000000
13659 4      18.7922289763      16.0000000000
13660 4      17.1542001645      15.0000000000
13661 4      15.2665009786      19.0000000000
13662 4      13.3676916475      14.0000000000
13663 4      16.4099423567      18.0000000000
13664 4      19.7123265130      22.0000000000
13665 4      18.6960538221      16.0000000000
13666 4      15.0968378230      15.0000000000
13667 4      18.9928101253      18.0000000000
13668 4      20.6972236072      21.0000000000
13669 4      20.2249465247      20.0000000000
13670 4      12.8792075163      14.0000000000
13671 4      19.1889646764      20.0000000000
13672 4      17.5944346895      17.0000000000
13673 4      15.0973402886      18.0000000000
13674 4      15.0558233543      18.0000000000
13675 4      19.2327138044      18.0000000000
13676 4      17.8075656123      20.0000000000
13677 4      17.2713951463      20.0000000000
13678 4      16.7963872486      19.0000000000
13679 4      21.4035473310      21.0000000000
13680 4      18.9635658804      21.0000000000
13681 4      19.5286023820      20.0000000000
13682 4      14.7302656881      14.0000000000
13683 4      16.8255840946      17.0000000000
13684 4      15.1105164564      15.0000000000
13685 4      18.5565996274      17.0000000000
13686 4      16.0749951711      20.0000000000
13687 4      16.3703393359      16.0000000000
13688 4      13.2184868931      16.0000000000
13689 4      15.5949602301      18.0000000000
13690 4      16.9188096690      16.0000000000
13691 4      14.1136158006      18.0000000000
13692 4      22.8984512161      22.0000000000
13693 4      16.1446844578      20.0000000000
13694 4      18.2817358606      20.0000000000
13695 4      15.3600898968      15.0000000000
13696 4      19.7106133408      19.0000000000
13697 4      18.9519133166      20.0000000000
13698 4      20.6785847886      22.0000000000
13699 4      18.0944999808      24.0000000000
13700 4      17.0995349238      22.0000000000
13701 4      20.3827607747      22.0000000000
13702 4      19.7754978673      22.0000000000
13703 4      18.0250044448      18.0000000000
13704 4      17.5843025861      20.0000000000
13705 4      17.0656196971      19.0000000000
13706 4      17.0936367312      19.0000000000
13707 4      17.9491574205      17.0000000000
13708 4      17.3023732390      22.0000000000
13709 4      16.4440737542      16.0000000000
13710 4      18.8430304936      20.0000000000
13711 4      17.5900999904      22.0000000000
13712 4      17.6480740124      17.0000000000
13713 4      17.2912549203      20.0000000000
13714 4      14.6036033460      16.0000000000
13715 4      17.7117639562      21.0000000000
13716 4      21.3614684939      17.0000000000
13717 4      21.0894066784      19.0000000000
13718 4      19.5964008354      20.0000000000
13719 4      12.7012994486      16.0000000000
13720 4      18.7155027141      18.0000000000
13721 4      17.9724601457      20.0000000000
13722 4      14.5395218417      15.0000000000
13723 4      16.2808390156      17.0000000000
13724 4      24.5988312096      21.0000000000
13725 4      18.0839170682      18.0000000000
13726 4      16.3832762964      20.0000000000
13727 4      18.3686409133      18.0000000000
13728 4      17.0804123141      19.0000000000
13729 4      15.6978256358      15.0000000000
13730 4      16.9868307536      19.0000000000
13731 4      18.4289614104      19.0000000000
13732 4      18.2249082720      16.0000000000
13733 4      18.4054052161      22.0000000000
13734 4      16.2795525159      18.0000000000
13735 4      16.9047827204      13.0000000000
13736 4      19.8940594947      19.0000000000
13737 4      15.8708551127      19.0000000000
13738 4      20.6070706483      19.0000000000
13739 4      18.3073038641      21.0000000000
13740 4      16.9875806140      18.0000000000
13741 4      13.0746621865      16.0000000000
13742 4      13.8815765946      15.0000000000
13743 4      14.7295617880      14.0000000000
13744 4      18.3806696797      20.0000000000
13745 4      22.8719989724      25.0000000000
13746 4      22.2462447325      20.0000000000
13747 4      14.6054513368      15.0000000000
13748 4      19.4257387342      19.0000000000
13749 4      13.9240023099      16.0000000000
13750 4      21.6695696147      24.0000000000
13751 4      12.1872229947      15.0000000000
13752 4      20.5413995544      16.0000000000
13753 4      16.7193814501      17.0000000000
13754 4      16.1853590553      17.0000000000
13755 4      15.8150691305      13.0000000000
13756 4      19.2380251956      23.0000000000
13757 4      13.5447936680      14.0000000000
13758 4      12.9639567495      15.0000000000
13759 4      15.6817364519      17.0000000000
13760 4      19.4600276287      24.0000000000
13761 4      13.2736906790      20.0000000000
13762 4      17.2259049562      17.0000000000
13763 4      19.4166010258      19.0000000000
13764 4      14.2940469461      16.0000000000
13765 4      17.5278005417      18.0000000000
13766 4      16.5702035620      18.0000000000
13767 4      18.0846385885      20.0000000000
13768 4      15.2871761845      17.0000000000
13769 4      16.7213669230      21.0000000000
13770 4      19.4282047335      13.0000000000
13771 4      18.8515375646      22.0000000000
13772 4      15.6590508602      19.0000000000
13773 4      21.2635970998      23.0000000000
13774 4      18.3553389205      21.0000000000
13775 4      12.8638344270      15.0000000000
13776 4      17.1518043082      17.0000000000
13777 4      17.1032835152      18.0000000000
13778 4      15.3176656529      13.0000000000
13779 4      16.9594136943      17.0000000000
13780 4      17.4647806781      16.0000000000
13781 4      17.6240096697      18.0000000000
13782 4      15.3619653918      17.0000000000
13783 4      17.8994685160      17.0000000000
13784 4      16.2422176851      15.0000000000
13785 4      16.2191403864      18.0000000000
13786 4      17.5727695960      16.0000000000
13787 4      17.9577008197      20.0000000000
13788 4      15.1269029662      15.0000000000
13789 4      17.6607680228      16.0000000000
13790 4      14.9107243291      18.0000000000
13791 4      20.4947977675      23.0000000000
13792 4      19.1060863886      15.0000000000
13793 4      20.8561991930      19.0000000000
13794 4      16.9328002061      18.0000000000
13795 4      15.6437242622      19.0000000000
13796 4      20.4077855519      23.0000000000
13797 4      18.1446546068      22.0000000000
13798 4      18.5418152336      21.0000000000
13799 4      16.8699656405      18.0000000000
13800 4      18.4824467663      19.0000000000
13801 4      18.5918535566      23.0000000000
13802 4      15.3590253614      17.0000000000
13803 4      17.2699713542      20.0000000000
13804 4      16.9039670311      18.0000000000
13805 4      16.5284884061      15.0000000000
13806 4      22.4466768062      19.0000000000
13807 4      21.2328703725      20.0000000000
13808 4      15.4772330263      19.0000000000
13809 4      17.5672637945      16.0000000000
13810 4      18.2567221883      18.0000000000
13811 4      18.0925102883      17.0000000000
13812 4      20.2234733827      19.0000000000
13813 4      15.9165303234      18.0000000000
13814 4      19.8943000948      21.0000000000
13815 4      16.0809332490      15.0000000000
13816 4      15.7777028029      17.0000000000
13817 4      18.8531515969      18.0000000000
13818 4      17.4198384196      18.0000000000
13819 4      17.8530370525      17.0000000000
13820 4      19.1635280538      22.0000000000
13821 4      17.6053744071      19.0000000000
13822 4      12.4890907630      14.0000000000
13823 4      15.6254464443      19.0000000000
13824 4      16.3834878525      16.0000000000
13825 4      14.3589607978      16.0000000000
13826 4      15.8570454201      16.0000000000
13827 4      15.1337398954      18.0000000000
13828 4      13.3778345232      15.0000000000
13829 4      14.3409720708      17.0000000000
13830 4      14.1622860822      17.0000000000
13831 4      16.5837428881      17.0000000000
13832 4      18.2895425653      20.0000000000
13833 4      16.8012585131      19.0000000000
13834 4      17.5688724947      20.0000000000
13835 4      14.7815983384      14.0000000000
13836 4      16.9165322144      19.0000000000
13837 4      15.6653170948      17.0000000000
13838 4      15.5949643395      19.0000000000
13839 4      15.5942140250      16.0000000000
13840 4      18.0820865693      15.0000000000
13841 4      15.2738604458      16.0000000000
13842 4      17.4512786546      22.0000000000
13843 4      16.6720527656      20.0000000000
13844 4      17.9127433844      20.0000000000
13845 4      19.6377390603      21.0000000000
13846 4      15.2847860655      19.0000000000
13847 4      21.6047628795      19.0000000000
13848 4      15.4278659405      15.0000000000
13849 4      14.6463698517      18.0000000000
13850 4      14.1329326470      15.0000000000
13851 4      12.8027162317      14.0000000000
13852 4      16.3510741061      18.0000000000
13853 4      12.8841523095      15.0000000000
13854 4      21.3499845312      24.0000000000
13855 4      16.4381515362      17.0000000000
13856 4      16.0278807462      15.0000000000
13857 4      17.3969026753      20.0000000000
13858 4      14.1586535078      16.0000000000
13859 4      16.1358839852      17.0000000000
13860 4      14.2557068411      16.0000000000
13861 4      20.3658805536      20.0000000000
13862 4      18.8881911938      17.0000000000
13863 4      17.0287159768      15.0000000000
13864 4      16.4411931166      19.0000000000
13865 4      16.8781244564      13.0000000000
13866 4      19.1848077574      20.0000000000
13867 4      22.3859251461      22.0000000000
13868 4      19.7746511383      16.0000000000
13869 4      15.5383359144      18.0000000000
13870 4      16.0378537246      18.0000000000
13871 4      14.9944606993      17.0000000000
13872 4      17.1492497276      17.0000000000
13873 4      14.7742258597      16.0000000000
13874 4      18.7068516575      23.0000000000
13875 4      18.8153825265      18.0000000000
13876 4      12.7385655556      12.0000000000
13877 4      17.8492913285      19.0000000000
13878 4      16.2365655479      17.0000000000
13879 4      14.3513469709      14.0000000000
13880 4      15.7867839811      16.0000000000
13881 4      14.5968145287      19.0000000000
13882 4      19.0418729280      23.0000000000
13883 4      15.4711492889      18.0000000000
13884 4      13.8681164913      16.0000000000
13885 4      20.3863324124      19.0000000000
13886 4      15.6206369061      19.0000000000
13887 4      18.4894579328      16.0000000000
13888 4      14.4217830446      16.0000000000
13889 4      19.7354913160      20.0000000000
13890 4      18.7713556012      18.0000000000
13891 4      15.8515148893      18.0000000000
13892 4      15.8832057092      17.0000000000
13893 4      15.6396703206      21.0000000000
13894 4      15.6859961274      16.0000000000
13895 4      15.1337957860      17.0000000000
13896 4      16.2002453500      20.0000000000
13897 4      15.0001664742      19.0000000000
13898 4      15.3129554234      16.0000000000
13899 4      17.4445390641      17.0000000000
13900 4      15.5622500710      15.0000000000
13901 4      15.4834546846      18.0000000000
13902 4      16.9361237392      17.0000000000
13903 4      17.6269510287      19.0000000000
13904 4      14.5484031610      15.0000000000
13905 4      23.1359565531      23.0000000000
13906 4      15.7638984490      19.0000000000
13907 4      22.6288218415      20.0000000000
13908 4      13.8033109885      14.0000000000
13909 4      12.3177500777      13.0000000000
13910 4      16.5137026871      17.0000000000
13911 4      17.4569598322      19.0000000000
13912 4      17.2374539244      19.0000000000
13913 4      17.6257310450      19.0000000000
13914 4      17.1047283581      19.0000000000
13915 4      15.7694046534      17.0000000000
13916 4      17.2473541937      18.0000000000
13917 4      15.8358654377      16.0000000000
13918 4      14.9051016665      17.0000000000
13919 4      16.4064933160      21.0000000000
13920 4      18.3871212891      21.0000000000
13921 4      17.2441830293      20.0000000000
13922 4      13.8216137692      15.0000000000
13923 4      14.5885106092      15.0000000000
13924 4      16.7805660351      16.0000000000
13925 4      16.3626626850      20.0000000000
13926 4      16.0112461585      21.0000000000
13927 4      18.1602621429      17.0000000000
13928 4      14.6891798856      17.0000000000
13929 4      16.4678587436      16.0000000000
13930 4      16.4115046630      19.0000000000
13931 4      15.9445197446      16.0000000000
13932 4      15.2791829812      15.0000000000
13933 4      15.1743828202      14.0000000000
13934 4      19.1492224987      19.0000000000
13935 4      18.7356738199      20.0000000000
13936 4      18.0625392080      16.0000000000
13937 4      16.4471953594      17.0000000000
13938 4      16.8564513023      20.0000000000
13939 4      13.5258357840      16.0000000000
13940 4      19.4264050728      19.0000000000
13941 4      15.5298623776      14.0000000000
13942 4      20.0786309856      21.0000000000
13943 4      15.1161410179      17.0000000000
13944 4      15.3894478002      18.0000000000
13945 4      13.5221806717      16.0000000000
13946 4      14.1638594262      15.0000000000
13947 4      15.1878632512      14.0000000000
13948 4      18.2318564224      16.0000000000
13949 4      16.2197580958      19.0000000000
13950 4      16.8619142090      18.0000000000
13951 4      19.2453545891      21.0000000000
13952 4      15.1347173965      17.0000000000
13953 4      15.9321113476      20.0000000000
13954 4      15.0842916891      16.0000000000
13955 4      21.8498302811      23.0000000000
13956 4      19.0442125236      21.0000000000
13957 4      23.6014137108      26.0000000000
13958 4      18.2071991885      19.0000000000
13959 4      18.3107610557      17.0000000000
13960 4      18.1080826819      17.0000000000
13961 4      19.1427557286      18.0000000000
13962 4      17.5984996222      17.0000000000
13963 4      12.1341680859      14.0000000000
13964 4      17.7564432607      21.0000000000
13965 4      21.3389749235      23.0000000000
13966 4      17.7137824476      16.0000000000
13967 4      14.9371512328      14.0000000000
13968 4      17.0838369459      14.0000000000
13969 4      18.6961020564      20.0000000000
13970 4      22.7562547052      20.0000000000
13971 4      16.3231010724      20.0000000000
13972 4      15.0884047754      20.0000000000
13973 4      23.3575230920      22.0000000000
13974 4      18.0254491723      21.0000000000
13975 4      24.3068732908      21.0000000000
13976 4      18.1309508245      18.0000000000
13977 4      17.7317191380      18.0000000000
13978 4      16.6338113550      19.0000000000
13979 4      19.6717710978      22.0000000000
13980 4      18.9692032174      19.0000000000
13981 4      14.8365547060      18.0000000000
13982 4      18.2811355318      21.0000000000
13983 4      12.4457854201      14.0000000000
13984 4      16.2025379076      13.0000000000
13985 4      15.5798377385      15.0000000000
13986 4      16.6495382789      15.0000000000
13987 4      15.0051801679      17.0000000000
13988 4      17.2833556505      19.0000000000
13989 4      15.8956755796      17.0000000000
13990 4      17.9683222117      16.0000000000
13991 4      17.2165737839      15.0000000000
13992 4      19.1109566987      17.0000000000
13993 4      20.1968935265      20.0000000000
13994 4      18.4112689083      20.0000000000
13995 4      24.2064674571      23.0000000000
13996 4      19.9860853136      19.0000000000
13997 4      18.1976459858      18.0000000000
13998 4      15.5304960612      19.0000000000
13999 4      19.9191487847      20.0000000000
14000 4      15.5211004200      15.0000000000
14001 4      17.7942659798      19.0000000000
14002 4      16.1546697320      16.0000000000
14003 4      15.7520777054      16.0000000000
14004 4      16.4935588969      17.0000000000
14005 4      17.6889374992      19.0000000000
14006 4      15.9517870419      17.0000000000
14007 4      15.3263946399      17.0000000000
14008 4      16.5807360519      18.0000000000
14009 4      17.9086669315      22.0000000000
14010 4      15.8747740078      16.0000000000
14011 4      15.0622749016      18.0000000000
14012 4      24.3352631559      22.0000000000
14013 4      17.6639764788      19.0000000000
14014 4      19.2977702116      19.0000000000
14015 4      20.6716556787      20.0000000000
14016 4      17.1752634497      18.0000000000
14017 4      15.5103456025      16.0000000000
14018 4      20.0142358000      22.0000000000
14019 4      17.7215675261      17.0000000000
14020 4      18.2742106244      18.0000000000
14021 4      16.2538254286      19.0000000000
14022 4      20.2277466064      20.0000000000
14023 4      16.9264010043      21.0000000000
14024 4      14.2372672432      17.0000000000
14025 4      14.6565098997      18.0000000000
14026 4      13.7101589727      18.0000000000
14027 4      15.7189035474      17.0000000000
14028 4      16.2164202432      15.0000000000
14029 4      15.3833847174      16.0000000000
14030 4      15.7572346023      18.0000000000
14031 4      16.9277929681      17.0000000000
14032 4      15.1719174069      16.0000000000
14033 4      18.8655964949      15.0000000000
14034 4      16.4966756065      19.0000000000
14035 4      14.9542860249      15.0000000000
14036 4      16.4601353918      15.0000000000
14037 4      15.2965171347      18.0000000000
14038 4      14.0008356560      17.0000000000
14039 4      16.8865040521      18.0000000000
14040 4      18.2435362708      18.0000000000
14041 4      17.1702084730      17.0000000000
14042 4      18.6518748897      19.0000000000
14043 4      15.9787433819      16.0000000000
14044 4      18.1271401284      16.0000000000
14045 4      16.2932314589      19.0000000000
14046 4      17.9845918665      17.0000000000
14047 4      16.8312177806      16.0000000000
14048 4      16.2752841402      16.0000000000
14049 4      13.7572866274      15.0000000000
14050 4      17.6323519437      20.0000000000
14051 4      17.8267120732      21.0000000000
14052 4      16.7523285353      20.0000000000
14053 4      16.9809196760      19.0000000000
14054 4      15.4788745486      21.0000000000
14055 4      15.0812429015      18.0000000000
14056 4      16.9752974448      21.0000000000
14057 4      23.5512431995      24.0000000000
14058 4      13.6016483299      16.0000000000
14059 4      16.3585901531      19.0000000000
14060 4      15.8711465227      16.0000000000
14061 4      17.3751849501      18.0000000000
14062 4      18.2051359125      18.0000000000
14063 4      15.7091180586      18.0000000000
14064 4      16.6785809726      21.0000000000
14065 4      16.0836958056      20.0000000000
14066 4      14.4310066764      16.0000000000
14067 4      16.2335885431      18.0000000000
14068 4      14.2921424842      16.0000000000
14069 4      16.4485608906      15.0000000000
14070 4      18.0478501768      15.0000000000
14071 4      17.7191394196      18.0000000000
14072 4      19.1099047657      21.0000000000
14073 4      14.2167181974      15.0000000000
14074 4      17.7183539529      17.0000000000
14075 4      16.4796006192      14.0000000000
14076 4      18.0796134324      19.0000000000
14077 4      16.2141919874      15.0000000000
14078 4      14.9645616797      20.0000000000
14079 4      21.1299241514      22.0000000000
14080 4      16.5688120961      18.0000000000
14081 4      16.0639203091      19.0000000000
14082 4      14.5650688941      16.0000000000
14083 4      16.1107671926      18.0000000000
14084 4      14.5385036872      18.0000000000
14085 4      15.9675988328      15.0000000000
14086 4      14.1258360982      16.0000000000
14087 4      20.4483847094      22.0000000000
14088 4      19.1646497152      18.0000000000
14089 4      18.0865561017      19.0000000000
14090 4      17.7715715832      18.0000000000
14091 4      15.8062975604      19.0000000000
14092 4      17.4541303539      21.0000000000
14093 4      18.2735958334      20.0000000000
14094 4      18.3691927059      21.0000000000
14095 4      16.3322928077      14.0000000000
14096 4      20.4645808624      19.0000000000
14097 4      22.1105434616      22.0000000000
14098 4      17.7299388611      20.0000000000
14099 4      18.1543673738      16.0000000000
14100 4      19.1759260916      25.0000000000
14101 4      15.4434900026      15.0000000000
14102 4      16.5389106000      17.0000000000
14103 4      17.5911070397      21.0000000000
14104 4      20.4448640862      20.0000000000
14105 4      16.5400142888      21.0000000000
14106 4      23.4807669098      21.0000000000
14107 4      15.2159252967      16.0000000000
14108 4      19.5607573168      21.0000000000
14109 4      17.6708428502      19.0000000000
14110 4      13.7708791740      13.0000000000
14111 4      18.6784165580      18.0000000000
14112 4      16.6929678455      16.0000000000
14113 4      15.3803067143      22.0000000000
14114 4      15.6767902513      19.0000000000
14115 4      16.1734649887      17.0000000000
14116 4      18.5904282758      20.0000000000
14117 4      20.9882926318      23.0000000000
14118 4      16.3705051052      17.0000000000
14119 4      17.6502111436      19.0000000000
14120 4      16.6503071925      21.0000000000
14121 4      16.0077512352      16.0000000000
14122 4      19.0373313881      20.0000000000
14123 4      16.7528205930      20.0000000000
14124 4      14.3297828435      17.0000000000
14125 4      17.7960242614      16.0000000000
14126 4      15.3451528141      15.0000000000
14127 4      14.9069466419      16.0000000000
14128 4      17.4417446605      18.0000000000
14129 4      18.5180061065      17.0000000000
14130 4      16.9079706482      16.0000000000
14131 4      16.9980148027      18.0000000000
14132 4      19.8218501611      21.0000000000
14133 4      15.2176744858      18.0000000000
14134 4      15.2966946942      15.0000000000
14135 4      23.9169765209      24.0000000000
14136 4      21.1691331210      21.0000000000
14137 4      18.8347940774      17.0000000000
14138 4      15.9412905768      20.0000000000
14139 4      19.4356321468      22.0000000000
14140 4      19.5441146901      18.0000000000
14141 4      21.6353991470      22.0000000000
14142 4      16.5577370708      21.0000000000
14143 4      18.3756020834      21.0000000000
14144 4      15.6873393389      19.0000000000
14145 4      18.8929644008      18.0000000000
14146 4      16.9430300071      20.0000000000
14147 4      15.8776717326      19.0000000000
14148 4      18.6483941666      20.0000000000
14149 4      14.6159374958      15.0000000000
14150 4      16.1342951039      19.0000000000
14151 4      17.6574194892      20.0000000000
14152 4      18.7574654555      21.0000000000
14153 4      17.0154922364      20.0000000000
14154 4      16.3389155844      17.0000000000
14155 4      16.5983571113      18.0000000000
14156 4      14.6504995843      15.0000000000
14157 4      15.9595463053      19.0000000000
14158 4      14.0421364519      16.0000000000
14159 4      16.3309421010      19.0000000000
14160 4      13.7565396533      14.0000000000
14161 4      12.8666299986      15.0000000000
14162 4      16.6841240904      19.0000000000
14163 4      14.6751764148      17.0000000000
14164 4      13.6036444392      17.0000000000
14165 4      17.6945021364      18.0000000000
14166 4      17.9082867212      23.0000000000
14167 4      13.4002111763      15.0000000000
14168 4      15.3960044879      21.0000000000
14169 4      19.2593100436      19.0000000000
14170 4      13.7178149302      12.0000000000
14171 4      16.9534121294      18.0000000000
14172 4      20.8780923497      20.0000000000
14173 4      14.4920099955      17.0000000000
14174 4      13.6305975719      12.0000000000
14175 4      16.3772138331      17.0000000000
14176 4      20.4980916172      21.0000000000
14177 4      16.6575031133      21.0000000000
14178 4      16.1523574631      18.0000000000
14179 4      20.3227180863      23.0000000000
14180 4      16.7976273441      17.0000000000
14181 4      15.1678548107      16.0000000000
14182 4      15.3393669038      17.0000000000
14183 4      16.5914687933      18.0000000000
14184 4      15.0049016617      17.0000000000
14185 4      16.8647918448      20.0000000000
14186 4      15.1315292682      20.0000000000
14187 4      16.3392540735      19.0000000000
14188 4      17.0317763166      17.0000000000
14189 4      15.1563559110      15.0000000000
14190 4      13.7751987021      12.0000000000
14191 4      14.7721382779      17.0000000000
14192 4      16.6224696565      17.0000000000
14193 4      17.1364588234      18.0000000000
14194 4      19.1995357757      19.0000000000
14195 4      17.4549368854      20.0000000000
14196 4      15.9427326006      19.0000000000
14197 4      15.5662742570      15.0000000000
14198 4      13.6854239634      16.0000000000
14199 4      16.8618598727      17.0000000000
14200 4      17.0193919883      19.0000000000
14201 4      16.3626994812      18.0000000000
14202 4      15.5769013304      18.0000000000
14203 4      16.7999578899      18.0000000000
14204 4      19.2237808586      26.0000000000
14205 4      17.8009057991      19.0000000000
14206 4      16.0165877967      16.0000000000
14207 4      16.3949439908      17.0000000000
14208 4      13.8460478890      16.0000000000
14209 4      17.2720744161      15.0000000000
14210 4      12.9713137262      16.0000000000
14211 4      17.0772428415      22.0000000000
14212 4      18.0779378753      23.0000000000
14213 4      18.3862284287      19.0000000000
14214 4      15.3614422737      18.0000000000
14215 4      17.9699302240      21.0000000000
14216 4      13.6651148205      16.0000000000
14217 4      15.7574340132      21.0000000000
14218 4      14.6239378820      17.0000000000
14219 4      15.1007056129      16.0000000000
14220 4      14.2700714067      15.0000000000
14221 4      19.5495167161      18.0000000000
14222 4      13.9779747182      17.0000000000
14223 4      16.4893002932      16.0000000000
14224 4      14.1243667235      16.0000000000
14225 4      17.3369218909      18.0000000000
14226 4      17.5986388546      15.0000000000
14227 4      18.9896158107      17.0000000000
14228 4      21.9384454680      20.0000000000
14229 4      15.6228506065      17.0000000000
14230 4      13.8020103266      15.0000000000
14231 4      19.3558097171      19.0000000000
14232 4      15.8869846913      19.0000000000
14233 4      17.6361717060      20.0000000000
14234 4      15.0383340814      14.0000000000
14235 4      15.3175208320      14.0000000000
14236 4      18.4950666541      20.0000000000
14237 4      17.1700316356      15.0000000000
14238 4      18.4776615074      19.0000000000
14239 4      16.6535633786      18.0000000000
14240 4      17.7579267019      18.0000000000
14241 4      16.3238494234      18.0000000000
14242 4      14.6537906055      15.0000000000
14243 4      15.1759330612      17.0000000000
14244 4      13.2910179063      14.0000000000
14245 4      15.8621020963      17.0000000000
14246 4      15.5816709050      16.0000000000
14247 4      16.3653785478      17.0000000000
14248 4      16.2017484706      18.0000000000
14249 4      15.7607872202      14.0000000000
14250 4      16.0970745276      12.0000000000
14251 4      16.4794623098      22.0000000000
14252 4      15.2130234308      14.0000000000
14253 4      19.2689160983      21.0000000000
14254 4      16.1335147421      18.0000000000
14255 4      14.5820122463      15.0000000000
14256 4      17.8590574355      20.0000000000
14257 4      14.6599344476      14.0000000000
14258 4      16.6529262485      24.0000000000
14259 4      15.3830864014      19.0000000000
14260 4      19.0760109061      19.0000000000
14261 4      18.4228853678      20.0000000000
14262 4      16.1982725323      18.0000000000
14263 4      13.2953353362      17.0000000000
14264 4      15.6646555116      17.0000000000
14265 4      19.5646894170      22.0000000000
14266 4      18.9692957704      17.0000000000
14267 4      13.1509806818      14.0000000000
14268 4      18.9042490122      19.0000000000
14269 4      16.5034219102      19.0000000000
14270 4      15.4056687478      15.0000000000
14271 4      17.0806534551      20.0000000000
14272 4      17.7877500603      23.0000000000
14273 4      18.8807045613      18.0000000000
14274 4      13.4286713009      14.0000000000
14275 4      20.3934505632      15.0000000000
14276 4      15.0151407033      17.0000000000
14277 4      14.8293877979      18.0000000000
14278 4      15.2737926432      15.0000000000
14279 4      17.5851393293      17.0000000000
14280 4      14.0334612777      15.0000000000
14281 4      15.3483212183      19.0000000000
14282 4      15.6211927561      21.0000000000
14283 4      15.0198818699      19.0000000000
14284 4      15.0562543496      16.0000000000
14285 4      15.5799091938      15.0000000000
14286 4      19.1052005205      24.0000000000
14287 4      20.2389162811      21.0000000000
14288 4      17.0581160751      18.0000000000
14289 4      24.9709687298      21.0000000000
14290 4      24.7052338752      26.0000000000
14291 4      16.2273430728      15.0000000000
14292 4      18.4132464394      18.0000000000
14293 4      18.8499307545      18.0000000000
14294 4      17.4668695635      16.0000000000
14295 4      19.2091232083      17.0000000000
14296 4      20.0676213907      14.0000000000
14297 4      16.4617376599      18.0000000000
14298 4      19.0733701507      17.0000000000
14299 4      16.8070097450      20.0000000000
14300 4      15.8413702092      12.0000000000
14301 4      16.6336491133      17.0000000000
14302 4      19.8689259546      22.0000000000
14303 4      16.1802421179      19.0000000000
14304 4      15.6552295242      16.0000000000
14305 4      16.9031481358      19.0000000000
14306 4      19.6610603550      20.0000000000
14307 4      16.3957984668      17.0000000000
14308 4      17.6534822570      17.0000000000
14309 4      18.0150312005      18.0000000000
14310 4      19.1562679914      20.0000000000
14311 4      18.9823058153      18.0000000000
14312 4      15.0810302628      15.0000000000
14313 4      16.4712571257      17.0000000000
14314 4      19.3525712295      21.0000000000
14315 4      17.8717940701      18.0000000000
14316 4      16.9994308044      20.0000000000
14317 4      20.3738056222      20.0000000000
14318 4      16.3588608495      19.0000000000
14319 4      17.2131833020      15.0000000000
14320 4      14.4172292475      17.0000000000
14321 4      14.1568481216      16.0000000000
14322 4      18.6930041011      21.0000000000
14323 4      15.6616885813      17.0000000000
14324 4      19.6147943612      19.0000000000
14325 4      13.8094079669      16.0000000000
14326 4      15.8532980635      18.0000000000
14327 4      15.8846642149      13.0000000000
14328 4      16.5522862142      21.0000000000
14329 4      14.4090663567      18.0000000000
14330 4      21.7625479343      20.0000000000
14331 4      18.3736465309      18.0000000000
14332 4      14.6359423781      17.0000000000
14333 4      17.1361680283      24.0000000000
14334 4      16.7260799969      21.0000000000
14335 4      19.9979109691      24.0000000000
14336 4      14.2703311476      16.0000000000
14337 4      18.7112563683      18.0000000000
14338 4      16.8141043790      20.0000000000
14339 4      16.9897678193      20.0000000000
14340 4      18.9889460066      23.0000000000
14341 4      15.8430611002      18.0000000000
14342 4      17.4337229023      16.0000000000
14343 4      19.3485962080      23.0000000000
14344 4      17.7638786499      20.0000000000
14345 4      16.8525275132      19.0000000000
14346 4      15.9756015619      15.0000000000
14347 4      19.2856133372      21.0000000000
14348 4      17.5291646877      17.0000000000
14349 4      14.6028121000      19.0000000000
14350 4      14.1886358379      16.0000000000
14351 4      17.4234023437      17.0000000000
14352 4      17.8998585395      18.0000000000
14353 4      17.7776143111      19.0000000000
14354 4      18.1374697033      17.0000000000
14355 4      17.0792766051      17.0000000000
14356 4      15.5598834435      15.0000000000
14357 4      16.5285072562      19.0000000000
14358 4      15.1204473201      15.0000000000
14359 4      19.8529900697      20.0000000000
14360 4      17.6659396954      20.0000000000
14361 4      20.7982283817      24.0000000000
14362 4      15.8912859096      15.0000000000
14363 4      13.9851870220      20.0000000000
14364 4      19.7875312208      21.0000000000
14365 4      16.1365756862      20.0000000000
14366 4      17.3332090886      18.0000000000
14367 4      17.4257183758      17.0000000000
14368 4      18.8682619215      16.0000000000
14369 4      17.3085082278      19.0000000000
14370 4      18.3402158927      22.0000000000
14371 4      17.0748382748      16.0000000000
14372 4      17.9350101885      19.0000000000
14373 4      16.7527957573      16.0000000000
14374 4      18.3634795578      17.0000000000
14375 4      16.8864712431      16.0000000000
14376 4      16.0394749510      19.0000000000
14377 4      20.1335168440      19.0000000000
14378 4      14.5107752738      15.0000000000
14379 4      16.6628207618      18.0000000000
14380 4      15.5089374984      17.0000000000
14381 4      15.5229387726      15.0000000000
14382 4      14.1758693586      20.0000000000
14383 4      15.2375006037      17.0000000000
14384 4      19.4473255468      21.0000000000
14385 4      19.3958220526      19.0000000000
14386 4      16.2976405133      23.0000000000
14387 4      16.6329172558      18.0000000000
14388 4      13.3629305902      18.0000000000
14389 4      17.1386598197      20.0000000000
14390 4      16.3672140389      16.0000000000
14391 4      14.8055191060      15.0000000000
14392 4      20.5218227915      24.0000000000
14393 4      14.3080957779      16.0000000000
14394 4      16.8316642521      16.0000000000
14395 4      13.5699010794      15.0000000000
14396 4      18.1666933688      19.0000000000
14397 4      15.5812911088      18.0000000000
14398 4      17.8553951430      20.0000000000
14399 4      16.8420123853      23.0000000000
14400 4      15.7190713171      18.0000000000
14401 4      15.6973561116      14.0000000000
14402 4      15.0754125792      16.0000000000
14403 4      22.5594871382      20.0000000000
14404 4      18.8149030646      23.0000000000
14405 4      20.4349359069      23.0000000000
14406 4      15.6134523872      14.0000000000
14407 4      16.3916895146      19.0000000000
14408 4      14.9952756153      17.0000000000
14409 4      20.4521519468      19.0000000000
14410 4      15.3140982240      17.0000000000
14411 4      17.8788964689      17.0000000000
14412 4      15.5481889363      16.0000000000
14413 4      16.1016738097      21.0000000000
14414 4      13.1590848168      13.0000000000
14415 4      17.9808476716      18.0000000000
14416 4      16.1023869524      18.0000000000
14417 4      14.8005204607      17.0000000000
14418 4      21.9789692622      22.0000000000
14419 4      18.6364013081      21.0000000000
14420 4      15.1612261930      20.0000000000
14421 4      16.6757685829      22.0000000000
14422 4      17.0128366803      20.0000000000
14423 4      18.8244359494      16.0000000000
14424 4      15.7725325924      17.0000000000
14425 4      17.0569479584      19.0000000000
14426 4      16.3893258939      21.0000000000
14427 4      17.2048523134      20.0000000000
14428 4      17.3787895724      18.0000000000
14429 4      19.5727099725      19.0000000000
14430 4      16.1291312247      17.0000000000
14431 4      21.6792340366      21.0000000000
14432 4      18.2942955711      15.0000000000
14433 4      15.4853210212      16.0000000000
14434 4      19.1089016299      20.0000000000
14435 4      14.5719802600      17.0000000000
14436 4      15.0694522514      14.0000000000
14437 4      26.0281531288      22.0000000000
14438 4      12.8152573456      18.0000000000
14439 4      18.4658195213      19.0000000000
14440 4      15.4089635938      17.0000000000
14441 4      15.9171120736      19.0000000000
14442 4      19.4044753410      20.0000000000
14443 4      17.5018519594      15.0000000000
14444 4      18.1937396593      17.0000000000
14445 4      16.6760453375      18.0000000000
14446 4      14.9559297446      19.0000000000
14447 4      14.9843221410      16.0000000000
14448 4      16.6720055214      21.0000000000
14449 4      13.9744354731      12.0000000000
14450 4      17.6514476029      16.0000000000
14451 4      22.8296633252      22.0000000000
14452 4      14.6413479513      18.0000000000
14453 4      18.8072672194      17.0000000000
14454 4      16.4645534507      18.0000000000
14455 4      13.8963281542      17.0000000000
14456 4      18.3367239280      19.0000000000
14457 4      18.9931701616      18.0000000000
14458 4      16.6342405684      18.0000000000
14459 4      14.8344416453      17.0000000000
14460 4      14.6539886860      16.0000000000
14461 4      15.7465760292      17.0000000000
14462 4      17.4245137926      19.0000000000
14463 4      13.2101222590      16.0000000000
14464 4      13.5782957840      13.0000000000
14465 4      16.9432781997      22.0000000000
14466 4      14.3995512943      15.0000000000
14467 4      20.1823093595      20.0000000000
14468 4      18.3956867594      18.0000000000
14469 4      17.4672556193      20.0000000000
14470 4      20.3436282166      21.0000000000
14471 4      19.1717118348      22.0000000000
14472 4      18.6501388228      16.0000000000
14473 4      17.4657269833      18.0000000000
14474 4      17.4214674856      19.0000000000
14475 4      15.1958701878      15.0000000000
14476 4      19.0058760153      19.0000000000
14477 4      15.8421157970      21.0000000000
14478 4      15.5922090706      16.0000000000
14479 4      19.1404012917      20.0000000000
14480 4      18.6545183621      23.0000000000
14481 4      16.7059260625      20.0000000000
14482 4      16.1384936669      16.0000000000
14483 4      15.4718769353      15.0000000000
14484 4      17.3237315843      20.0000000000
14485 4      15.0760146339      18.0000000000
14486 4      17.9732192754      19.0000000000
14487 4      16.5450478474      20.0000000000
14488 4      14.5192442052      17.0000000000
14489 4      16.2251603301      16.0000000000
14490 4      19.2425448045      18.0000000000
14491 4      19.2536421893      20.0000000000
14492 4      17.0158082993      18.0000000000
14493 4      18.8441408314      20.0000000000
14494 4      15.9963341079      17.0000000000
14495 4      15.8051619865      17.0000000000
14496 4      14.4227569842      17.0000000000
14497 4      15.6417484911      14.0000000000
14498 4      18.3347280295      19.0000000000
14499 4      21.0564836597      20.0000000000
14500 4      15.7954601996      16.0000000000
14501 4      19.5786269430      23.0000000000
14502 4      17.5722729650      19.0000000000
14503 4      15.6882410423      18.0000000000
14504 4      16.7600131551      20.0000000000
14505 4      16.8345897076      15.0000000000
14506 4      17.4772019142      19.0000000000
14507 4      16.7836746625      20.0000000000
14508 4      16.2676580537      18.0000000000
14509 4      16.9631387872      20.0000000000
14510 4      19.4342795874      23.0000000000
14511 4      19.4563544114      18.0000000000
14512 4      13.9410569314      16.0000000000
14513 4      17.3278456444      20.0000000000
14514 4      17.1000964739      16.0000000000
14515 4      12.9058072610      16.0000000000
14516 4      17.7546697121      15.0000000000
14517 4      16.9849799581      18.0000000000
14518 4      18.0132923738      18.0000000000
14519 4      15.9546961408      17.0000000000
14520 4      20.0397662916      20.0000000000
14521 4      14.6395222571      16.0000000000
14522 4      17.3100759287      18.0000000000
14523 4      17.1034652306      18.0000000000
14524 4      15.7329267144      19.0000000000
14525 4      18.6717599552      18.0000000000
14526 4      14.5095950542      15.0000000000
14527 4      17.9195813270      19.0000000000
14528 4      16.5461498759      17.0000000000
14529 4      16.3695387988      14.0000000000
14530 4      16.5244252024      15.0000000000
14531 4      15.7058368433      17.0000000000
14532 4      15.7719513282      18.0000000000
14533 4      16.4160572350      19.0000000000
14534 4      22.2707459944      19.0000000000
14535 4      15.6324826408      22.0000000000
14536 4      17.8880486775      17.0000000000
14537 4      16.3866279874      16.0000000000
14538 4      16.4792958949      20.0000000000
14539 4      16.8559124494      17.0000000000
14540 4      21.4866507668      22.0000000000
14541 4      16.5605560340      20.0000000000
14542 4      15.2180568195      15.0000000000
14543 4      13.8171013302      18.0000000000
14544 4      26.5662430773      26.0000000000
14545 4      16.3238637712      17.0000000000
14546 4      16.0682559262      16.0000000000
14547 4      17.1333106755      18.0000000000
14548 4      16.5741431526      16.0000000000
14549 4      17.4609037064      19.0000000000
14550 4      15.4586070506      18.0000000000
14551 4      16.4562052309      16.0000000000
14552 4      14.7114188489      16.0000000000
14553 4      17.7970202169      15.0000000000
14554 4      22.5744799629      23.0000000000
14555 4      17.0820195843      19.0000000000
14556 4      19.1861690918      17.0000000000
14557 4      16.4338773050      19.0000000000
14558 4      16.7214274808      20.0000000000
14559 4      16.8834516532      16.0000000000
14560 4      15.0476147660      17.0000000000
14561 4      16.7956462082      18.0000000000
14562 4      17.4682841505      18.0000000000
14563 4      17.5824237859      21.0000000000
14564 4      17.2010212965      21.0000000000
14565 4      17.2727122123      19.0000000000
14566 4      15.4457403542      16.0000000000
14567 4      17.4492229414      20.0000000000
14568 4      16.1066354442      17.0000000000
14569 4      16.8336639728      22.0000000000
14570 4      19.9579711795      19.0000000000
14571 4      18.5717026425      22.0000000000
14572 4      21.6633927553      23.0000000000
14573 4      13.2076884843      16.0000000000
14574 4      13.0912267921      14.0000000000
14575 4      16.4947382637      16.0000000000
14576 4      18.4084194334      19.0000000000
14577 4      19.0818705535      24.0000000000
14578 4      18.2204395263      19.0000000000
14579 4      16.2765557187      17.0000000000
14580 4      16.8026615507      20.0000000000
14581 4      17.7604814448      17.0000000000
14582 4      19.0169499823      20.0000000000
14583 4      14.7600179849      20.0000000000
14584 4      12.4161342772      15.0000000000
14585 4      16.7274579931      18.0000000000
14586 4      17.9726754546      19.0000000000
14587 4      14.5473277387      16.0000000000
14588 4      13.9058631293      14.0000000000
14589 4      17.7211930266      16.0000000000
14590 4      18.9708147215      22.0000000000
14591 4      17.2335289661      18.0000000000
14592 4      16.6946956405      17.0000000000
14593 4      15.4519396347      16.0000000000
14594 4      15.4493661601      18.0000000000
14595 4      15.1729747218      19.0000000000
14596 4      15.4255703458      16.0000000000
14597 4      15.1062716362      17.0000000000
14598 4      20.4262978414      19.0000000000
14599 4      16.9669913328      18.0000000000
14600 4      18.3306856067      19.0000000000
14601 4      18.6922619973      20.0000000000
14602 4      13.3479359824      16.0000000000
14603 4      12.1796942095      13.0000000000
14604 4      17.8052657958      17.0000000000
14605 4      16.4808885018      18.0000000000
14606 4      26.5773421262      22.0000000000
14607 4      17.2702447764      20.0000000000
14608 4      20.4732681050      19.0000000000
14609 4      15.3321197296      16.0000000000
14610 4      17.3796448702      17.0000000000
14611 4      19.7830457827      18.0000000000
14612 4      16.1917604373      19.0000000000
14613 4      18.5647092123      16.0000000000
14614 4      15.1600196170      17.0000000000
14615 4      14.9068656486      17.0000000000
14616 4      12.3342331344      15.0000000000
14617 4      18.6281506625      17.0000000000
14618 4      14.2732144134      15.0000000000
14619 4      16.1247653397      16.0000000000
14620 4      14.0915672510      15.0000000000
14621 4      15.9204087570      19.0000000000
14622 4      16.6412867873      20.0000000000
14623 4      12.8392493206      18.0000000000
14624 4      14.5161424205      16.0000000000
14625 4      15.6390691568      20.0000000000
14626 4      14.3293140640      18.0000000000
14627 4      15.1523684950      15.0000000000
14628 4      19.0863485028      17.0000000000
14629 4      15.8981343119      19.0000000000
14630 4      18.7486643266      15.0000000000
14631 4      13.4635688008      16.0000000000
14632 4      21.7692141858      24.0000000000
14633 4      15.2447101600      16.0000000000
14634 4      17.1699782893      16.0000000000
14635 4      18.6355518681      18.0000000000
14636 4      12.0112670130      13.0000000000
14637 4      16.9910150386      15.0000000000
14638 4      14.9922780891      15.0000000000
14639 4      18.4794129998      18.0000000000
14640 4      17.2640571371      15.0000000000
14641 4      18.7884730340      18.0000000000
14642 4      18.3554009413      20.0000000000
14643 4      13.3882351716      14.0000000000
14644 4      15.6799117978      19.0000000000
14645 4      16.4031161968      16.0000000000
14646 4      16.1954090283      17.0000000000
14647 4      16.0546417993      16.0000000000
14648 4      15.2592041186      15.0000000000
14649 4      17.2911272318      19.0000000000
14650 4      14.1740405553      14.0000000000
14651 4      20.8054168880      21.0000000000
14652 4      19.0727217250      20.0000000000
14653 4      17.6464775147      17.0000000000
14654 4      16.2885988617      17.0000000000
14655 4      17.2983948794      21.0000000000
14656 4      16.7182717125      16.0000000000
14657 4      15.3911078946      17.0000000000
14658 4      20.6786095049      19.0000000000
14659 4      16.8440754679      14.0000000000
14660 4      14.3991368068      16.0000000000
14661 4      15.2673745736      19.0000000000
14662 4      25.5952924390      23.0000000000
14663 4      18.5360033330      22.0000000000
14664 4      14.7322319723      15.0000000000
14665 4      14.8028446664      19.0000000000
14666 4      15.7674190149      19.0000000000
14667 4      15.7556482148      19.0000000000
14668 4      16.6376423679      17.0000000000
14669 4      14.3725316137      15.0000000000
14670 4      14.3247759826      18.0000000000
14671 4      16.9960385758      18.0000000000
14672 4      19.1204675226      18.0000000000
14673 4      21.6809338273      21.0000000000
14674 4      14.5048719257      16.0000000000
14675 4      18.2158461923      18.0000000000
14676 4      15.1455443738      17.0000000000
14677 4      14.3558845182      13.0000000000
14678 4      17.8642877576      19.0000000000
14679 4      15.8497643357      21.0000000000
14680 4      16.7003766267      15.0000000000
14681 4      16.8027163311      22.0000000000
14682 4      18.5271238275      17.0000000000
14683 4      19.1484638711      20.0000000000
14684 4      15.0015608444      13.0000000000
14685 4      14.8814222115      17.0000000000
14686 4      15.1039664516      19.0000000000
14687 4      17.9776525986      21.0000000000
14688 4      16.0704103476      14.0000000000
14689 4      16.5128019129      21.0000000000
14690 4      17.9465479588      18.0000000000
14691 4      17.3982613512      20.0000000000
14692 4      17.0638716350      18.0000000000
14693 4      20.0591720891      20.0000000000
14694 4      16.4012131449      16.0000000000
14695 4      14.8793966295      16.0000000000
14696 4      19.7509756385      20.0000000000
14697 4      16.0060889468      18.0000000000
14698 4      18.5856868726      20.0000000000
14699 4      22.7200236123      24.0000000000
14700 4      14.7188757229      17.0000000000
14701 4      17.5493031803      17.0000000000
14702 4      16.0678444491      19.0000000000
14703 4      15.0334015236      16.0000000000
14704 4      18.5185493155      20.0000000000
14705 4      13.7970120393      15.0000000000
14706 4      14.1573961593      16.0000000000
14707 4      18.8388909001      18.0000000000
14708 4      16.7797483271      17.0000000000
14709 4      16.2328642947      15.0000000000
14710 4      19.3518015922      22.0000000000
14711 4      14.8739565273      23.0000000000
14712 4      16.3559863976      16.0000000000
14713 4      15.2733305025      16.0000000000
14714 4      16.7018925000      19.0000000000
14715 4      17.8491886721      17.0000000000
14716 4      13.5470236770      18.0000000000
14717 4      14.3469621689      17.0000000000
14718 4      16.7580353370      20.0000000000
14719 4      17.8578944422      20.0000000000
14720 4      14.3742461216      15.0000000000
14721 4      15.9658756007      17.0000000000
14722 4      23.4005635805      22.0000000000
14723 4      15.1355193828      16.0000000000
14724 4      22.8672166190      24.0000000000
14725 4      17.4580785964      17.0000000000
14726 4      18.6096682447      15.0000000000
14727 4      16.0625475453      17.0000000000
14728 4      16.8558110422      19.0000000000
14729 4      15.3504277766      18.0000000000
14730 4      18.1336695520      17.0000000000
14731 4      16.8667987543      16.0000000000
14732 4      19.0051721395      23.0000000000
14733 4      12.6675379646      15.0000000000
14734 4      16.6765551570      18.0000000000
14735 4      18.3936314607      12.0000000000
14736 4      15.2955468829      18.0000000000
14737 4      22.1814243220      24.0000000000
14738 4      15.4799547689      17.0000000000
14739 4      17.7152513676      18.0000000000
14740 4      15.2600665755      16.0000000000
14741 4      15.6589117681      20.0000000000
14742 4      14.8085507959      15.0000000000
14743 4      16.6381589850      15.0000000000
14744 4      15.4720140470      13.0000000000
14745 4      17.3185258229      18.0000000000
14746 4      17.2437067424      18.0000000000
14747 4      19.7880463835      21.0000000000
14748 4      17.2283224006      19.0000000000
14749 4      15.7377783144      18.0000000000
14750 4      19.6195028270      20.0000000000
14751 4      15.4176169693      16.0000000000
14752 4      16.2400023839      16.0000000000
14753 4      17.4236971099      19.0000000000
14754 4      19.1679047734      18.0000000000
14755 4      19.2457713600      20.0000000000
14756 4      18.3747683926      22.0000000000
14757 4      13.9265199337      14.0000000000
14758 4      16.8885075924      19.0000000000
14759 4      20.1799591970      25.0000000000
14760 4      14.4058018906      17.0000000000
14761 4      16.5204534877      19.0000000000
14762 4      13.9754396436      18.0000000000
14763 4      15.4323163416      16.0000000000
14764 4      12.4119610763      12.0000000000
14765 4      16.7834223159      21.0000000000
14766 4      15.2258985448      19.0000000000
14767 4      17.7541794063      19.0000000000
14768 4      12.1757627886      11.0000000000
14769 4      19.6564366674      21.0000000000
14770 4      21.4769347392      20.0000000000
14771 4      22.0935572311      22.0000000000
14772 4      16.7344000111      21.0000000000
14773 4      21.8082595811      22.0000000000
14774 4      15.9409414427      18.0000000000
14775 4      17.8185981993      20.0000000000
14776 4      17.8911345290      22.0000000000
14777 4      22.4482747309      23.0000000000
14778 4      15.5609391232      16.0000000000
14779 4      16.9355608018      18.0000000000
14780 4      17.4566564893      15.0000000000
14781 4      19.0396712609      17.0000000000
14782 4      16.8708251912      12.0000000000
14783 4      15.0814995622      18.0000000000
14784 4      15.6879721570      21.0000000000
14785 4      14.2653199545      15.0000000000
14786 4      15.3531912715      17.0000000000
14787 4      20.4009596559      21.0000000000
14788 4      16.9672235107      20.0000000000
14789 4      18.7947807423      20.0000000000
14790 4      15.4023987883      18.0000000000
14791 4      14.7026701938      14.0000000000
14792 4      19.1700895769      15.0000000000
14793 4      15.5772024450      19.0000000000
14794 4      15.4208812342      15.0000000000
14795 4      14.4541931970      16.0000000000
14796 4      18.2480723660      22.0000000000
14797 4      20.4374914809      20.0000000000
14798 4      13.1418654265      13.0000000000
14799 4      16.6522518840      18.0000000000
14800 4      17.0685015651      18.0000000000
14801 4      16.4641038738      16.0000000000
14802 4      21.4367265501      22.0000000000
14803 4      19.1080204687      18.0000000000
14804 4      18.4600117909      19.0000000000
14805 4      14.8099530273      12.0000000000
14806 4      17.0156481865      17.0000000000
14807 4      19.1753151680      22.0000000000
14808 4      19.2883396022      20.0000000000
14809 4      19.4857168902      17.0000000000
14810 4      15.5408340218      16.0000000000
14811 4      18.4436875717      22.0000000000
14812 4      17.8720160732      21.0000000000
14813 4      15.7464591174      17.0000000000
14814 4      16.6446777846      14.0000000000
14815 4      15.4574020466      15.0000000000
14816 4      16.1835590238      20.0000000000
14817 4      15.9878729270      17.0000000000
14818 4      16.7380886119      17.0000000000
14819 4      18.5489471738      20.0000000000
14820 4      16.5345030866      18.0000000000
14821 4      15.9461423207      14.0000000000
14822 4      18.9174967763      21.0000000000
14823 4      17.2761776560      18.0000000000
14824 4      15.0035450012      19.0000000000
14825 4      17.0859206356      19.0000000000
14826 4      20.9014715249      20.0000000000
14827 4      19.3527722636      20.0000000000
14828 4      16.2852321473      16.0000000000
14829 4      14.8233046269      16.0000000000
14830 4      20.7750823877      19.0000000000
14831 4      13.9032496586      17.0000000000
14832 4      16.4092369221      14.0000000000
14833 4      17.9118866342      19.0000000000
14834 4      14.5816404207      18.0000000000
14835 4      22.4865069602      26.0000000000
14836 4      15.8180446897      17.0000000000
14837 4      16.7041858247      19.0000000000
14838 4      17.7945595278      20.0000000000
14839 4      17.7704484037      23.0000000000
14840 4      14.7515419277      15.0000000000
14841 4      17.0833854144      19.0000000000
14842 4      17.9370264496      16.0000000000
14843 4      15.5964855433      18.0000000000
14844 4      16.5032340240      20.0000000000
14845 4      17.0229682497      16.0000000000
14846 4      15.3792500812      16.0000000000
14847 4      13.3066639561      17.0000000000
14848 4      13.0711364829      16.0000000000
14849 4      18.5247918785      19.0000000000
14850 4      16.1785653601      18.0000000000
14851 4      22.4434088270      20.0000000000
14852 4      16.5210200499      17.0000000000
14853 4      16.4971800671      20.0000000000
14854 4      16.3336863055      17.0000000000
14855 4      17.1196749248      20.0000000000
14856 4      18.5184075597      20.0000000000
14857 4      14.6020789871      16.0000000000
14858 4      15.4486878473      17.0000000000
14859 4      16.7516985295      17.0000000000
14860 4      14.6857445710      18.0000000000
14861 4      18.7883944103      21.0000000000
14862 4      14.7727510959      13.0000000000
14863 4      16.3751312747      13.0000000000
14864 4      15.9381578648      17.0000000000
14865 4      22.1567007347      21.0000000000
14866 4      19.0921412108      19.0000000000
14867 4      19.2477052122      20.0000000000
14868 4      15.3795330412      19.0000000000
14869 4      15.6700436610      16.0000000000
14870 4      20.3130983747      21.0000000000
14871 4      20.0886688292      19.0000000000
14872 4      18.5689618276      18.0000000000
14873 4      15.3724477242      16.0000000000
14874 4      15.5389878831      15.0000000000
14875 4      27.7568083597      22.0000000000
14876 4      12.3495227970      13.0000000000
14877 4      16.9992950622      18.0000000000
14878 4      17.2906066488      20.0000000000
14879 4      15.4920108316      19.0000000000
14880 4      15.8003909685      16.0000000000
14881 4      17.6427448002      21.0000000000
14882 4      14.5401582356      15.0000000000
14883 4      17.8998069335      17.0000000000
14884 4      15.3479775548      19.0000000000
14885 4      17.8811167160      20.0000000000
14886 4      14.7485851849      15.0000000000
14887 4      15.7936510323      21.0000000000
14888 4      18.2109988113      22.0000000000
14889 4      15.5225593025      13.0000000000
14890 4      20.3429931895      20.0000000000
14891 4      14.5102991254      15.0000000000
14892 4      14.1440277003      14.0000000000
14893 4      16.7949947465      17.0000000000
14894 4      17.3912826817      18.0000000000
14895 4      15.2830557635      16.0000000000
14896 4      18.4669152895      20.0000000000
14897 4      16.4336676048      19.0000000000
14898 4      15.4049225375      17.0000000000
14899 4      15.4934210317      15.0000000000
14900 4      21.3959868958      20.0000000000
14901 4      15.1074893757      19.0000000000
14902 4      15.4712047657      16.0000000000
14903 4      15.9137232157      19.0000000000
14904 4      16.7727699556      13.0000000000
14905 4      18.3238456649      16.0000000000
14906 4      20.1536821521      20.0000000000
14907 4      15.6456344027      16.0000000000
14908 4      16.4248509131      18.0000000000
14909 4      17.6471696591      17.0000000000
14910 4      18.7695560709      19.0000000000
14911 4      16.4814139924      16.0000000000
14912 4      17.4510532233      22.0000000000
14913 4      17.6359295725      19.0000000000
14914 4      17.8066106754      16.0000000000
14915 4      15.0416295458      19.0000000000
14916 4      17.7760726494      17.0000000000
14917 4      21.1627976869      20.0000000000
14918 4      17.2181250256      22.0000000000
14919 4      15.6376865580      19.0000000000
14920 4      18.6354980738      19.0000000000
14921 4      16.1122734477      18.0000000000
14922 4      17.6614477500      19.0000000000
14923 4      17.6562167529      16.0000000000
14924 4      21.9258902275      20.0000000000
14925 4      15.2431771244      17.0000000000
14926 4      13.7142769741      18.0000000000
14927 4      18.3521425977      17.0000000000
14928 4      14.9962669724      18.0000000000
14929 4      15.4471054555      16.0000000000
14930 4      15.5561353588      17.0000000000
14931 4      14.5775646583      16.0000000000
14932 4      17.3515562471      19.0000000000
14933 4      13.9733691812      17.0000000000
14934 4      21.1604849963      21.0000000000
14935 4      18.1355166885      22.0000000000
14936 4      14.1994948363      17.0000000000
14937 4      15.6268156130      17.0000000000
14938 4      14.6299943468      15.0000000000
14939 4      16.4665603115      17.0000000000
14940 4      13.8516520555      16.0000000000
14941 4      16.9656415490      18.0000000000
14942 4      16.7938383516      21.0000000000
14943 4      17.0557677602      17.0000000000
14944 4      19.2098385982      22.0000000000
14945 4      15.8961473219      20.0000000000
14946 4      22.9508186424      25.0000000000
14947 4      15.4283749972      19.0000000000
14948 4      13.8650956515      13.0000000000
14949 4      19.9007196304      19.0000000000
14950 4      22.2998382808      25.0000000000
14951 4      15.3226161472      15.0000000000
14952 4      16.7088683603      17.0000000000
14953 4      15.1849806850      17.0000000000
14954 4      18.6282025345      23.0000000000
14955 4      14.2410532450      16.0000000000
14956 4      15.2705977160      16.0000000000
14957 4      13.8413736919      16.0000000000
14958 4      18.6796458343      19.0000000000
14959 4      15.6928727093      19.0000000000
14960 4      15.7707337496      15.0000000000
14961 4      15.9781078172      19.0000000000
14962 4      17.8491580061      21.0000000000
14963 4      17.1053778443      16.0000000000
14964 4      14.5873941427      14.0000000000
14965 4      15.9492261754      15.0000000000
14966 4      13.5762109695      14.0000000000
14967 4      17.9261552910      18.0000000000
14968 4      15.9037332866      17.0000000000
14969 4      17.5214110567      18.0000000000
14970 4      17.7255876326      20.0000000000
14971 4      18.5524234862      19.0000000000
14972 4      16.1177345411      17.0000000000
14973 4      14.9340495937      16.0000000000
14974 4      14.7874223502      19.0000000000
14975 4      22.0618462667      26.0000000000
14976 4      15.6199459731      14.0000000000
14977 4      17.1035943114      20.0000000000
14978 4      17.6688043519      21.0000000000
14979 4      15.3842486823      18.0000000000
14980 4      16.5483399289      19.0000000000
14981 4      17.9246311892      21.0000000000
14982 4      17.6483897801      21.0000000000
14983 4      18.2288036740      20.0000000000
14984 4      16.7411506770      16.0000000000
14985 4      14.9498347848      16.0000000000
14986 4      17.5069405992      14.0000000000
14987 4      19.0848886589      22.0000000000
14988 4      17.1926196097      17.0000000000
14989 4      16.4842100627      18.0000000000
14990 4      16.1718113037      19.0000000000
14991 4      15.8502508226      15.0000000000
14992 4      15.0983642219      13.0000000000
14993 4      17.3220923154      19.0000000000
14994 4      14.0686586637      17.0000000000
14995 4      18.9415567999      21.0000000000
14996 4      12.9198097574      12.0000000000
14997 4      16.4926817639      17.0000000000
14998 4      17.8827573997      22.0000000000
14999 4      18.4069158179      20.0000000000
15000 4      19.4013859340      21.0000000000
