ITEM: TIMESTEP
0
ITEM: NUMBER OF ATOMS
15000
ITEM: BOX BOUNDS pp pp pp
2.2064438519324980e-01 6.0467359985822156e+01
2.2064438519324980e-01 6.0467359985822156e+01
2.2064438519324980e-01 6.0467359985822156e+01
ITEM: ATOMS id type c_voro[1] c_voro[2]
1 1       6.9567499994      10.0000000000
2 1       7.6261479663       9.0000000000
3 1       7.3064028547       8.0000000000
4 1       7.2680358273       9.0000000000
5 1       6.8726854981       8.0000000000
6 1       7.0024078534      10.0000000000
7 1       7.0769353718       8.0000000000
8 1       7.3293546712       8.0000000000
9 1       6.9815018937      10.0000000000
10 1       7.4350059538       8.0000000000
11 1       6.9938656466       8.0000000000
12 1       6.8417749159       9.0000000000
13 1       6.9551849805      10.0000000000
14 1       7.1295457065      10.0000000000
15 1       7.1707345838       7.0000000000
16 1       7.3522232535      11.0000000000
17 1       7.4763722638      11.0000000000
18 1       6.9472798181       9.0000000000
19 1       7.2804848453       8.0000000000
20 1       7.3088746208       8.0000000000
21 1       7.4258310979       9.0000000000
22 1       7.0386076956       9.0000000000
23 1       7.5770985189      10.0000000000
24 1       7.6228324695      10.0000000000
25 1       7.3028563382       9.0000000000
26 1       7.0886152332       9.0000000000
27 1       7.3360618297       9.0000000000
28 1       7.4557681904       8.0000000000
29 1       7.2737374138       8.0000000000
30 1       6.8279020718       8.0000000000
31 1       8.4534895557      12.0000000000
32 1       7.1430857336       9.0000000000
33 1       7.5642066371       9.0000000000
34 1       7.2780928713      12.0000000000
35 1       7.3685359638      10.0000000000
36 1       7.8636124869      10.0000000000
37 1       7.4514552861      10.0000000000
38 1       7.6279715460      10.0000000000
39 1       7.2080640132       9.0000000000
40 1       7.5237349787      12.0000000000
41 1       7.5772679910       7.0000000000
42 1       8.0574337655      10.0000000000
43 1       7.3013097434      10.0000000000
44 1       7.1367490866       7.0000000000
45 1       7.1693112431       6.0000000000
46 1       7.0680468898       9.0000000000
47 1       7.8175919376       8.0000000000
48 1       7.2262764578      10.0000000000
49 1       6.7284975749       8.0000000000
50 1       6.5917523135       8.0000000000
51 1       7.5559508106       8.0000000000
52 1       7.5824136089       9.0000000000
53 1       6.8950986457       9.0000000000
54 1       7.4103596839       7.0000000000
55 1       7.3647608032       8.0000000000
56 1       7.4834482497       9.0000000000
57 1       7.5557896959      10.0000000000
58 1       7.4063091318       7.0000000000
59 1       8.0471884360      12.0000000000
60 1       6.8215646172      10.0000000000
61 1       7.7172775786       9.0000000000
62 1       7.9387106912      10.0000000000
63 1       7.3227121721       9.0000000000
64 1       6.9664080143       9.0000000000
65 1       6.7534412267       8.0000000000
66 1       6.8853872650       9.0000000000
67 1       7.0810187128       9.0000000000
68 1       7.0302876071       8.0000000000
69 1       6.9908571047       9.0000000000
70 1       6.9769170826       7.0000000000
71 1       7.3257201340       9.0000000000
72 1       7.8439639121      10.0000000000
73 1       7.4310950088       9.0000000000
74 1       6.7270533786       8.0000000000
75 1       6.9205559483       8.0000000000
76 1       7.2489604314       9.0000000000
77 1       7.8017139763      10.0000000000
78 1       7.2889310319      10.0000000000
79 1       6.9081734746      10.0000000000
80 1       6.7895732817       9.0000000000
81 1       7.9087490392      11.0000000000
82 1       7.4446033058       8.0000000000
83 1       7.7912502650      10.0000000000
84 1       7.2305478738       8.0000000000
85 1       7.7674823090      11.0000000000
86 1       7.4920911631      12.0000000000
87 1       7.6288790230      11.0000000000
88 1       7.0659772135      10.0000000000
89 1       7.5624256776      10.0000000000
90 1       7.4573498378       9.0000000000
91 1       7.7016932743      10.0000000000
92 1       7.3709686794      10.0000000000
93 1       7.3926527324      10.0000000000
94 1       6.9668552936       7.0000000000
95 1       6.8063264429       9.0000000000
96 1       7.4699560895       9.0000000000
97 1       7.4634328820      10.0000000000
98 1       7.7504161337       8.0000000000
99 1       7.2549677520       9.0000000000
100 1       7.1826269673       9.0000000000
101 1       7.3820051371      10.0000000000
102 1       7.1939424092       9.0000000000
103 1       7.8150131235       7.0000000000
104 1       6.7647609646       9.0000000000
105 1       7.0495459101       8.0000000000
106 1       7.5252438730       7.0000000000
107 1       6.9236574952       7.0000000000
108 1       7.5556250580       8.0000000000
109 1       6.9723824055       9.0000000000
110 1       6.9203641726       8.0000000000
111 1       7.1470593975       9.0000000000
112 1       7.3326175482      11.0000000000
113 1       7.0412742277       8.0000000000
114 1       7.0494512004       8.0000000000
115 1       7.4936130205      10.0000000000
116 1       7.4701965280      10.0000000000
117 1       7.0527974544      10.0000000000
118 1       7.3915399386       9.0000000000
119 1       7.3378436930      10.0000000000
120 1       7.0538045347       8.0000000000
121 1       7.1939634232       9.0000000000
122 1       6.9770322741      10.0000000000
123 1       7.2455621296       8.0000000000
124 1       7.0754495071       8.0000000000
125 1       7.1538824865       9.0000000000
126 1       7.9901076584       7.0000000000
127 1       7.4848864184      12.0000000000
128 1       7.5387597723       9.0000000000
129 1       7.1680443277       8.0000000000
130 1       7.5969321060       9.0000000000
131 1       7.9714109110      10.0000000000
132 1       6.8752199840       9.0000000000
133 1       7.3698754456      10.0000000000
134 1       7.1130183651       7.0000000000
135 1       7.4784103352      10.0000000000
136 1       7.4753762901       9.0000000000
137 1       6.8813589837       9.0000000000
138 1       6.7018956118       8.0000000000
139 1       6.9723636405      11.0000000000
140 1       7.2376639395       7.0000000000
141 1       7.0953512363       9.0000000000
142 1       6.9703724344       6.0000000000
143 1       7.8088985518      12.0000000000
144 1       7.5551468819       8.0000000000
145 1       7.1814545669      10.0000000000
146 1       7.1752769050       9.0000000000
147 1       7.3535521920      11.0000000000
148 1       7.0378554595       8.0000000000
149 1       7.5432909106      12.0000000000
150 1       7.3820214962       7.0000000000
151 1       7.2573692761       8.0000000000
152 1       7.2461518396      11.0000000000
153 1       6.7700645609      11.0000000000
154 1       7.1461942825       8.0000000000
155 1       7.1792794606      11.0000000000
156 1       7.0952717852       7.0000000000
157 1       7.2957699929      10.0000000000
158 1       7.2273946338      10.0000000000
159 1       6.8972437718       9.0000000000
160 1       7.1775085114      11.0000000000
161 1       6.8088857109       8.0000000000
162 1       7.3434273921       8.0000000000
163 1       7.1899149792      10.0000000000
164 1       6.8020356062       9.0000000000
165 1       6.6502898451       8.0000000000
166 1       7.2479726963      11.0000000000
167 1       7.1208070858      10.0000000000
168 1       7.4934417277      11.0000000000
169 1       7.0992352118       8.0000000000
170 1       7.1644251766       6.0000000000
171 1       6.9403750280       9.0000000000
172 1       7.3619091188      11.0000000000
173 1       7.2188831815       8.0000000000
174 1       7.0133646193       8.0000000000
175 1       7.0673385351       9.0000000000
176 1       7.0374536430       9.0000000000
177 1       7.3835713388       9.0000000000
178 1       7.2937100431      10.0000000000
179 1       7.1439390494       9.0000000000
180 1       7.4877399815       9.0000000000
181 1       6.7655665601       9.0000000000
182 1       7.1423302280       9.0000000000
183 1       7.4349861290       9.0000000000
184 1       7.1597445953       9.0000000000
185 1       7.2950812120      10.0000000000
186 1       7.1291228241       8.0000000000
187 1       7.9887250026      12.0000000000
188 1       7.2152070890       8.0000000000
189 1       7.5197032579       9.0000000000
190 1       7.2866666121       8.0000000000
191 1       7.1564281966       9.0000000000
192 1       7.4465618949       9.0000000000
193 1       7.8657009090       9.0000000000
194 1       7.1590074454       8.0000000000
195 1       7.4889468777       9.0000000000
196 1       7.1263416670       8.0000000000
197 1       7.5393225682       7.0000000000
198 1       6.8619504394       9.0000000000
199 1       7.0397863057       8.0000000000
200 1       6.7499587829       7.0000000000
201 1       7.1308264415       8.0000000000
202 1       7.2803675992       8.0000000000
203 1       7.6502591399      10.0000000000
204 1       7.3822752647      10.0000000000
205 1       7.3817767558       9.0000000000
206 1       7.9403064872       9.0000000000
207 1       7.2304819909      11.0000000000
208 1       7.2829748958       9.0000000000
209 1       7.6736597355       9.0000000000
210 1       7.6258390896       9.0000000000
211 1       7.4373390692       8.0000000000
212 1       7.7636629431       9.0000000000
213 1       6.7170798601       9.0000000000
214 1       7.1860298736       9.0000000000
215 1       7.6511950773       8.0000000000
216 1       7.5035552254      11.0000000000
217 1       7.2778211002      11.0000000000
218 1       7.3972597327       9.0000000000
219 1       7.7403987852       8.0000000000
220 1       7.0627267556       8.0000000000
221 1       7.0549959619       8.0000000000
222 1       7.7266712816      10.0000000000
223 1       6.9635806558       9.0000000000
224 1       7.5898712544       8.0000000000
225 1       7.3808825563      10.0000000000
226 1       7.3938686117       7.0000000000
227 1       7.0364077470       8.0000000000
228 1       7.5627068817      12.0000000000
229 1       7.7241791517       9.0000000000
230 1       7.3781046227       7.0000000000
231 1       7.8272392982      11.0000000000
232 1       7.4792590213       8.0000000000
233 1       7.4828550868       8.0000000000
234 1       6.9726839849       8.0000000000
235 1       7.0891819942       9.0000000000
236 1       7.3775298705       8.0000000000
237 1       7.0160552825       9.0000000000
238 1       7.5987182554      11.0000000000
239 1       7.3585011860       9.0000000000
240 1       7.7033111693      11.0000000000
241 1       7.2702946383      10.0000000000
242 1       7.1245455128       9.0000000000
243 1       7.1583111133       9.0000000000
244 1       7.7087555932      10.0000000000
245 1       7.4002751894      10.0000000000
246 1       7.6449907017       9.0000000000
247 1       6.9276203704       8.0000000000
248 1       7.4981516385       9.0000000000
249 1       7.2346547629       7.0000000000
250 1       6.7250635360      10.0000000000
251 1       7.3475583626       7.0000000000
252 1       7.2408191949       9.0000000000
253 1       7.3103251546       8.0000000000
254 1       7.2659828661       8.0000000000
255 1       7.3774152124       8.0000000000
256 1       7.4578185995       7.0000000000
257 1       7.1690817827       8.0000000000
258 1       7.3566142122       7.0000000000
259 1       6.7737396902       9.0000000000
260 1       7.3118127648       8.0000000000
261 1       7.6186556980      10.0000000000
262 1       7.3875178771       8.0000000000
263 1       7.2939986958       9.0000000000
264 1       7.4103302771      10.0000000000
265 1       7.5622094750       9.0000000000
266 1       7.7927480650       9.0000000000
267 1       6.7686649729       8.0000000000
268 1       7.5014800369       8.0000000000
269 1       7.1426680246       9.0000000000
270 1       7.8810002305       6.0000000000
271 1       7.6874230496       8.0000000000
272 1       7.5211001843       7.0000000000
273 1       7.3151536475      10.0000000000
274 1       7.3322827967       7.0000000000
275 1       7.2760177473       9.0000000000
276 1       7.3454318899      11.0000000000
277 1       7.1226662345       9.0000000000
278 1       7.2632280738       9.0000000000
279 1       7.2902619609       9.0000000000
280 1       7.8790181199       9.0000000000
281 1       7.7758255630      10.0000000000
282 1       7.5286494183      10.0000000000
283 1       7.4848422622      10.0000000000
284 1       7.1688652197      10.0000000000
285 1       7.0264378184       8.0000000000
286 1       7.3461222500       9.0000000000
287 1       7.4454610516      10.0000000000
288 1       7.8931234977       7.0000000000
289 1       7.5035056791      10.0000000000
290 1       7.7037638174      11.0000000000
291 1       7.3825491647       8.0000000000
292 1       6.7868622995      11.0000000000
293 1       7.0884574495      10.0000000000
294 1       7.3418746020       8.0000000000
295 1       7.0975949221       7.0000000000
296 1       7.4879264032       8.0000000000
297 1       7.4051897863       8.0000000000
298 1       7.8152925941      11.0000000000
299 1       7.2020768794      12.0000000000
300 1       7.2240825138       9.0000000000
301 1       7.5279938433       9.0000000000
302 1       6.7624223417       8.0000000000
303 1       7.3138653914       7.0000000000
304 1       7.5248745935      11.0000000000
305 1       7.2544874244       9.0000000000
306 1       7.1000203202       8.0000000000
307 1       7.0291223099      10.0000000000
308 1       6.9985117478       8.0000000000
309 1       7.3827319930       8.0000000000
310 1       7.3127428401       8.0000000000
311 1       7.7195280506      12.0000000000
312 1       6.7551612188       8.0000000000
313 1       7.4057990692       7.0000000000
314 1       7.4835576176      11.0000000000
315 1       6.9882125271       9.0000000000
316 1       7.6636838673       8.0000000000
317 1       7.4022714143       9.0000000000
318 1       7.2918824831      10.0000000000
319 1       6.8126478911       9.0000000000
320 1       7.4129497903       9.0000000000
321 1       7.0505238867       9.0000000000
322 1       7.2229215808       7.0000000000
323 1       6.9424081681       9.0000000000
324 1       6.9970284970      10.0000000000
325 1       7.5423322243       9.0000000000
326 1       7.4027262308      10.0000000000
327 1       6.8546388878      10.0000000000
328 1       7.2619247914       9.0000000000
329 1       7.5865099233      11.0000000000
330 1       7.4215136313      10.0000000000
331 1       7.9751125779      12.0000000000
332 1       7.0369260934       9.0000000000
333 1       7.4599672504       7.0000000000
334 1       7.0919538764       9.0000000000
335 1       7.3925291891       7.0000000000
336 1       7.4860593351       7.0000000000
337 1       7.5842200840      10.0000000000
338 1       7.0809425203       9.0000000000
339 1       7.1528042132       9.0000000000
340 1       7.2670456312       9.0000000000
341 1       6.5975153436       7.0000000000
342 1       7.2276335929      10.0000000000
343 1       7.4459244184       9.0000000000
344 1       6.8593022117       9.0000000000
345 1       6.7847091767      10.0000000000
346 1       7.5474720387       9.0000000000
347 1       7.7333469513      10.0000000000
348 1       7.0686609550       9.0000000000
349 1       7.3488213036      10.0000000000
350 1       7.5169572142       9.0000000000
351 1       7.4395573459       9.0000000000
352 1       7.4761448287       7.0000000000
353 1       7.1859283798      10.0000000000
354 1       7.6823531129       8.0000000000
355 1       7.0572373222       8.0000000000
356 1       7.7721688836       9.0000000000
357 1       7.5459828832       9.0000000000
358 1       6.8713815236      10.0000000000
359 1       7.4538041507       9.0000000000
360 1       7.1107799820       9.0000000000
361 1       6.9990579074       8.0000000000
362 1       7.2646320557       9.0000000000
363 1       7.2403762461       8.0000000000
364 1       7.3545839676       9.0000000000
365 1       7.1771865951       9.0000000000
366 1       7.1080863208       8.0000000000
367 1       7.4139408520       9.0000000000
368 1       7.2153001833       8.0000000000
369 1       6.7836714890       8.0000000000
370 1       6.7669619500       8.0000000000
371 1       7.3211706531      10.0000000000
372 1       7.6288058404       9.0000000000
373 1       7.5736056112      11.0000000000
374 1       6.7667587680       9.0000000000
375 1       7.5347861048       7.0000000000
376 1       7.6927935050      12.0000000000
377 1       7.2793239845       9.0000000000
378 1       7.3302824058      10.0000000000
379 1       7.5025587184       9.0000000000
380 1       7.3205700381      10.0000000000
381 1       7.4711961129       9.0000000000
382 1       8.0052384738      11.0000000000
383 1       7.6805519492       8.0000000000
384 1       7.7722630043      12.0000000000
385 1       6.3953844391       8.0000000000
386 1       7.1637953999       8.0000000000
387 1       7.5186303780       8.0000000000
388 1       7.2152723236      10.0000000000
389 1       7.6252358458      12.0000000000
390 1       7.1070821665      12.0000000000
391 1       7.3989898083      11.0000000000
392 1       7.5787882641      11.0000000000
393 1       7.5835660088       8.0000000000
394 1       7.2688966685       8.0000000000
395 1       6.9631907460       9.0000000000
396 1       6.3195299581       8.0000000000
397 1       7.1191259349      10.0000000000
398 1       7.6722224858       8.0000000000
399 1       7.6172942527       9.0000000000
400 1       7.0121426124       8.0000000000
401 1       7.0046694323       7.0000000000
402 1       6.9985728880       8.0000000000
403 1       7.3424200216       8.0000000000
404 1       7.6081392107       8.0000000000
405 1       6.7924584636       7.0000000000
406 1       7.1930331615       7.0000000000
407 1       7.4084125468       8.0000000000
408 1       7.9117799505       9.0000000000
409 1       6.5809352806      10.0000000000
410 1       7.4683059353       9.0000000000
411 1       6.9464028924      10.0000000000
412 1       7.7153332044       7.0000000000
413 1       7.5494327277       6.0000000000
414 1       6.7560060388       6.0000000000
415 1       7.9670858575      10.0000000000
416 1       7.4649529497      10.0000000000
417 1       7.6703410904      11.0000000000
418 1       7.2496342005       7.0000000000
419 1       7.3428393448       7.0000000000
420 1       7.5046723852      10.0000000000
421 1       7.3961474294       9.0000000000
422 1       7.6157371162       7.0000000000
423 1       6.9570028381       8.0000000000
424 1       7.8089401534       9.0000000000
425 1       6.9961075887       8.0000000000
426 1       7.1350907398       8.0000000000
427 1       7.5990556520      10.0000000000
428 1       7.8788375911      11.0000000000
429 1       7.4265007391       6.0000000000
430 1       7.5145392631       8.0000000000
431 1       6.7994312535       8.0000000000
432 1       7.4186394659      10.0000000000
433 1       6.7676734973       7.0000000000
434 1       7.3436291867       8.0000000000
435 1       6.9244688822       7.0000000000
436 1       7.1561226502       8.0000000000
437 1       7.4528030907      12.0000000000
438 1       7.2077022766      11.0000000000
439 1       7.5897810857      10.0000000000
440 1       7.0535242456       9.0000000000
441 1       7.4568431508       8.0000000000
442 1       7.8254201684      11.0000000000
443 1       7.9002869345       9.0000000000
444 1       6.8767823706       9.0000000000
445 1       7.1423568859       7.0000000000
446 1       7.3821506347       8.0000000000
447 1       7.9829068054       8.0000000000
448 1       7.2151025986      10.0000000000
449 1       7.0633858845       9.0000000000
450 1       7.1583132926       8.0000000000
451 1       7.5299467591      10.0000000000
452 1       7.3172476227       7.0000000000
453 1       7.5378124534       8.0000000000
454 1       7.1128019320       8.0000000000
455 1       7.3875753477      10.0000000000
456 1       7.1828722430      10.0000000000
457 1       6.9315187664       8.0000000000
458 1       6.7748833437       9.0000000000
459 1       7.5926781412      10.0000000000
460 1       7.1350630358      10.0000000000
461 1       7.4047149363       9.0000000000
462 1       7.3027773276       9.0000000000
463 1       7.4351439646      11.0000000000
464 1       7.1420982663      10.0000000000
465 1       7.3613189099       9.0000000000
466 1       7.3266356438      10.0000000000
467 1       6.3546851125       8.0000000000
468 1       7.5365833494       8.0000000000
469 1       6.9836705239       8.0000000000
470 1       7.2491341547       7.0000000000
471 1       7.3524933985       9.0000000000
472 1       7.6171635240       9.0000000000
473 1       7.6426744881       9.0000000000
474 1       7.2048733841      11.0000000000
475 1       7.7821737462      12.0000000000
476 1       7.3058174657       7.0000000000
477 1       7.3051321795       8.0000000000
478 1       7.9041267752       7.0000000000
479 1       7.2136770040       7.0000000000
480 1       7.7977036642       9.0000000000
481 1       7.6080220243       9.0000000000
482 1       7.9110036211       9.0000000000
483 1       7.4446644212       9.0000000000
484 1       7.7708450847       9.0000000000
485 1       7.0245605045       8.0000000000
486 1       7.4934452504       9.0000000000
487 1       7.1524847569      10.0000000000
488 1       7.2956294952       8.0000000000
489 1       7.1736866392       8.0000000000
490 1       7.5654124814       8.0000000000
491 1       7.2123777339      10.0000000000
492 1       7.1257912578       9.0000000000
493 1       7.4514517339      10.0000000000
494 1       7.8316095507       7.0000000000
495 1       7.2399904536      12.0000000000
496 1       7.2625131045      10.0000000000
497 1       7.1572385784       7.0000000000
498 1       7.2825644943       8.0000000000
499 1       7.1729163147       8.0000000000
500 1       7.5551047376       9.0000000000
501 1       7.2341913595      11.0000000000
502 1       7.7183536614      13.0000000000
503 1       7.2046758202       9.0000000000
504 1       7.2165473832      10.0000000000
505 1       7.5534593718      10.0000000000
506 1       7.6507761639      11.0000000000
507 1       7.7599812492      11.0000000000
508 1       7.9835770256       7.0000000000
509 1       7.4632941036       8.0000000000
510 1       7.0861048750      11.0000000000
511 1       7.7636117068       8.0000000000
512 1       7.7237058231      12.0000000000
513 1       7.4193656629       8.0000000000
514 1       7.2799658752      10.0000000000
515 1       7.3303776875      10.0000000000
516 1       7.3760496179       9.0000000000
517 1       7.1304770483       8.0000000000
518 1       7.8601879481       8.0000000000
519 1       7.4403840770      12.0000000000
520 1       7.3318140783       9.0000000000
521 1       7.1992503043       8.0000000000
522 1       7.5379602132      10.0000000000
523 1       7.1207336532       8.0000000000
524 1       7.6583877305       8.0000000000
525 1       7.1868049100       9.0000000000
526 1       6.8329515608       8.0000000000
527 1       7.1861103825      10.0000000000
528 1       7.2541930051       8.0000000000
529 1       7.5556469198       9.0000000000
530 1       7.4758284885      10.0000000000
531 1       7.6701405812       8.0000000000
532 1       6.8307935685       9.0000000000
533 1       7.3669360976       8.0000000000
534 1       7.6821299037       9.0000000000
535 1       7.2012945844       8.0000000000
536 1       7.1399219205      12.0000000000
537 1       6.9245539662      10.0000000000
538 1       7.3698406811       9.0000000000
539 1       7.8155691383       9.0000000000
540 1       7.2062480785       8.0000000000
541 1       7.6022477504       8.0000000000
542 1       6.9186020993       9.0000000000
543 1       7.0740511978       9.0000000000
544 1       8.3013042773      11.0000000000
545 1       7.3721623233       8.0000000000
546 1       7.2155219253       9.0000000000
547 1       7.2476907364       9.0000000000
548 1       7.2602584396       7.0000000000
549 1       7.6615122210      12.0000000000
550 1       7.0238164413       8.0000000000
551 1       7.1023575341      10.0000000000
552 1       7.2237453451       9.0000000000
553 1       7.5946073651      13.0000000000
554 1       7.6385192531      11.0000000000
555 1       7.2188852768       9.0000000000
556 1       7.3917041320      10.0000000000
557 1       6.9200469577       9.0000000000
558 1       7.7044454197       9.0000000000
559 1       7.3937648629       8.0000000000
560 1       7.1891740343       9.0000000000
561 1       7.3386678956       9.0000000000
562 1       7.2159766844      10.0000000000
563 1       6.9360093247       9.0000000000
564 1       7.8811608318      14.0000000000
565 1       6.9455323002       7.0000000000
566 1       7.0792497088       7.0000000000
567 1       7.2503778309      10.0000000000
568 1       7.5710247169      11.0000000000
569 1       7.2969537464       9.0000000000
570 1       7.7932174226       9.0000000000
571 1       6.6997510248       7.0000000000
572 1       7.8682745505       8.0000000000
573 1       7.3672673170       9.0000000000
574 1       7.5109553917      11.0000000000
575 1       7.3188218434      10.0000000000
576 1       7.8488685043      12.0000000000
577 1       7.2298625727       9.0000000000
578 1       6.8950721217      10.0000000000
579 1       7.3727961432       8.0000000000
580 1       7.0831301830       8.0000000000
581 1       7.4569170480       7.0000000000
582 1       6.9421941630       9.0000000000
583 1       7.1243386757       9.0000000000
584 1       6.8676404697       9.0000000000
585 1       7.4214835316       9.0000000000
586 1       6.9398844854       8.0000000000
587 1       7.1932544874       8.0000000000
588 1       7.2791368326       8.0000000000
589 1       7.0899098846       8.0000000000
590 1       7.3621873970       9.0000000000
591 1       7.4973648980       8.0000000000
592 1       7.1744021092      10.0000000000
593 1       7.2187691322       8.0000000000
594 1       7.1787341861       7.0000000000
595 1       7.1585716735       8.0000000000
596 1       7.6968764722       9.0000000000
597 1       7.0396481378       8.0000000000
598 1       7.0055303173       7.0000000000
599 1       6.9523366068       9.0000000000
600 1       8.2228204521       8.0000000000
601 1       7.0932350843       9.0000000000
602 1       7.3251164082       9.0000000000
603 1       7.4412261421      10.0000000000
604 1       6.9735066702      10.0000000000
605 1       7.0357686058      11.0000000000
606 1       7.4539758309      14.0000000000
607 1       6.9430249684       8.0000000000
608 1       7.3741257371      10.0000000000
609 1       7.1586940179       8.0000000000
610 1       7.0273533489       8.0000000000
611 1       7.3743123665       9.0000000000
612 1       7.2014241476      10.0000000000
613 1       7.7954688615       9.0000000000
614 1       7.1168967504       9.0000000000
615 1       7.0322610635      10.0000000000
616 1       6.9752620403       7.0000000000
617 1       8.1418019885       9.0000000000
618 1       6.9346272948       8.0000000000
619 1       7.5289762775      10.0000000000
620 1       6.8767342881       8.0000000000
621 1       7.4475918822       8.0000000000
622 1       7.0953814529      10.0000000000
623 1       7.5675372895      10.0000000000
624 1       6.7925817541      10.0000000000
625 1       7.3816293284       7.0000000000
626 1       7.2317912443      10.0000000000
627 1       7.5271342476       9.0000000000
628 1       7.7577126188       8.0000000000
629 1       7.7083526196      10.0000000000
630 1       7.1706253467       9.0000000000
631 1       7.6379281744      11.0000000000
632 1       7.1630499664       8.0000000000
633 1       7.3547766414       8.0000000000
634 1       6.9896594819       9.0000000000
635 1       7.9338509160      10.0000000000
636 1       7.7167018514      10.0000000000
637 1       7.1500662992       9.0000000000
638 1       7.4320536503       8.0000000000
639 1       7.3473214064       9.0000000000
640 1       7.4735850425       9.0000000000
641 1       7.6276016518      12.0000000000
642 1       7.1100505155       8.0000000000
643 1       7.0570351834      10.0000000000
644 1       7.1603616975       8.0000000000
645 1       6.8527945265       9.0000000000
646 1       7.6309482175       8.0000000000
647 1       7.4707390448       8.0000000000
648 1       6.9554024691       9.0000000000
649 1       7.6240051429      10.0000000000
650 1       7.0914158035       8.0000000000
651 1       6.9874466821       9.0000000000
652 1       7.0202262156       8.0000000000
653 1       7.2882472460       7.0000000000
654 1       6.7682777335      10.0000000000
655 1       7.0335607874       9.0000000000
656 1       7.0805729991       9.0000000000
657 1       7.3656552747       9.0000000000
658 1       7.6546002623       9.0000000000
659 1       7.1195795365       8.0000000000
660 1       7.5443367845       9.0000000000
661 1       7.0888979033      12.0000000000
662 1       7.6386830308       7.0000000000
663 1       7.4264092109       8.0000000000
664 1       7.0731772459       8.0000000000
665 1       7.0240758612       7.0000000000
666 1       7.8790336712       9.0000000000
667 1       7.2471103515       8.0000000000
668 1       7.4615635399       8.0000000000
669 1       8.0835234470       8.0000000000
670 1       7.3574826538       9.0000000000
671 1       6.8291847022       8.0000000000
672 1       7.6373848271      10.0000000000
673 1       7.4024176325       8.0000000000
674 1       7.5006477489       8.0000000000
675 1       7.8022812418       9.0000000000
676 1       7.4382226358       7.0000000000
677 1       7.3776851487       8.0000000000
678 1       7.2941939139       8.0000000000
679 1       7.7187291962      11.0000000000
680 1       6.9326125473       8.0000000000
681 1       7.0569974125       9.0000000000
682 1       7.6336349470      10.0000000000
683 1       6.7855266189       8.0000000000
684 1       7.5969027334       8.0000000000
685 1       7.2661124418       9.0000000000
686 1       7.5396031301      10.0000000000
687 1       7.3499489926       9.0000000000
688 1       6.7731159575       9.0000000000
689 1       7.8008612026       8.0000000000
690 1       7.4425528082      11.0000000000
691 1       7.2640828482      10.0000000000
692 1       7.3187504186       8.0000000000
693 1       7.4093227146       8.0000000000
694 1       7.3456486943      10.0000000000
695 1       6.7592524046       9.0000000000
696 1       7.3054010788       9.0000000000
697 1       7.4885069026       8.0000000000
698 1       7.6911959650      10.0000000000
699 1       7.0102644876       9.0000000000
700 1       7.3959102582      10.0000000000
701 1       7.3824099938      10.0000000000
702 1       6.5182975054       7.0000000000
703 1       7.3276638821       9.0000000000
704 1       7.9216844467      10.0000000000
705 1       6.7836129227       8.0000000000
706 1       7.4508160215       9.0000000000
707 1       6.9979039747       8.0000000000
708 1       6.7809154871       9.0000000000
709 1       7.5583366916       8.0000000000
710 1       7.2742842879       8.0000000000
711 1       7.1947662143       9.0000000000
712 1       7.5658319974       9.0000000000
713 1       8.2201014506      13.0000000000
714 1       7.1630197499       7.0000000000
715 1       7.4877193793       9.0000000000
716 1       7.2106507791       7.0000000000
717 1       7.8165081902      11.0000000000
718 1       6.7168612699       9.0000000000
719 1       7.2713242011      10.0000000000
720 1       7.0551306066       9.0000000000
721 1       6.8675295946      10.0000000000
722 1       7.1772166714       8.0000000000
723 1       7.2868741694       9.0000000000
724 1       7.5660916284      10.0000000000
725 1       7.7169469731       9.0000000000
726 1       6.9048953536       9.0000000000
727 1       7.2784465920       7.0000000000
728 1       7.4076092678       8.0000000000
729 1       7.5687011719       9.0000000000
730 1       7.3870985377       9.0000000000
731 1       7.0291949633       9.0000000000
732 1       7.2720045937      10.0000000000
733 1       7.3352946139      11.0000000000
734 1       7.5032327004       9.0000000000
735 1       7.4441023534      10.0000000000
736 1       6.6951792654      10.0000000000
737 1       7.4253964593      10.0000000000
738 1       7.5381942377      11.0000000000
739 1       7.1920065782       9.0000000000
740 1       7.8385677003      10.0000000000
741 1       7.1689399559       7.0000000000
742 1       7.1755530353       7.0000000000
743 1       7.3638927139       8.0000000000
744 1       7.1010922646       8.0000000000
745 1       7.8263993517      10.0000000000
746 1       7.9786214886       9.0000000000
747 1       7.0801793982      12.0000000000
748 1       6.7007053231       9.0000000000
749 1       7.1652474407      10.0000000000
750 1       7.4964783322       9.0000000000
751 1       7.1877871222      10.0000000000
752 1       7.2038182521       8.0000000000
753 1       7.4154569223       9.0000000000
754 1       7.3592295326      12.0000000000
755 1       7.5742745032       8.0000000000
756 1       7.0768604883       7.0000000000
757 1       7.2428557924       9.0000000000
758 1       7.4815606462       9.0000000000
759 1       7.1252518212      10.0000000000
760 1       7.5153152435      10.0000000000
761 1       7.3766922188       8.0000000000
762 1       6.7928475105       7.0000000000
763 1       6.6629153063       9.0000000000
764 1       7.4141206247       8.0000000000
765 1       7.3133480529      10.0000000000
766 1       7.4226592610       9.0000000000
767 1       7.4578847379       9.0000000000
768 1       7.0388573368       8.0000000000
769 1       7.3898361190       8.0000000000
770 1       7.5035855480       9.0000000000
771 1       7.0835984502       8.0000000000
772 1       7.6627147796       9.0000000000
773 1       7.6195958482       8.0000000000
774 1       7.7128190125      10.0000000000
775 1       7.2724735017       8.0000000000
776 1       7.5655100592      10.0000000000
777 1       7.3929217920       9.0000000000
778 1       7.0344225953       7.0000000000
779 1       6.9408867441       8.0000000000
780 1       7.0121952716       8.0000000000
781 1       7.3806540612       9.0000000000
782 1       7.2658037463       8.0000000000
783 1       7.5880602414       9.0000000000
784 1       7.3078396387       9.0000000000
785 1       7.9944315017       9.0000000000
786 1       7.6080805930       9.0000000000
787 1       7.3217043489       9.0000000000
788 1       7.0099549610       9.0000000000
789 1       7.2242469329      10.0000000000
790 1       7.7055924862       8.0000000000
791 1       7.5064936681      10.0000000000
792 1       6.9108812367       8.0000000000
793 1       7.2133824666      11.0000000000
794 1       7.9811131259      11.0000000000
795 1       7.5867153444       9.0000000000
796 1       7.5193998730       8.0000000000
797 1       6.5790099916       7.0000000000
798 1       7.8049086546       9.0000000000
799 1       7.0991119837       8.0000000000
800 1       7.3508155687       7.0000000000
801 1       6.9524006992       9.0000000000
802 1       7.2559196848       8.0000000000
803 1       7.4333888078       9.0000000000
804 1       7.0698395503      11.0000000000
805 1       7.1769539651       9.0000000000
806 1       7.2611245100       9.0000000000
807 1       7.5214236437       8.0000000000
808 1       7.6344327939      12.0000000000
809 1       6.8761984849       8.0000000000
810 1       6.9319066572       8.0000000000
811 1       6.6478933434       8.0000000000
812 1       7.3870252482      12.0000000000
813 1       7.2654619115       9.0000000000
814 1       7.1968179559       9.0000000000
815 1       7.5062161742       8.0000000000
816 1       7.4564834667       9.0000000000
817 1       7.7451268124      10.0000000000
818 1       7.9926470604      10.0000000000
819 1       7.3474589971       8.0000000000
820 1       7.4644133399      11.0000000000
821 1       7.0062233303       7.0000000000
822 1       7.3373906147       9.0000000000
823 1       6.8636937116       6.0000000000
824 1       6.9376631218       8.0000000000
825 1       7.8016409632      10.0000000000
826 1       7.6906930344       9.0000000000
827 1       7.7240040853      10.0000000000
828 1       7.3594739042       9.0000000000
829 1       7.6570345507       8.0000000000
830 1       7.4218438204       9.0000000000
831 1       7.6184657715       9.0000000000
832 1       7.2583115726       9.0000000000
833 1       7.4143063272      10.0000000000
834 1       7.1537831481      10.0000000000
835 1       7.0624008151       8.0000000000
836 1       7.1877701972       7.0000000000
837 1       8.3072880893      12.0000000000
838 1       7.3527070962       9.0000000000
839 1       7.4630738400      10.0000000000
840 1       7.2069871681       7.0000000000
841 1       7.4752203449      11.0000000000
842 1       7.5043857623       7.0000000000
843 1       7.2371293810       7.0000000000
844 1       7.1609119873       8.0000000000
845 1       7.6944582870      10.0000000000
846 1       7.4770793482      10.0000000000
847 1       7.5696489488      11.0000000000
848 1       7.4470186956       8.0000000000
849 1       7.4999015639       8.0000000000
850 1       7.3197797646       7.0000000000
851 1       7.3095636255       9.0000000000
852 1       7.1922856139       9.0000000000
853 1       7.3420201610      10.0000000000
854 1       7.3029701405       8.0000000000
855 1       7.5776887752       7.0000000000
856 1       6.6806356657       7.0000000000
857 1       7.2633271443       8.0000000000
858 1       7.5247988983       8.0000000000
859 1       7.5329604483      11.0000000000
860 1       7.4801277843       8.0000000000
861 1       7.3216332593      10.0000000000
862 1       7.3767160689       9.0000000000
863 1       7.5659142448       9.0000000000
864 1       7.9652914360       9.0000000000
865 1       7.6710904367      10.0000000000
866 1       7.0752516922      10.0000000000
867 1       7.4882400727      10.0000000000
868 1       7.6667936569      11.0000000000
869 1       7.6513123723       8.0000000000
870 1       7.2243838833       8.0000000000
871 1       7.4981109318      11.0000000000
872 1       7.4456765179       8.0000000000
873 1       7.0017410078       9.0000000000
874 1       7.0084195058       8.0000000000
875 1       7.2053041049       9.0000000000
876 1       7.5297718049      10.0000000000
877 1       7.5298969690      10.0000000000
878 1       7.6127076304       6.0000000000
879 1       7.2182437955       8.0000000000
880 1       6.4907474760       9.0000000000
881 1       7.2125979401       8.0000000000
882 1       7.4835105118      10.0000000000
883 1       7.0630696107       8.0000000000
884 1       7.3520264354       8.0000000000
885 1       7.4644374556       9.0000000000
886 1       7.2255386616       8.0000000000
887 1       7.1409901043      11.0000000000
888 1       7.8218300216      11.0000000000
889 1       7.4895138396       8.0000000000
890 1       6.9101283833       9.0000000000
891 1       7.4605805702      11.0000000000
892 1       7.5753539733       9.0000000000
893 1       7.3317883413       7.0000000000
894 1       7.2271411626      10.0000000000
895 1       7.0963802194       8.0000000000
896 1       6.9635692515      11.0000000000
897 1       7.3832609609       9.0000000000
898 1       7.0238485480       9.0000000000
899 1       7.0892394654       6.0000000000
900 1       7.1721389345      10.0000000000
901 1       7.2008772593       9.0000000000
902 1       7.0478317929      11.0000000000
903 1       6.8622010307       8.0000000000
904 1       7.2260402739       9.0000000000
905 1       7.0077254807       9.0000000000
906 1       6.9437129130      11.0000000000
907 1       6.8031172794       8.0000000000
908 1       7.5534384337       8.0000000000
909 1       7.2830052494       7.0000000000
910 1       7.2838620434      11.0000000000
911 1       6.9375838912       7.0000000000
912 1       6.8784173206       8.0000000000
913 1       7.1897399492      10.0000000000
914 1       7.3760615320       8.0000000000
915 1       7.3732127710       9.0000000000
916 1       7.1195000573       9.0000000000
917 1       7.1534984259      10.0000000000
918 1       7.6657308051       9.0000000000
919 1       7.4573150216       9.0000000000
920 1       7.1663341716       7.0000000000
921 1       7.0526069216       8.0000000000
922 1       6.6411432831       8.0000000000
923 1       7.4817440580      10.0000000000
924 1       6.8176134808       9.0000000000
925 1       7.6126531571       9.0000000000
926 1       7.0092251905       9.0000000000
927 1       7.5278396819      11.0000000000
928 1       7.0121553709       8.0000000000
929 1       7.1682168764      11.0000000000
930 1       7.5398064589      11.0000000000
931 1       7.6167165645      10.0000000000
932 1       7.2473422161       9.0000000000
933 1       7.1465205454       9.0000000000
934 1       6.5213793252       8.0000000000
935 1       7.3972542438      10.0000000000
936 1       7.2858859396       9.0000000000
937 1       7.2437889087       7.0000000000
938 1       7.2366618141       9.0000000000
939 1       6.7998015825      10.0000000000
940 1       7.0487592071       9.0000000000
941 1       7.9744357867       9.0000000000
942 1       6.8124235987       6.0000000000
943 1       7.4857020040       8.0000000000
944 1       7.7617974810       8.0000000000
945 1       7.1224871968       9.0000000000
946 1       7.1248886180      10.0000000000
947 1       8.0271020754      11.0000000000
948 1       7.1763804758       8.0000000000
949 1       7.1832499326       9.0000000000
950 1       7.6527162358      10.0000000000
951 1       7.6443137852       8.0000000000
952 1       7.3655129678       9.0000000000
953 1       7.1869470935       8.0000000000
954 1       6.9461773686       8.0000000000
955 1       7.5644811079       8.0000000000
956 1       7.2138180008       9.0000000000
957 1       7.4473234120       8.0000000000
958 1       6.6594960208       8.0000000000
959 1       6.8060865515       7.0000000000
960 1       7.7956642162       8.0000000000
961 1       7.1544219539       9.0000000000
962 1       7.5645231614       8.0000000000
963 1       6.8414822584       6.0000000000
964 1       6.9431460943       8.0000000000
965 1       6.9181127515       7.0000000000
966 1       6.7600264570       8.0000000000
967 1       7.2140645239      11.0000000000
968 1       7.1216125292       9.0000000000
969 1       6.9849606058       9.0000000000
970 1       7.4897916191      11.0000000000
971 1       7.3567204867      11.0000000000
972 1       7.6669894877       7.0000000000
973 1       7.0962043996      10.0000000000
974 1       7.5436580953       9.0000000000
975 1       6.8634244802       9.0000000000
976 1       7.6045886234       8.0000000000
977 1       7.1146394964      10.0000000000
978 1       7.3822133765      10.0000000000
979 1       7.2425809168       9.0000000000
980 1       6.8898354288       8.0000000000
981 1       7.2815321951       8.0000000000
982 1       7.1847108371      10.0000000000
983 1       7.0414814091       8.0000000000
984 1       6.8264123029      10.0000000000
985 1       7.8525920293      10.0000000000
986 1       7.5173347379       9.0000000000
987 1       6.9218823292       9.0000000000
988 1       7.3796936244      12.0000000000
989 1       7.0871935699      11.0000000000
990 1       8.0095223900      12.0000000000
991 1       7.1016296473       8.0000000000
992 1       7.4186420260       9.0000000000
993 1       7.2809568571      10.0000000000
994 1       7.2612481789       9.0000000000
995 1       7.5322584421       8.0000000000
996 1       7.1673217544       7.0000000000
997 1       7.0177249127       9.0000000000
998 1       7.3222751976       8.0000000000
999 1       7.5811312487       9.0000000000
1000 1       6.9660281880      11.0000000000
1001 1       7.4938157479       8.0000000000
1002 1       7.3335819537       9.0000000000
1003 1       7.4681381861       8.0000000000
1004 1       7.7054879744      10.0000000000
1005 1       7.1372073138      11.0000000000
1006 1       7.0276095943       7.0000000000
1007 1       7.3489796238       8.0000000000
1008 1       7.5082164549       9.0000000000
1009 1       7.0805681517       7.0000000000
1010 1       7.0338335629      10.0000000000
1011 1       7.4272608238       9.0000000000
1012 1       6.9266524484       8.0000000000
1013 1       7.6255045677       8.0000000000
1014 1       7.2442280798       9.0000000000
1015 1       7.4067393281       8.0000000000
1016 1       7.0416309394       9.0000000000
1017 1       7.2182124469      10.0000000000
1018 1       7.7625546669       8.0000000000
1019 1       7.5166544477       9.0000000000
1020 1       7.4557869742       8.0000000000
1021 1       7.3015848001      11.0000000000
1022 1       7.8838824055       8.0000000000
1023 1       7.0583929026      10.0000000000
1024 1       7.0640179527       9.0000000000
1025 1       7.4215769670       7.0000000000
1026 1       7.3915002892       9.0000000000
1027 1       7.5278821898       8.0000000000
1028 1       7.3919457402       9.0000000000
1029 1       6.8673547670       8.0000000000
1030 1       6.8396401891       9.0000000000
1031 1       7.4455331653      10.0000000000
1032 1       7.3292587874       8.0000000000
1033 1       7.1414083356      10.0000000000
1034 1       7.1937010643      10.0000000000
1035 1       7.1279475667       9.0000000000
1036 1       6.9238656803       8.0000000000
1037 1       7.4546165071      10.0000000000
1038 1       7.2419232317       8.0000000000
1039 1       7.5616188674       8.0000000000
1040 1       7.3080882100      10.0000000000
1041 1       7.4405590859      10.0000000000
1042 1       7.1455186939       9.0000000000
1043 1       7.7090708951       9.0000000000
1044 1       7.3115096691       9.0000000000
1045 1       7.2619666864       9.0000000000
1046 1       7.1651869091      10.0000000000
1047 1       7.0473905088       9.0000000000
1048 1       7.5096862380      11.0000000000
1049 1       7.4266935741       8.0000000000
1050 1       7.3531242321       8.0000000000
1051 1       7.6005740282       8.0000000000
1052 1       6.8049339471       9.0000000000
1053 1       7.0221449091       9.0000000000
1054 1       7.1748357188       8.0000000000
1055 1       6.8747373368      10.0000000000
1056 1       6.8565484154       9.0000000000
1057 1       7.2143056471      10.0000000000
1058 1       6.8245617630       8.0000000000
1059 1       8.0830557563      10.0000000000
1060 1       7.3003165142       9.0000000000
1061 1       7.0206254642       8.0000000000
1062 1       6.7926465410       8.0000000000
1063 1       7.8525442687      10.0000000000
1064 1       7.4489940717       8.0000000000
1065 1       7.3306344578       8.0000000000
1066 1       7.3321553385      11.0000000000
1067 1       7.0684346292      10.0000000000
1068 1       7.3240820230       8.0000000000
1069 1       7.4337216476      13.0000000000
1070 1       7.2823171131       8.0000000000
1071 1       7.1032844001       7.0000000000
1072 1       7.5505037814       8.0000000000
1073 1       7.0186546407       9.0000000000
1074 1       7.6527273681       9.0000000000
1075 1       7.3363535140      10.0000000000
1076 1       7.2486604116       7.0000000000
1077 1       7.0503932062       8.0000000000
1078 1       7.0345592251       9.0000000000
1079 1       7.4152187955       9.0000000000
1080 1       6.8016234885      10.0000000000
1081 1       6.7761109720       9.0000000000
1082 1       7.0089283638       7.0000000000
1083 1       7.7741815935       8.0000000000
1084 1       7.5025446407      11.0000000000
1085 1       7.5719485373      11.0000000000
1086 1       7.7446474866       8.0000000000
1087 1       7.6625349027      11.0000000000
1088 1       7.6441532474       9.0000000000
1089 1       7.2324364055      11.0000000000
1090 1       7.4717722869       8.0000000000
1091 1       7.5939254113      11.0000000000
1092 1       7.0997923387       9.0000000000
1093 1       7.8155932992      11.0000000000
1094 1       7.9144506195       7.0000000000
1095 1       7.7220509358       8.0000000000
1096 1       6.8614253572      10.0000000000
1097 1       7.3050315537       8.0000000000
1098 1       8.0233722119      10.0000000000
1099 1       7.4426184394      10.0000000000
1100 1       6.8685148818       8.0000000000
1101 1       6.5942805133       8.0000000000
1102 1       7.3671157315       9.0000000000
1103 1       7.5615618343       8.0000000000
1104 1       7.5140666297       8.0000000000
1105 1       6.8620474258       7.0000000000
1106 1       7.6990907537      11.0000000000
1107 1       7.1270719227       8.0000000000
1108 1       7.3699106885       9.0000000000
1109 1       7.6876324132       9.0000000000
1110 1       7.5825851599       7.0000000000
1111 1       7.3227492794       9.0000000000
1112 1       7.4945681133       9.0000000000
1113 1       7.9931337241      10.0000000000
1114 1       7.3661498670       7.0000000000
1115 1       7.3640451888      11.0000000000
1116 1       7.1143440534       8.0000000000
1117 1       7.9606254263      10.0000000000
1118 1       6.8816436846       6.0000000000
1119 1       7.0631696928      13.0000000000
1120 1       7.1145493733       9.0000000000
1121 1       7.3254651997       9.0000000000
1122 1       7.6672246336       9.0000000000
1123 1       7.8596744710       9.0000000000
1124 1       7.7435270025      10.0000000000
1125 1       6.8749181979       8.0000000000
1126 1       7.6319646236       9.0000000000
1127 1       7.3335941275      11.0000000000
1128 1       7.3916897685       9.0000000000
1129 1       6.6407271149       9.0000000000
1130 1       7.6703845520       9.0000000000
1131 1       7.4419005607      10.0000000000
1132 1       7.5954309437       7.0000000000
1133 1       7.1840062595      10.0000000000
1134 1       7.2022681707       7.0000000000
1135 1       7.1796253525      11.0000000000
1136 1       7.5582662500       9.0000000000
1137 1       7.3046023318      10.0000000000
1138 1       6.8485269246       7.0000000000
1139 1       7.2217170233       8.0000000000
1140 1       7.8224010126       8.0000000000
1141 1       7.5726795010      10.0000000000
1142 1       7.8261095837       9.0000000000
1143 1       7.1231786856       8.0000000000
1144 1       7.2176900902      10.0000000000
1145 1       7.2200430340       8.0000000000
1146 1       7.4687472090      11.0000000000
1147 1       7.5237386260       9.0000000000
1148 1       7.6720864699      10.0000000000
1149 1       7.2693870010      10.0000000000
1150 1       7.6447754374      10.0000000000
1151 1       7.6110115754       8.0000000000
1152 1       7.2888645582      11.0000000000
1153 1       7.3266822601       9.0000000000
1154 1       7.2254424560       8.0000000000
1155 1       7.2929534263       8.0000000000
1156 1       7.7762314391      11.0000000000
1157 1       7.7439877954       8.0000000000
1158 1       7.5380183889      10.0000000000
1159 1       7.1586068800      12.0000000000
1160 1       6.9181932343       8.0000000000
1161 1       7.7235197269      10.0000000000
1162 1       6.8514275023      10.0000000000
1163 1       7.1898515631       8.0000000000
1164 1       6.9521528735       8.0000000000
1165 1       6.9739679414      10.0000000000
1166 1       7.0917284125       7.0000000000
1167 1       7.1248624244       9.0000000000
1168 1       6.4194298292       7.0000000000
1169 1       7.0064892818       9.0000000000
1170 1       7.0806223433       8.0000000000
1171 1       7.0927068950       8.0000000000
1172 1       7.4268185663       8.0000000000
1173 1       7.6083934644      10.0000000000
1174 1       7.5715822173       7.0000000000
1175 1       6.9510990753       7.0000000000
1176 1       7.1910410350      11.0000000000
1177 1       7.4170355681      12.0000000000
1178 1       7.2152998571      11.0000000000
1179 1       7.2614286954      11.0000000000
1180 1       7.4152730032       8.0000000000
1181 1       7.0143093036       9.0000000000
1182 1       7.3127458367       8.0000000000
1183 1       7.3983989344       8.0000000000
1184 1       7.2478097117       9.0000000000
1185 1       7.5617229727      10.0000000000
1186 1       7.5680696447       8.0000000000
1187 1       7.3016760798       8.0000000000
1188 1       6.9636436549       8.0000000000
1189 1       7.6276040394       9.0000000000
1190 1       7.5820188807       9.0000000000
1191 1       7.9967534329       9.0000000000
1192 1       7.2540716097       9.0000000000
1193 1       7.7881697692      10.0000000000
1194 1       7.7050597188       8.0000000000
1195 1       7.1676700208       9.0000000000
1196 1       6.8963426872       9.0000000000
1197 1       6.9535525022      10.0000000000
1198 1       6.8842515092       7.0000000000
1199 1       7.2951560485       7.0000000000
1200 1       7.8802100004       7.0000000000
1201 1       7.3711522116       8.0000000000
1202 1       7.1063304613       8.0000000000
1203 1       7.0426650763       5.0000000000
1204 1       7.1605974212       9.0000000000
1205 1       7.3193674868       8.0000000000
1206 1       6.5595067291       9.0000000000
1207 1       7.8361800574       9.0000000000
1208 1       7.6743525405      10.0000000000
1209 1       7.2596251136       7.0000000000
1210 1       7.2551639619       8.0000000000
1211 1       7.4195122155       9.0000000000
1212 1       7.4739030254      10.0000000000
1213 1       6.9886042857       9.0000000000
1214 1       6.9273158037       9.0000000000
1215 1       7.1977267492       8.0000000000
1216 1       6.9900003873       9.0000000000
1217 1       7.4292689718      10.0000000000
1218 1       7.5054121496      10.0000000000
1219 1       7.0329047345       9.0000000000
1220 1       7.4894023884       9.0000000000
1221 1       7.2568014377      10.0000000000
1222 1       8.2852493456       9.0000000000
1223 1       7.9108209309      10.0000000000
1224 1       7.7251493285       9.0000000000
1225 1       7.3229022217       7.0000000000
1226 1       6.7960519963       8.0000000000
1227 1       7.1943307549       8.0000000000
1228 1       7.4373647090      10.0000000000
1229 1       7.3305639443       9.0000000000
1230 1       6.9908166656      10.0000000000
1231 1       6.8597002284       8.0000000000
1232 1       7.1488869751      11.0000000000
1233 1       7.2454850957      10.0000000000
1234 1       7.1634069525       9.0000000000
1235 1       7.8175614811      10.0000000000
1236 1       7.7722714943       9.0000000000
1237 1       7.5885928936      10.0000000000
1238 1       7.2717156048       7.0000000000
1239 1       7.9757382576       9.0000000000
1240 1       7.6484905603       9.0000000000
1241 1       7.2054798329       9.0000000000
1242 1       7.6634111878       9.0000000000
1243 1       7.2293390839      10.0000000000
1244 1       7.9119686256      10.0000000000
1245 1       7.8549225671      10.0000000000
1246 1       7.5300717360       8.0000000000
1247 1       7.5338694718       8.0000000000
1248 1       7.1071961413      10.0000000000
1249 1       7.7149281569      10.0000000000
1250 1       7.4775118991       7.0000000000
1251 1       7.0662484137       9.0000000000
1252 1       6.5974200662       7.0000000000
1253 1       7.8774536598       9.0000000000
1254 1       7.4442619317       8.0000000000
1255 1       7.2422926742      10.0000000000
1256 1       7.4019034708       9.0000000000
1257 1       7.6202897420       8.0000000000
1258 1       7.4600699157       7.0000000000
1259 1       7.3602481935      10.0000000000
1260 1       7.4413125313       8.0000000000
1261 1       7.2714000047      10.0000000000
1262 1       7.8155086810      10.0000000000
1263 1       7.4762669051      10.0000000000
1264 1       6.6747057674       9.0000000000
1265 1       7.3090448836      10.0000000000
1266 1       6.9138880571       9.0000000000
1267 1       6.9831495069       9.0000000000
1268 1       7.3121897395      11.0000000000
1269 1       7.3029355552       7.0000000000
1270 1       7.3943858781       8.0000000000
1271 1       7.2648109333       9.0000000000
1272 1       6.9702425699       7.0000000000
1273 1       7.4839375444       9.0000000000
1274 1       7.6636171505      11.0000000000
1275 1       7.3323299351      10.0000000000
1276 1       6.7659816409       9.0000000000
1277 1       7.2929961646       8.0000000000
1278 1       7.9337595132       9.0000000000
1279 1       7.3025701678      10.0000000000
1280 1       6.9410509021       9.0000000000
1281 1       7.4644017252      13.0000000000
1282 1       7.2283473469      10.0000000000
1283 1       7.1952835685      10.0000000000
1284 1       7.1018246680      10.0000000000
1285 1       7.2213240950       9.0000000000
1286 1       6.9889497391       9.0000000000
1287 1       7.5171032646      11.0000000000
1288 1       7.2496071255       8.0000000000
1289 1       7.3948279772      10.0000000000
1290 1       7.1228002942       8.0000000000
1291 1       6.8216490115      10.0000000000
1292 1       7.3877001212       8.0000000000
1293 1       7.2077181700       8.0000000000
1294 1       7.7885339712       7.0000000000
1295 1       7.5428219833       9.0000000000
1296 1       7.6476386407       9.0000000000
1297 1       7.3603576913       8.0000000000
1298 1       7.2812482917       8.0000000000
1299 1       7.7403742621      10.0000000000
1300 1       7.2202936008       9.0000000000
1301 1       7.3566911464      11.0000000000
1302 1       6.9727712993       9.0000000000
1303 1       7.3586404791       9.0000000000
1304 1       7.5177280920       9.0000000000
1305 1       6.9862676060       6.0000000000
1306 1       7.2971094549      10.0000000000
1307 1       7.1602254228       9.0000000000
1308 1       7.4814453047       7.0000000000
1309 1       7.0119556814       9.0000000000
1310 1       7.0694420220       9.0000000000
1311 1       7.5833838807      11.0000000000
1312 1       6.9501095370       9.0000000000
1313 1       7.2804974415       7.0000000000
1314 1       7.1966066038       8.0000000000
1315 1       7.1052312902      11.0000000000
1316 1       6.8956081467       6.0000000000
1317 1       7.5704355174       6.0000000000
1318 1       7.5704949763      10.0000000000
1319 1       7.0555356322      10.0000000000
1320 1       6.9180366989       9.0000000000
1321 1       6.7528546724       8.0000000000
1322 1       7.9058381458      10.0000000000
1323 1       6.6070972742       9.0000000000
1324 1       7.2572714972       9.0000000000
1325 1       6.6942832113       9.0000000000
1326 1       7.3707351635       9.0000000000
1327 1       7.4374980203      12.0000000000
1328 1       7.5789147518      11.0000000000
1329 1       7.5345759911       5.0000000000
1330 1       8.1932579297      10.0000000000
1331 1       7.2103851296       7.0000000000
1332 1       6.8728542379       8.0000000000
1333 1       7.1462285810       9.0000000000
1334 1       7.0619977128       9.0000000000
1335 1       7.2096398766       7.0000000000
1336 1       7.2112639738       8.0000000000
1337 1       7.6882954544       9.0000000000
1338 1       7.6392091920       9.0000000000
1339 1       7.4091109912      10.0000000000
1340 1       7.5598182207      11.0000000000
1341 1       7.4587891696       9.0000000000
1342 1       7.7667281252      11.0000000000
1343 1       7.0540231475       9.0000000000
1344 1       7.2918094503       7.0000000000
1345 1       7.1360735687      10.0000000000
1346 1       7.1320326500       9.0000000000
1347 1       7.6476028171       8.0000000000
1348 1       7.3379965472       7.0000000000
1349 1       7.0782637942       9.0000000000
1350 1       7.4590801053       9.0000000000
1351 1       7.0672520320       9.0000000000
1352 1       6.7361113820       9.0000000000
1353 1       7.6189647832      10.0000000000
1354 1       7.4591242776       9.0000000000
1355 1       6.9541658513       9.0000000000
1356 1       7.1648655787       7.0000000000
1357 1       7.3462483153       9.0000000000
1358 1       7.1036118133       7.0000000000
1359 1       6.9237315398       6.0000000000
1360 1       7.3856374484       8.0000000000
1361 1       7.6372674247      10.0000000000
1362 1       7.5450728783      10.0000000000
1363 1       6.7624766008       8.0000000000
1364 1       7.8647165814       9.0000000000
1365 1       7.1459566815       7.0000000000
1366 1       7.4711825772      10.0000000000
1367 1       7.0647134602      10.0000000000
1368 1       7.1226262861       9.0000000000
1369 1       7.2605062764      12.0000000000
1370 1       7.1713076650      11.0000000000
1371 1       7.0094829220       9.0000000000
1372 1       7.5880168617       9.0000000000
1373 1       7.0954818576       7.0000000000
1374 1       7.1489491701       8.0000000000
1375 1       7.2606393077      10.0000000000
1376 1       6.9173819126      11.0000000000
1377 1       6.5975481123       7.0000000000
1378 1       7.2665852366       7.0000000000
1379 1       7.2977069905       9.0000000000
1380 1       7.7325358971      10.0000000000
1381 1       7.0956060210       8.0000000000
1382 1       6.2645146829       8.0000000000
1383 1       6.8773642477       7.0000000000
1384 1       7.1379770707       9.0000000000
1385 1       7.0214053231       9.0000000000
1386 1       7.5103977118       8.0000000000
1387 1       7.2087940144       8.0000000000
1388 1       6.7780213531       8.0000000000
1389 1       7.7724457051       9.0000000000
1390 1       7.5949486869       8.0000000000
1391 1       7.0333082958       8.0000000000
1392 1       7.4527209240       6.0000000000
1393 1       7.4592280329       9.0000000000
1394 1       7.3744354071       9.0000000000
1395 1       7.6564292933      11.0000000000
1396 1       7.6404457993       8.0000000000
1397 1       7.6304562020      10.0000000000
1398 1       6.8985871871       9.0000000000
1399 1       7.0900562882      10.0000000000
1400 1       7.1743664443      10.0000000000
1401 1       7.4347739685       7.0000000000
1402 1       7.3854484358      12.0000000000
1403 1       7.5145599474       9.0000000000
1404 1       7.9551597056      10.0000000000
1405 1       7.5117742399       9.0000000000
1406 1       6.9835531300       8.0000000000
1407 1       7.3793606770      12.0000000000
1408 1       6.9689721123       9.0000000000
1409 1       6.7312340840       9.0000000000
1410 1       7.0783605788      12.0000000000
1411 1       7.7285627127       8.0000000000
1412 1       6.9758567867       8.0000000000
1413 1       7.6947399624      11.0000000000
1414 1       7.9802274540      14.0000000000
1415 1       7.9411217335       8.0000000000
1416 1       7.0026774677       9.0000000000
1417 1       7.6631363056       8.0000000000
1418 1       6.4725364259       9.0000000000
1419 1       8.0167395703      13.0000000000
1420 1       7.6678230448       8.0000000000
1421 1       7.2966968204       8.0000000000
1422 1       8.0266178975      10.0000000000
1423 1       7.1739021907       9.0000000000
1424 1       7.2381574020       7.0000000000
1425 1       6.9829639887       9.0000000000
1426 1       7.1447788649       7.0000000000
1427 1       7.5446988270       7.0000000000
1428 1       7.1051907562       8.0000000000
1429 1       7.2172288909      10.0000000000
1430 1       7.0875090951       9.0000000000
1431 1       8.0686174608       9.0000000000
1432 1       6.9252494888       8.0000000000
1433 1       7.5504198290       9.0000000000
1434 1       7.2087949786       7.0000000000
1435 1       7.2124063363       9.0000000000
1436 1       6.8012832655       7.0000000000
1437 1       6.9515024120       9.0000000000
1438 1       6.8025289561       9.0000000000
1439 1       7.0627356210       8.0000000000
1440 1       7.1536466374      10.0000000000
1441 1       7.2053682047       8.0000000000
1442 1       7.0269408395      10.0000000000
1443 1       7.5570041867       7.0000000000
1444 1       7.3992402737       7.0000000000
1445 1       7.7571271688       9.0000000000
1446 1       7.8976864145       9.0000000000
1447 1       7.1675487391       8.0000000000
1448 1       7.1045236366       8.0000000000
1449 1       7.3812297196      10.0000000000
1450 1       7.8163910840       9.0000000000
1451 1       7.3253166016       8.0000000000
1452 1       7.4654403517       7.0000000000
1453 1       7.8725712798       9.0000000000
1454 1       7.2254847195       7.0000000000
1455 1       7.9885518385       9.0000000000
1456 1       7.2776811068       8.0000000000
1457 1       7.4344922151       9.0000000000
1458 1       7.2049375004       8.0000000000
1459 1       6.9715227556       9.0000000000
1460 1       6.6396272385      10.0000000000
1461 1       7.7088495654      10.0000000000
1462 1       7.5663735065       9.0000000000
1463 1       7.0953570468       8.0000000000
1464 1       6.9827855433      10.0000000000
1465 1       6.9592083260      10.0000000000
1466 1       7.5849912261       9.0000000000
1467 1       6.8489106685       8.0000000000
1468 1       7.5302343881       7.0000000000
1469 1       6.8646716272       8.0000000000
1470 1       6.5472161594       8.0000000000
1471 1       7.2377781139      11.0000000000
1472 1       7.5513132386       8.0000000000
1473 1       7.4428111052      10.0000000000
1474 1       7.3984988779       6.0000000000
1475 1       7.2750983062       9.0000000000
1476 1       6.7639359261      10.0000000000
1477 1       7.2905201110       9.0000000000
1478 1       7.4424567122      10.0000000000
1479 1       7.3045427751      10.0000000000
1480 1       8.3463021531      11.0000000000
1481 1       7.3504107042       9.0000000000
1482 1       7.2374458556       9.0000000000
1483 1       7.1644079512      10.0000000000
1484 1       7.6235623416       9.0000000000
1485 1       7.2892263901      12.0000000000
1486 1       7.3954626869       9.0000000000
1487 1       7.8215678701      10.0000000000
1488 1       8.0206254604       9.0000000000
1489 1       7.4433105093      11.0000000000
1490 1       7.2747831526      10.0000000000
1491 1       7.8030324002      10.0000000000
1492 1       7.6667816538       8.0000000000
1493 1       7.2172921026       8.0000000000
1494 1       7.8741798472      11.0000000000
1495 1       7.4440600212       9.0000000000
1496 1       7.1652136309       8.0000000000
1497 1       7.1976644074       8.0000000000
1498 1       7.4153084023      11.0000000000
1499 1       7.5332073290       8.0000000000
1500 1       7.2982969562      10.0000000000
1501 1       7.0474741346       9.0000000000
1502 1       7.0811144437       9.0000000000
1503 1       7.1861317162       6.0000000000
1504 1       8.1779687843      10.0000000000
1505 1       7.3962848601       9.0000000000
1506 1       8.3557360900      11.0000000000
1507 1       7.3531347398       8.0000000000
1508 1       6.7479734146       8.0000000000
1509 1       6.9777832553       9.0000000000
1510 1       7.1379508166       8.0000000000
1511 1       7.2053123993       8.0000000000
1512 1       7.0858174629      10.0000000000
1513 1       7.1788155800       8.0000000000
1514 1       7.5246539024      11.0000000000
1515 1       7.4693404351      11.0000000000
1516 1       7.3552436654       8.0000000000
1517 1       6.9523447654      10.0000000000
1518 1       7.6446505727       8.0000000000
1519 1       7.3347470986       9.0000000000
1520 1       7.3607698977      10.0000000000
1521 1       7.7705699040      10.0000000000
1522 1       7.2510898951       9.0000000000
1523 1       7.4161532697      10.0000000000
1524 1       6.7135336544       9.0000000000
1525 1       7.3375350922       9.0000000000
1526 1       7.3963044820       8.0000000000
1527 1       7.0943413312       8.0000000000
1528 1       7.3112948337       9.0000000000
1529 1       7.4315100603      10.0000000000
1530 1       7.3194434247       9.0000000000
1531 1       7.8063960468       9.0000000000
1532 1       7.5089651923       8.0000000000
1533 1       7.9681502203       8.0000000000
1534 1       7.6820051179       9.0000000000
1535 1       7.2696465340       8.0000000000
1536 1       7.1013962819       7.0000000000
1537 1       7.1887300632      10.0000000000
1538 1       6.9730916345       9.0000000000
1539 1       7.1552227190       7.0000000000
1540 1       7.7520875253       8.0000000000
1541 1       7.2121333977      10.0000000000
1542 1       7.4559445690       9.0000000000
1543 1       7.1130561803      10.0000000000
1544 1       7.2362024143       8.0000000000
1545 1       7.0955083815       8.0000000000
1546 1       6.7747438748       8.0000000000
1547 1       7.8913685449       9.0000000000
1548 1       7.1450576244       7.0000000000
1549 1       7.2175378928       8.0000000000
1550 1       6.9729965754      10.0000000000
1551 1       7.8934672240      10.0000000000
1552 1       7.8774732829      12.0000000000
1553 1       7.0653507016      11.0000000000
1554 1       7.4960189313       7.0000000000
1555 1       6.7818206877      10.0000000000
1556 1       6.7588764955       8.0000000000
1557 1       7.0095894945       9.0000000000
1558 1       7.3158502630       7.0000000000
1559 1       7.5119279423      10.0000000000
1560 1       7.7668945037       8.0000000000
1561 1       6.9861970258       7.0000000000
1562 1       7.3591347537       9.0000000000
1563 1       6.9681439631      10.0000000000
1564 1       7.2603232370       9.0000000000
1565 1       7.3924128655      10.0000000000
1566 1       7.2995338018      10.0000000000
1567 1       6.8877390194       9.0000000000
1568 1       8.4147531234       8.0000000000
1569 1       8.2819139554       8.0000000000
1570 1       7.4409385956      11.0000000000
1571 1       7.3045745038       9.0000000000
1572 1       7.5924426232       8.0000000000
1573 1       7.1967826018       8.0000000000
1574 1       7.5432157494       8.0000000000
1575 1       7.1228972189       9.0000000000
1576 1       7.2391427588       8.0000000000
1577 1       7.5555011938      11.0000000000
1578 1       7.2051765032       8.0000000000
1579 1       7.4718393485       9.0000000000
1580 1       7.0075530574       8.0000000000
1581 1       7.7375619501      11.0000000000
1582 1       7.0341579730       9.0000000000
1583 1       6.7997870691       8.0000000000
1584 1       7.3283620919       8.0000000000
1585 1       6.7842571544       8.0000000000
1586 1       7.6796137251      11.0000000000
1587 1       7.9755190736       8.0000000000
1588 1       7.2564243319      12.0000000000
1589 1       7.4105993705       8.0000000000
1590 1       7.7483222564       9.0000000000
1591 1       7.4958703535       6.0000000000
1592 1       7.7149415265       8.0000000000
1593 1       7.8937536687       8.0000000000
1594 1       7.3806789894       6.0000000000
1595 1       7.5540090392      10.0000000000
1596 1       7.2569181152       9.0000000000
1597 1       7.2740943003       9.0000000000
1598 1       7.6474058864       9.0000000000
1599 1       7.9699557907       8.0000000000
1600 1       6.8977662800       9.0000000000
1601 1       7.4278697295      10.0000000000
1602 1       7.8806763465      12.0000000000
1603 1       7.5903971910       8.0000000000
1604 1       7.8493622301      10.0000000000
1605 1       7.1244084944       9.0000000000
1606 1       7.5846751678      11.0000000000
1607 1       7.6771952686      10.0000000000
1608 1       7.6117341302       8.0000000000
1609 1       7.2912629944      10.0000000000
1610 1       7.5775006113       9.0000000000
1611 1       7.5707504826       7.0000000000
1612 1       7.4740993120      10.0000000000
1613 1       8.3823118376      10.0000000000
1614 1       7.3879127870      11.0000000000
1615 1       7.2566511340       8.0000000000
1616 1       7.1854023263       7.0000000000
1617 1       7.2312923315       9.0000000000
1618 1       7.0792607187       9.0000000000
1619 1       7.2602206885      10.0000000000
1620 1       7.0427027688       7.0000000000
1621 1       6.9633449522       8.0000000000
1622 1       7.6338994271       9.0000000000
1623 1       7.0026929473       9.0000000000
1624 1       7.0004260725       9.0000000000
1625 1       7.3783330472      10.0000000000
1626 1       7.2057089909       8.0000000000
1627 1       7.7297609235       9.0000000000
1628 1       7.1760021697      10.0000000000
1629 1       7.7720934880       9.0000000000
1630 1       7.4311396712       8.0000000000
1631 1       7.4930436652       8.0000000000
1632 1       7.3493200579       8.0000000000
1633 1       7.4126346868       9.0000000000
1634 1       7.3277269509       8.0000000000
1635 1       7.3093239663       8.0000000000
1636 1       7.3106779012      11.0000000000
1637 1       6.7666488562       8.0000000000
1638 1       7.3883183401       8.0000000000
1639 1       7.1258124436      10.0000000000
1640 1       7.2778749884       8.0000000000
1641 1       6.9163718451       8.0000000000
1642 1       7.3754760922       8.0000000000
1643 1       7.7078786938      11.0000000000
1644 1       7.6965911574      11.0000000000
1645 1       7.0216183128       9.0000000000
1646 1       7.4554730285       9.0000000000
1647 1       7.4640430699      10.0000000000
1648 1       7.2673387322      11.0000000000
1649 1       7.2845786451      12.0000000000
1650 1       7.3729787731       9.0000000000
1651 1       7.4124124694       9.0000000000
1652 1       7.7999113313      10.0000000000
1653 1       7.1351883550       9.0000000000
1654 1       6.9523339140       9.0000000000
1655 1       8.1120999548       9.0000000000
1656 1       7.3759117790       9.0000000000
1657 1       7.1835409511       7.0000000000
1658 1       7.6834666992       9.0000000000
1659 1       7.7710219303       7.0000000000
1660 1       7.2238849060       9.0000000000
1661 1       7.2922009036      10.0000000000
1662 1       7.4361220524      11.0000000000
1663 1       7.0717592928       7.0000000000
1664 1       6.7070221479       9.0000000000
1665 1       7.3397224423       8.0000000000
1666 1       6.6207892828       8.0000000000
1667 1       7.1662058464       8.0000000000
1668 1       7.1794677145       8.0000000000
1669 1       7.3389337330       7.0000000000
1670 1       6.8096470691       6.0000000000
1671 1       7.2758991183       9.0000000000
1672 1       7.6252413041       8.0000000000
1673 1       7.5222043611      11.0000000000
1674 1       7.1244089365       8.0000000000
1675 1       7.9334341462      11.0000000000
1676 1       7.1297297509       9.0000000000
1677 1       6.7954289737       8.0000000000
1678 1       7.6566040313       8.0000000000
1679 1       7.2664391166       8.0000000000
1680 1       7.4408943604      10.0000000000
1681 1       7.3461830830      12.0000000000
1682 1       7.6639466924       9.0000000000
1683 1       7.4225965735       9.0000000000
1684 1       7.3225159656       8.0000000000
1685 1       7.6752353962       6.0000000000
1686 1       7.3086369792       8.0000000000
1687 1       7.7440835316       7.0000000000
1688 1       7.6767121435       9.0000000000
1689 1       7.0177625139      10.0000000000
1690 1       7.3725389487      10.0000000000
1691 1       7.1182652298       8.0000000000
1692 1       8.3091744183      11.0000000000
1693 1       7.1513253705       8.0000000000
1694 1       7.1087781173       9.0000000000
1695 1       7.4224894432       9.0000000000
1696 1       7.8029773523       8.0000000000
1697 1       7.6137189070      10.0000000000
1698 1       7.0924170073       8.0000000000
1699 1       7.9506125876       8.0000000000
1700 1       7.2743082692       9.0000000000
1701 1       6.8110723333       7.0000000000
1702 1       7.3209637427      10.0000000000
1703 1       7.3191597701      10.0000000000
1704 1       6.8590062179       8.0000000000
1705 1       7.5135695321      10.0000000000
1706 1       6.8546884501       8.0000000000
1707 1       7.4073085951       9.0000000000
1708 1       7.2364486655      10.0000000000
1709 1       7.4966732162       8.0000000000
1710 1       7.1398075089      10.0000000000
1711 1       7.5901866833      12.0000000000
1712 1       7.0573281554      10.0000000000
1713 1       6.8800848554       8.0000000000
1714 1       7.3820285855       9.0000000000
1715 1       7.2184948784      10.0000000000
1716 1       7.5230428743       9.0000000000
1717 1       7.4043516822       9.0000000000
1718 1       7.2399985691       9.0000000000
1719 1       8.2523979850       9.0000000000
1720 1       6.7417876344       9.0000000000
1721 1       7.2526159548       7.0000000000
1722 1       7.5111804495       9.0000000000
1723 1       7.7647706352       8.0000000000
1724 1       7.1892057161       8.0000000000
1725 1       7.2225064867       8.0000000000
1726 1       7.7012558039       9.0000000000
1727 1       7.8262707111       9.0000000000
1728 1       7.6768877403       8.0000000000
1729 1       6.7263663016       8.0000000000
1730 1       7.5985337895      10.0000000000
1731 1       8.1070785110      10.0000000000
1732 1       8.0767437003      11.0000000000
1733 1       7.5644161763       9.0000000000
1734 1       7.2451912356       8.0000000000
1735 1       7.1538331531      10.0000000000
1736 1       7.2196451192       9.0000000000
1737 1       7.3319385359       9.0000000000
1738 1       6.6217210858       8.0000000000
1739 1       7.0046933138       7.0000000000
1740 1       7.2969371329       8.0000000000
1741 1       7.9213069936       7.0000000000
1742 1       7.0897929082       9.0000000000
1743 1       6.9040367685      11.0000000000
1744 1       6.7129090920      10.0000000000
1745 1       7.5801428000       9.0000000000
1746 1       6.9295077208       7.0000000000
1747 1       7.6813478133       7.0000000000
1748 1       7.4386655687       8.0000000000
1749 1       7.8272576054       8.0000000000
1750 1       7.4011181858       8.0000000000
1751 1       6.9190727689       9.0000000000
1752 1       7.2025260290      10.0000000000
1753 1       6.9630748759       9.0000000000
1754 1       7.7019321581       9.0000000000
1755 1       6.9792291583      10.0000000000
1756 1       7.6401015645      11.0000000000
1757 1       6.9739427542       9.0000000000
1758 1       7.6637262986      10.0000000000
1759 1       6.8536752455       9.0000000000
1760 1       7.0708318057      11.0000000000
1761 1       7.3303254656      10.0000000000
1762 1       6.7993253647       8.0000000000
1763 1       7.4967190641      10.0000000000
1764 1       6.9044548367       9.0000000000
1765 1       6.8441624816       8.0000000000
1766 1       7.4778829610       9.0000000000
1767 1       7.7278197898      10.0000000000
1768 1       7.5436365579       8.0000000000
1769 1       6.4722933324       7.0000000000
1770 1       7.2182204231       8.0000000000
1771 1       7.2748226954       7.0000000000
1772 1       7.0325217632       8.0000000000
1773 1       7.8595291584       9.0000000000
1774 1       6.8140155490       9.0000000000
1775 1       7.4941091504       9.0000000000
1776 1       7.5740493032       9.0000000000
1777 1       7.3034755536       8.0000000000
1778 1       7.3085040686       9.0000000000
1779 1       6.9042025704       8.0000000000
1780 1       7.7623145952       9.0000000000
1781 1       7.9099216599       8.0000000000
1782 1       7.2086816585      10.0000000000
1783 1       6.8345488177      10.0000000000
1784 1       6.9760357557       8.0000000000
1785 1       7.7575186938       8.0000000000
1786 1       7.4856448473       8.0000000000
1787 1       7.4986388772       9.0000000000
1788 1       7.1922442295      10.0000000000
1789 1       7.7226545850       8.0000000000
1790 1       7.2076975059       7.0000000000
1791 1       6.8816234029       9.0000000000
1792 1       7.1640665022       9.0000000000
1793 1       7.1814924538       9.0000000000
1794 1       7.1060849864       8.0000000000
1795 1       7.1768411091      10.0000000000
1796 1       7.2946706300      10.0000000000
1797 1       7.1896298936      11.0000000000
1798 1       7.4513160008       9.0000000000
1799 1       7.7108717565       9.0000000000
1800 1       7.0673562216       7.0000000000
1801 1       7.1353536911       8.0000000000
1802 1       6.9777751287       6.0000000000
1803 1       7.2788774529       9.0000000000
1804 1       7.1434894423       9.0000000000
1805 1       7.6214443200      11.0000000000
1806 1       7.4209573717       9.0000000000
1807 1       7.2633267412       8.0000000000
1808 1       7.2722007019       9.0000000000
1809 1       7.4470479478       9.0000000000
1810 1       6.6574553040       8.0000000000
1811 1       7.2103716489       8.0000000000
1812 1       6.6684002360       7.0000000000
1813 1       7.5806765222       7.0000000000
1814 1       6.7637035946       7.0000000000
1815 1       7.4123039529      12.0000000000
1816 1       7.0244216343      10.0000000000
1817 1       7.6229466739       8.0000000000
1818 1       7.2141850414       7.0000000000
1819 1       7.6105219404      10.0000000000
1820 1       7.6364943866       8.0000000000
1821 1       7.1913328323       9.0000000000
1822 1       7.3068949397      10.0000000000
1823 1       7.0126910160       8.0000000000
1824 1       6.8644187646       9.0000000000
1825 1       7.6000722228      11.0000000000
1826 1       7.9409582596       9.0000000000
1827 1       7.4157365134       9.0000000000
1828 1       7.6496800028      13.0000000000
1829 1       7.4383569061       9.0000000000
1830 1       6.8056492992       9.0000000000
1831 1       7.6859408189       8.0000000000
1832 1       7.9447752964       6.0000000000
1833 1       7.5421647319       8.0000000000
1834 1       7.0715985823       9.0000000000
1835 1       7.1154262220       8.0000000000
1836 1       7.2118992245       9.0000000000
1837 1       7.6141438961      11.0000000000
1838 1       7.0067587092       6.0000000000
1839 1       7.5215249797      15.0000000000
1840 1       6.6454545874       7.0000000000
1841 1       7.4089171814       9.0000000000
1842 1       7.0218397159       6.0000000000
1843 1       7.6640053228      11.0000000000
1844 1       7.3630544967       6.0000000000
1845 1       7.2281287477       9.0000000000
1846 1       7.1857052821      10.0000000000
1847 1       7.1609303090       8.0000000000
1848 1       7.3392229871       9.0000000000
1849 1       7.4563656226      11.0000000000
1850 1       7.0668686777       9.0000000000
1851 1       7.1087682430      10.0000000000
1852 1       7.7688912270       9.0000000000
1853 1       7.7845238370      11.0000000000
1854 1       7.3136747048       8.0000000000
1855 1       7.6331350563      11.0000000000
1856 1       7.1975635055       9.0000000000
1857 1       7.6716954253      10.0000000000
1858 1       7.2240720566       9.0000000000
1859 1       7.1960144935       9.0000000000
1860 1       7.1232746239       9.0000000000
1861 1       7.9932917968      12.0000000000
1862 1       7.0229116265       8.0000000000
1863 1       7.0275794418       8.0000000000
1864 1       7.0552087544       8.0000000000
1865 1       7.8596381370       9.0000000000
1866 1       7.6545160622       8.0000000000
1867 1       7.5663246284       9.0000000000
1868 1       7.4443028242       8.0000000000
1869 1       7.5806436273       9.0000000000
1870 1       7.4369648802      12.0000000000
1871 1       7.6179452548      11.0000000000
1872 1       6.8435261811       9.0000000000
1873 1       7.0461715078       7.0000000000
1874 1       7.5898770495       8.0000000000
1875 1       7.1328151509      11.0000000000
1876 1       7.5522985408       9.0000000000
1877 1       7.4121692614       7.0000000000
1878 1       7.3870717322       8.0000000000
1879 1       7.5083038215       9.0000000000
1880 1       6.6667877672       9.0000000000
1881 1       7.3901677680       9.0000000000
1882 1       7.3451643961       8.0000000000
1883 1       7.1376457507      10.0000000000
1884 1       7.4142844732      11.0000000000
1885 1       6.9593910733       8.0000000000
1886 1       7.2618354358       9.0000000000
1887 1       7.3364198584       9.0000000000
1888 1       7.3759647920      10.0000000000
1889 1       8.0097381939       9.0000000000
1890 1       7.1989271571       8.0000000000
1891 1       7.7381272331       9.0000000000
1892 1       7.2781507523       9.0000000000
1893 1       7.1969216408       9.0000000000
1894 1       7.5648605687      11.0000000000
1895 1       7.6106680152       8.0000000000
1896 1       7.5419056268       9.0000000000
1897 1       7.0682638328       9.0000000000
1898 1       6.9989631130       9.0000000000
1899 1       6.8193703154       9.0000000000
1900 1       7.8140528213      10.0000000000
1901 1       6.9062536638      10.0000000000
1902 1       6.7279072865      10.0000000000
1903 1       7.3017174551       9.0000000000
1904 1       7.1235226513      10.0000000000
1905 1       7.1892160934      10.0000000000
1906 1       7.5377069428      12.0000000000
1907 1       6.9598399931      11.0000000000
1908 1       6.9675782082       9.0000000000
1909 1       7.3771722145       9.0000000000
1910 1       6.8199262087       7.0000000000
1911 1       7.1449806483       8.0000000000
1912 1       7.5762584528       8.0000000000
1913 1       7.6618345169      15.0000000000
1914 1       7.0900685368       6.0000000000
1915 1       7.4131772912       9.0000000000
1916 1       7.4027751936      10.0000000000
1917 1       7.5681811087       9.0000000000
1918 1       7.8957850221      10.0000000000
1919 1       7.2899582555       7.0000000000
1920 1       7.9485058421      11.0000000000
1921 1       7.2206415846      10.0000000000
1922 1       7.5382725950      10.0000000000
1923 1       7.0492543449       8.0000000000
1924 1       7.5201934305       8.0000000000
1925 1       7.0627104835      11.0000000000
1926 1       7.3651438539       9.0000000000
1927 1       7.2312152948       9.0000000000
1928 1       7.5216580868       9.0000000000
1929 1       7.5033708283       9.0000000000
1930 1       7.0957121173       8.0000000000
1931 1       6.9318984586       8.0000000000
1932 1       7.5269918113       8.0000000000
1933 1       7.1101996584       8.0000000000
1934 1       6.8056449298       9.0000000000
1935 1       7.6651905939      10.0000000000
1936 1       7.1968763626       9.0000000000
1937 1       7.4127977830       7.0000000000
1938 1       7.3683533289       8.0000000000
1939 1       7.7345137326       9.0000000000
1940 1       7.7525426538       9.0000000000
1941 1       6.8951892045       8.0000000000
1942 1       7.2080932636       8.0000000000
1943 1       6.8852022848       8.0000000000
1944 1       7.3139729267       9.0000000000
1945 1       6.9134747873       6.0000000000
1946 1       7.5288785842      10.0000000000
1947 1       7.0143534212       8.0000000000
1948 1       7.0871672556       8.0000000000
1949 1       7.1979392296       9.0000000000
1950 1       7.6453271411       9.0000000000
1951 1       7.1813377909       9.0000000000
1952 1       6.9836466915       8.0000000000
1953 1       7.2003766341       9.0000000000
1954 1       7.8793353509       9.0000000000
1955 1       7.2319112484       8.0000000000
1956 1       7.4339073548       9.0000000000
1957 1       7.9680042820      10.0000000000
1958 1       7.4571255729       9.0000000000
1959 1       7.2128851269       9.0000000000
1960 1       7.9922142361      10.0000000000
1961 1       7.0430884305       8.0000000000
1962 1       6.8827944851       7.0000000000
1963 1       7.2846250984       9.0000000000
1964 1       7.4681648139      11.0000000000
1965 1       7.0053260401       9.0000000000
1966 1       7.1504004734       5.0000000000
1967 1       7.7311717454       9.0000000000
1968 1       7.1225631148       9.0000000000
1969 1       7.1865644671       8.0000000000
1970 1       7.1073389118       8.0000000000
1971 1       7.5566201680      10.0000000000
1972 1       6.8945274748       9.0000000000
1973 1       7.0747507446       9.0000000000
1974 1       7.8572460370       8.0000000000
1975 1       7.9290384372      10.0000000000
1976 1       7.4243921115       9.0000000000
1977 1       7.1554386858       7.0000000000
1978 1       7.4174727101       8.0000000000
1979 1       7.8422198250       9.0000000000
1980 1       6.9823612353       9.0000000000
1981 1       7.0592248252       8.0000000000
1982 1       7.1361095799       6.0000000000
1983 1       7.1861438232       9.0000000000
1984 1       7.5989923962       9.0000000000
1985 1       6.5992189381       7.0000000000
1986 1       7.1180897380       6.0000000000
1987 1       7.7602676194      10.0000000000
1988 1       7.4882863222      11.0000000000
1989 1       7.6400936988      10.0000000000
1990 1       7.5175424110       9.0000000000
1991 1       7.5539934183       9.0000000000
1992 1       7.4524381480       9.0000000000
1993 1       7.2356153277      12.0000000000
1994 1       7.6654616931       9.0000000000
1995 1       7.2968351074       8.0000000000
1996 1       7.3917100726      10.0000000000
1997 1       6.8426799172       8.0000000000
1998 1       7.2070633201       9.0000000000
1999 1       7.7577111387       8.0000000000
2000 1       7.5437034065      10.0000000000
2001 1       7.2760157672      10.0000000000
2002 1       6.9076904030      11.0000000000
2003 1       7.5714072792       8.0000000000
2004 1       7.4632178387      10.0000000000
2005 1       7.0270732557      10.0000000000
2006 1       6.9903733464       8.0000000000
2007 1       7.4653408550       9.0000000000
2008 1       7.7726723269      11.0000000000
2009 1       7.3191051423       8.0000000000
2010 1       6.8688231110       6.0000000000
2011 1       7.2203216554       9.0000000000
2012 1       7.0069582858      10.0000000000
2013 1       7.0818762108       9.0000000000
2014 1       6.9389606543      10.0000000000
2015 1       6.7186560941      10.0000000000
2016 1       7.0449886052       8.0000000000
2017 1       7.6497708096      11.0000000000
2018 1       7.4498433777       7.0000000000
2019 1       7.0523436336      11.0000000000
2020 1       7.0020109410       8.0000000000
2021 1       7.1295267854       8.0000000000
2022 1       7.9508664643       8.0000000000
2023 1       7.8628854641       8.0000000000
2024 1       7.4733194151       7.0000000000
2025 1       7.1580656781       9.0000000000
2026 1       7.3661168774       8.0000000000
2027 1       7.0696735167       9.0000000000
2028 1       6.9576464991      10.0000000000
2029 1       7.3838254813       8.0000000000
2030 1       7.5249907362       7.0000000000
2031 1       7.3693423066       7.0000000000
2032 1       7.2818973558       9.0000000000
2033 1       7.1350281057       8.0000000000
2034 1       7.2043450659       8.0000000000
2035 1       7.2229704816       7.0000000000
2036 1       6.7829333684       8.0000000000
2037 1       7.1376229839      11.0000000000
2038 1       7.2543647743      10.0000000000
2039 1       7.1101495227      11.0000000000
2040 1       7.4754251969      10.0000000000
2041 1       7.1343065573       9.0000000000
2042 1       7.4147588772      10.0000000000
2043 1       7.5192327326      11.0000000000
2044 1       7.1685977965       9.0000000000
2045 1       7.4382552813       9.0000000000
2046 1       7.4222153549       9.0000000000
2047 1       7.5805959111      10.0000000000
2048 1       7.3209328566       7.0000000000
2049 1       7.1752011654      10.0000000000
2050 1       7.6174757832       9.0000000000
2051 1       7.6908346378       9.0000000000
2052 1       7.6479027081       9.0000000000
2053 1       7.0461285430       9.0000000000
2054 1       7.5747151919       9.0000000000
2055 1       7.1632494747      10.0000000000
2056 1       7.3916448636       7.0000000000
2057 1       7.1451474928       9.0000000000
2058 1       7.2691794593       9.0000000000
2059 1       6.8218425140       8.0000000000
2060 1       7.4306508062       9.0000000000
2061 1       7.2943908507       8.0000000000
2062 1       7.0527380669      11.0000000000
2063 1       7.6893861595       9.0000000000
2064 1       6.8832829519       9.0000000000
2065 1       7.5861749787       9.0000000000
2066 1       7.3277976196       9.0000000000
2067 1       7.2107178041       9.0000000000
2068 1       7.2478288224       8.0000000000
2069 1       6.9210958936       8.0000000000
2070 1       7.7105796232       8.0000000000
2071 1       7.5192000260       8.0000000000
2072 1       7.9898656740       9.0000000000
2073 1       7.3420713352      10.0000000000
2074 1       6.9183950705       9.0000000000
2075 1       7.6950842302      12.0000000000
2076 1       7.5176583574       8.0000000000
2077 1       7.5698211024       8.0000000000
2078 1       7.9517540028       8.0000000000
2079 1       7.2372226468      12.0000000000
2080 1       7.2035320073       9.0000000000
2081 1       6.9174376941       6.0000000000
2082 1       8.3034104729       9.0000000000
2083 1       6.7488723007       9.0000000000
2084 1       7.2864848860       8.0000000000
2085 1       7.9056928891      10.0000000000
2086 1       6.9714601157      10.0000000000
2087 1       7.4533682745       9.0000000000
2088 1       6.8291777069       9.0000000000
2089 1       7.4000523849      10.0000000000
2090 1       7.8127345817      10.0000000000
2091 1       7.7007180436      10.0000000000
2092 1       7.0623356339       9.0000000000
2093 1       7.6965517290       8.0000000000
2094 1       7.1790788302      10.0000000000
2095 1       6.7375294264       8.0000000000
2096 1       7.4791325070       9.0000000000
2097 1       7.0996964752       9.0000000000
2098 1       6.7255996342       9.0000000000
2099 1       7.1277431954      11.0000000000
2100 1       7.3417491210       9.0000000000
2101 1       7.7844705264       7.0000000000
2102 1       7.1246366820       8.0000000000
2103 1       6.8964421462       9.0000000000
2104 1       6.9638542478       8.0000000000
2105 1       7.6256430649      10.0000000000
2106 1       7.1367772416       9.0000000000
2107 1       7.0938723948       9.0000000000
2108 1       7.2478583033      11.0000000000
2109 1       6.9698069546       8.0000000000
2110 1       7.4942716841      12.0000000000
2111 1       6.9124733903       8.0000000000
2112 1       7.3720618727       9.0000000000
2113 1       7.4595302200       8.0000000000
2114 1       6.8180782246      10.0000000000
2115 1       7.1639457476       7.0000000000
2116 1       7.2937972234       8.0000000000
2117 1       7.4361623780      10.0000000000
2118 1       7.0086737891       8.0000000000
2119 1       7.3128931651       6.0000000000
2120 1       6.7991717113       9.0000000000
2121 1       7.2573408857       9.0000000000
2122 1       6.8858750357       9.0000000000
2123 1       8.1540169619      10.0000000000
2124 1       7.0121314096       8.0000000000
2125 1       7.1385527246      10.0000000000
2126 1       7.7539880848      11.0000000000
2127 1       7.2821792021       8.0000000000
2128 1       7.4257644465      10.0000000000
2129 1       7.8625217462      12.0000000000
2130 1       7.1668929330       8.0000000000
2131 1       7.3286233595      10.0000000000
2132 1       7.6193500521       9.0000000000
2133 1       7.2101525351      10.0000000000
2134 1       6.9002789655       9.0000000000
2135 1       7.4445331651      10.0000000000
2136 1       7.6419263362      11.0000000000
2137 1       7.1451225568       9.0000000000
2138 1       7.4365597867       8.0000000000
2139 1       7.1717920794       9.0000000000
2140 1       6.9050865670       9.0000000000
2141 1       7.7157671360      10.0000000000
2142 1       8.0929210723       9.0000000000
2143 1       7.4610199070      10.0000000000
2144 1       7.1546347169       6.0000000000
2145 1       8.3481389459       8.0000000000
2146 1       7.2445224441       7.0000000000
2147 1       7.3102781898      10.0000000000
2148 1       8.0628125087      10.0000000000
2149 1       7.1362887111      10.0000000000
2150 1       7.9244729412       9.0000000000
2151 1       7.1130032624      11.0000000000
2152 1       7.5241415340       9.0000000000
2153 1       6.5799710824       7.0000000000
2154 1       7.2352605344       7.0000000000
2155 1       7.4833324346      10.0000000000
2156 1       7.1569641417       8.0000000000
2157 1       7.3847202658       7.0000000000
2158 1       7.4348224201      10.0000000000
2159 1       7.6201690659       9.0000000000
2160 1       7.7495083283      10.0000000000
2161 1       7.2163627206       7.0000000000
2162 1       7.0404487547       9.0000000000
2163 1       6.8305306821       8.0000000000
2164 1       7.2136309115       8.0000000000
2165 1       6.6260820187      10.0000000000
2166 1       7.4395501977       9.0000000000
2167 1       6.8892954674       8.0000000000
2168 1       7.9363584097      11.0000000000
2169 1       7.5809277385      10.0000000000
2170 1       6.9925243548       7.0000000000
2171 1       7.7164749616      11.0000000000
2172 1       7.0407291053       8.0000000000
2173 1       7.6753203560      10.0000000000
2174 1       7.7204913375       8.0000000000
2175 1       7.2582268678       7.0000000000
2176 1       7.6924878373       8.0000000000
2177 1       7.6971847486       9.0000000000
2178 1       7.0958956445       8.0000000000
2179 1       7.5702293607       9.0000000000
2180 1       7.5998635452       9.0000000000
2181 1       7.2525863381      11.0000000000
2182 1       7.2515094105      12.0000000000
2183 1       7.3900740330      10.0000000000
2184 1       6.7730326676       8.0000000000
2185 1       7.6851999234       8.0000000000
2186 1       7.5135590146       8.0000000000
2187 1       7.9794251989      11.0000000000
2188 1       7.5526879004       8.0000000000
2189 1       7.4316596233      11.0000000000
2190 1       7.5852297690       9.0000000000
2191 1       7.4841187115       7.0000000000
2192 1       7.1868271147      10.0000000000
2193 1       6.7488989042      10.0000000000
2194 1       7.4031364858      10.0000000000
2195 1       7.2529105666       9.0000000000
2196 1       7.8731181909       9.0000000000
2197 1       7.4106758911      10.0000000000
2198 1       7.3621716061       9.0000000000
2199 1       7.2326460484      10.0000000000
2200 1       7.4333281413      11.0000000000
2201 1       7.2099554871       7.0000000000
2202 1       7.4018057326       8.0000000000
2203 1       7.3541720949       8.0000000000
2204 1       7.6177275814      12.0000000000
2205 1       6.8020058575       9.0000000000
2206 1       6.9471449568       9.0000000000
2207 1       7.2105035082       8.0000000000
2208 1       7.1068202314       8.0000000000
2209 1       7.2849625822       8.0000000000
2210 1       7.0952518967       9.0000000000
2211 1       6.9419123590      11.0000000000
2212 1       7.6049909810       9.0000000000
2213 1       7.9369571776      10.0000000000
2214 1       7.5357663258      11.0000000000
2215 1       6.9753300867      11.0000000000
2216 1       7.2876938823      10.0000000000
2217 1       7.6467346422       9.0000000000
2218 1       7.6901646200       8.0000000000
2219 1       7.3628919141       8.0000000000
2220 1       7.1214657481       9.0000000000
2221 1       7.1457807980       7.0000000000
2222 1       6.7521601684       8.0000000000
2223 1       7.6534611351      10.0000000000
2224 1       7.1387727814       9.0000000000
2225 1       7.3361917658       8.0000000000
2226 1       7.2919290265       7.0000000000
2227 1       7.3917637427       9.0000000000
2228 1       6.8999281203       8.0000000000
2229 1       7.6552627009      11.0000000000
2230 1       7.5387129592       9.0000000000
2231 1       7.9678697610      10.0000000000
2232 1       7.4364930100       9.0000000000
2233 1       7.5874120677       8.0000000000
2234 1       7.3275823138       9.0000000000
2235 1       7.3024903074       8.0000000000
2236 1       7.4864097654       8.0000000000
2237 1       7.6229267617       9.0000000000
2238 1       7.2751696925       6.0000000000
2239 1       8.0526309222      10.0000000000
2240 1       6.8897737676      10.0000000000
2241 1       7.6091532719       8.0000000000
2242 1       7.2851712794      10.0000000000
2243 1       7.3974441546       7.0000000000
2244 1       7.5337539687      11.0000000000
2245 1       7.2350466687      10.0000000000
2246 1       8.1788178269      10.0000000000
2247 1       7.4671719184       9.0000000000
2248 1       6.8560491711       7.0000000000
2249 1       7.6634061517       9.0000000000
2250 1       7.4309711330       9.0000000000
2251 1       7.8839420920       9.0000000000
2252 1       7.9801824713       9.0000000000
2253 1       7.4409764909       9.0000000000
2254 1       7.0014908792      10.0000000000
2255 1       7.3190286797       8.0000000000
2256 1       7.4919959821       9.0000000000
2257 1       6.7281861204       9.0000000000
2258 1       6.7670117036       8.0000000000
2259 1       7.7709361790      11.0000000000
2260 1       7.3545568169      10.0000000000
2261 1       7.8359888843       9.0000000000
2262 1       7.3208453986       9.0000000000
2263 1       6.7462834742       8.0000000000
2264 1       7.3573083730       8.0000000000
2265 1       7.3810175050      10.0000000000
2266 1       7.3958475144       9.0000000000
2267 1       7.0688469104       8.0000000000
2268 1       7.8605325510       9.0000000000
2269 1       7.1878931763       9.0000000000
2270 1       6.8070156317       8.0000000000
2271 1       7.2948475533       9.0000000000
2272 1       6.8615221097      10.0000000000
2273 1       7.6179041110       9.0000000000
2274 1       8.0193444004       8.0000000000
2275 1       7.5667779806       7.0000000000
2276 1       7.1582075919       9.0000000000
2277 1       7.3505328941       8.0000000000
2278 1       7.2633235241       8.0000000000
2279 1       6.8292343902       9.0000000000
2280 1       6.7500089393       7.0000000000
2281 1       7.0524509133       8.0000000000
2282 1       7.2759839657       9.0000000000
2283 1       7.4659067927      10.0000000000
2284 1       6.8952939315      10.0000000000
2285 1       7.1722801347       8.0000000000
2286 1       7.7193176693       8.0000000000
2287 1       7.4843914688       7.0000000000
2288 1       7.4012956949      10.0000000000
2289 1       7.2870181442      10.0000000000
2290 1       7.2980899684      10.0000000000
2291 1       7.1984503553       7.0000000000
2292 1       7.6103961137      11.0000000000
2293 1       6.9339608456       9.0000000000
2294 1       7.9536641897      10.0000000000
2295 1       7.4447303719       8.0000000000
2296 1       7.5806003241       8.0000000000
2297 1       7.0540534073       8.0000000000
2298 1       7.5376277964       8.0000000000
2299 1       7.4786239207       9.0000000000
2300 1       7.3009905568       9.0000000000
2301 1       6.9019923138       8.0000000000
2302 1       7.2207566688       8.0000000000
2303 1       7.7854856479       9.0000000000
2304 1       7.4277745027       7.0000000000
2305 1       7.1126228537       8.0000000000
2306 1       6.6002222509       9.0000000000
2307 1       7.1630539526       7.0000000000
2308 1       7.2861024284      10.0000000000
2309 1       7.5234120082       8.0000000000
2310 1       7.1822153632       8.0000000000
2311 1       7.0805846460       9.0000000000
2312 1       7.4648142358       8.0000000000
2313 1       7.2790281069      10.0000000000
2314 1       7.6411444249       8.0000000000
2315 1       7.8094653590       9.0000000000
2316 1       7.2381474342       8.0000000000
2317 1       7.1939718367       9.0000000000
2318 1       6.7681758216      10.0000000000
2319 1       7.0565254321       9.0000000000
2320 1       7.1711903116      11.0000000000
2321 1       7.4942224020       9.0000000000
2322 1       7.1866271005       9.0000000000
2323 1       7.3755993374       9.0000000000
2324 1       6.7995560237      10.0000000000
2325 1       7.5513833502      10.0000000000
2326 1       6.8378255102       9.0000000000
2327 1       7.5375781909      11.0000000000
2328 1       7.1737430838       9.0000000000
2329 1       7.5378117710       8.0000000000
2330 1       7.1265775961       8.0000000000
2331 1       6.9746474597       9.0000000000
2332 1       7.1593755045       9.0000000000
2333 1       7.3518346692       8.0000000000
2334 1       7.6240223747      10.0000000000
2335 1       7.2250372428       8.0000000000
2336 1       7.1106734124       9.0000000000
2337 1       7.1852831988      12.0000000000
2338 1       6.9799236309       9.0000000000
2339 1       6.7859443964       8.0000000000
2340 1       7.2773861693       9.0000000000
2341 1       8.0036799972      10.0000000000
2342 1       7.8843945039      10.0000000000
2343 1       7.3274282931      11.0000000000
2344 1       6.9998430939       8.0000000000
2345 1       7.6634425692      10.0000000000
2346 1       7.4070497903      10.0000000000
2347 1       7.2790830904       9.0000000000
2348 1       7.7631740485       9.0000000000
2349 1       7.3959591840      10.0000000000
2350 1       7.7060164443       9.0000000000
2351 1       7.2695380343       9.0000000000
2352 1       7.1131175542       9.0000000000
2353 1       7.6514439339      10.0000000000
2354 1       7.6557805465      11.0000000000
2355 1       7.2297456070       8.0000000000
2356 1       7.6754332007       8.0000000000
2357 1       7.3687202694      10.0000000000
2358 1       7.5815532325       8.0000000000
2359 1       7.3318521513       8.0000000000
2360 1       7.5446128190       9.0000000000
2361 1       7.0744773988       9.0000000000
2362 1       6.5905599035       9.0000000000
2363 1       7.6883777662      11.0000000000
2364 1       6.8576313014      10.0000000000
2365 1       7.9351060940       9.0000000000
2366 1       7.1132467558       7.0000000000
2367 1       6.8017809965       7.0000000000
2368 1       7.6162104181       9.0000000000
2369 1       7.3810951787       8.0000000000
2370 1       7.0308843927       8.0000000000
2371 1       7.3212357187       8.0000000000
2372 1       6.9711921543       8.0000000000
2373 1       7.5536588069       9.0000000000
2374 1       7.0242926972      11.0000000000
2375 1       7.2212967460       9.0000000000
2376 1       7.1158380929       8.0000000000
2377 1       7.5851398139       9.0000000000
2378 1       7.4445714161       9.0000000000
2379 1       7.1956027562      10.0000000000
2380 1       6.6974811219       8.0000000000
2381 1       7.2196480999      10.0000000000
2382 1       7.3460817760       9.0000000000
2383 1       7.5172635714       8.0000000000
2384 1       7.5060580966       9.0000000000
2385 1       7.6885197692      12.0000000000
2386 1       7.5121009869       9.0000000000
2387 1       6.5590424392       8.0000000000
2388 1       7.2480232607       9.0000000000
2389 1       7.1341967017       8.0000000000
2390 1       7.6733538211      10.0000000000
2391 1       7.0631672818       9.0000000000
2392 1       7.6675843777       8.0000000000
2393 1       7.1445602007       9.0000000000
2394 1       7.7815133689      11.0000000000
2395 1       7.2377309957       8.0000000000
2396 1       7.3544255151       9.0000000000
2397 1       7.5449391102       8.0000000000
2398 1       6.9625879681       8.0000000000
2399 1       7.3659143181       7.0000000000
2400 1       7.5219833384       8.0000000000
2401 1       7.5982275350       9.0000000000
2402 1       7.4009039475      10.0000000000
2403 1       7.1712688120       8.0000000000
2404 1       7.1015907414       9.0000000000
2405 1       7.3639155169      11.0000000000
2406 1       7.1669913343       9.0000000000
2407 1       7.1332873977      10.0000000000
2408 1       7.1728272391       7.0000000000
2409 1       7.6998668901      11.0000000000
2410 1       7.1223148938       7.0000000000
2411 1       6.4957051379       9.0000000000
2412 1       6.9377768633       7.0000000000
2413 1       7.6977625453      10.0000000000
2414 1       7.0310274353       8.0000000000
2415 1       7.1829835885       9.0000000000
2416 1       6.9899428057       9.0000000000
2417 1       7.2450933935       9.0000000000
2418 1       7.5863609946      10.0000000000
2419 1       7.1671579818       7.0000000000
2420 1       7.1676508313      12.0000000000
2421 1       7.2010364864      10.0000000000
2422 1       7.3921240615       9.0000000000
2423 1       7.1897940784       9.0000000000
2424 1       7.6199295018      12.0000000000
2425 1       7.4047535032       9.0000000000
2426 1       6.8085616837       9.0000000000
2427 1       7.0045711837      11.0000000000
2428 1       7.0912796677       9.0000000000
2429 1       7.0156189446       8.0000000000
2430 1       6.8223040960       8.0000000000
2431 1       6.7322827948       8.0000000000
2432 1       7.6734025805      10.0000000000
2433 1       7.0931922552       9.0000000000
2434 1       7.0958753005       9.0000000000
2435 1       7.2221164368      10.0000000000
2436 1       7.7614851564       9.0000000000
2437 1       7.6781366452       7.0000000000
2438 1       7.5644442526       9.0000000000
2439 1       7.1473035164      12.0000000000
2440 1       7.6100402107       9.0000000000
2441 1       6.7530263441      10.0000000000
2442 1       7.0699726603       8.0000000000
2443 1       7.4514500827       8.0000000000
2444 1       7.4021375421       8.0000000000
2445 1       7.3658807534       7.0000000000
2446 1       7.1262542717       8.0000000000
2447 1       7.0025761391       9.0000000000
2448 1       7.1572502534       8.0000000000
2449 1       7.0825960855       8.0000000000
2450 1       6.7491176562      10.0000000000
2451 1       7.0997172376       9.0000000000
2452 1       6.8755003012       8.0000000000
2453 1       7.3252368277       8.0000000000
2454 1       6.9417222257      11.0000000000
2455 1       7.2543829306      12.0000000000
2456 1       7.2755112487       9.0000000000
2457 1       6.7112342986      10.0000000000
2458 1       7.7736429470       9.0000000000
2459 1       7.3719282165      10.0000000000
2460 1       7.5408251577      10.0000000000
2461 1       7.5397254276       9.0000000000
2462 1       7.4016016517       9.0000000000
2463 1       7.0954537997       9.0000000000
2464 1       7.0086192102       9.0000000000
2465 1       7.2176355304       7.0000000000
2466 1       6.9703678278      10.0000000000
2467 1       7.4640115159      10.0000000000
2468 1       7.4027015751       9.0000000000
2469 1       7.2661335051      10.0000000000
2470 1       7.1296934418       7.0000000000
2471 1       7.3751988151       9.0000000000
2472 1       7.0951688409      12.0000000000
2473 1       7.2038207472       8.0000000000
2474 1       7.2089138946       9.0000000000
2475 1       7.2169745644       9.0000000000
2476 1       7.3662206949       7.0000000000
2477 1       7.4562400486       9.0000000000
2478 1       7.4148819786       8.0000000000
2479 1       7.4282198019       9.0000000000
2480 1       7.2120407622       8.0000000000
2481 1       7.1164186609       9.0000000000
2482 1       7.0148299595       8.0000000000
2483 1       7.0429471390       9.0000000000
2484 1       7.5359500480       9.0000000000
2485 1       7.2986393287       9.0000000000
2486 1       6.9948096081      11.0000000000
2487 1       7.0323833182       9.0000000000
2488 1       6.9543977685       7.0000000000
2489 1       7.1028831987       8.0000000000
2490 1       7.4628934523      10.0000000000
2491 1       7.5631974052      10.0000000000
2492 1       7.1566793617      10.0000000000
2493 1       8.2574432637       7.0000000000
2494 1       7.6066662378      10.0000000000
2495 1       7.9929554080       9.0000000000
2496 1       6.9709569475      10.0000000000
2497 1       7.2779317604       9.0000000000
2498 1       7.5659762355       9.0000000000
2499 1       7.2534648341       8.0000000000
2500 1       6.6458250800      10.0000000000
2501 1       7.3574376536       9.0000000000
2502 1       6.8989707393       8.0000000000
2503 1       7.0971987685       8.0000000000
2504 1       7.1709290772       8.0000000000
2505 1       6.9773957221      10.0000000000
2506 1       7.3591362040       7.0000000000
2507 1       7.6983843301      11.0000000000
2508 1       7.4289224627       9.0000000000
2509 1       7.2660235325       9.0000000000
2510 1       7.3438744717      10.0000000000
2511 1       7.9415484473      13.0000000000
2512 1       7.6439859747       9.0000000000
2513 1       7.5070619360       9.0000000000
2514 1       7.2355794329       8.0000000000
2515 1       7.2162511191       9.0000000000
2516 1       7.7096509694       9.0000000000
2517 1       7.3765193358       9.0000000000
2518 1       7.4848569860       8.0000000000
2519 1       7.3253227238       9.0000000000
2520 1       7.0716678966       9.0000000000
2521 1       7.4916919098      13.0000000000
2522 1       7.4961651100      10.0000000000
2523 1       6.9722466338       8.0000000000
2524 1       6.9880377953       7.0000000000
2525 1       7.6943786264       9.0000000000
2526 1       6.9388719280       8.0000000000
2527 1       7.7856970530      10.0000000000
2528 1       6.9747790743       7.0000000000
2529 1       6.4647684491       9.0000000000
2530 1       6.9252819763       9.0000000000
2531 1       7.0616886387       8.0000000000
2532 1       6.9933681087       7.0000000000
2533 1       7.4646186155       8.0000000000
2534 1       7.5884090488       9.0000000000
2535 1       6.7491084252       7.0000000000
2536 1       6.8254726633       7.0000000000
2537 1       6.8771427582       9.0000000000
2538 1       7.4575462033       8.0000000000
2539 1       7.0519046833      11.0000000000
2540 1       6.9243151098       9.0000000000
2541 1       7.3516044391       8.0000000000
2542 1       7.0954665531       9.0000000000
2543 1       7.2450298341      10.0000000000
2544 1       7.2348607513       8.0000000000
2545 1       7.1927968275      10.0000000000
2546 1       7.3310064964       9.0000000000
2547 1       7.7237046198       8.0000000000
2548 1       7.3122869250       9.0000000000
2549 1       7.1402845169       8.0000000000
2550 1       7.9794896720       9.0000000000
2551 1       7.0953029363       9.0000000000
2552 1       7.0478927191       7.0000000000
2553 1       7.0608828905       7.0000000000
2554 1       7.7421428909       7.0000000000
2555 1       7.3682865538       9.0000000000
2556 1       7.2619044178      10.0000000000
2557 1       7.1498649961       8.0000000000
2558 1       6.7025567668      10.0000000000
2559 1       7.0440661936      10.0000000000
2560 1       7.5813796910       7.0000000000
2561 1       7.4958569374       9.0000000000
2562 1       7.0626499388       7.0000000000
2563 1       7.1999424742       9.0000000000
2564 1       7.4398680952      11.0000000000
2565 1       7.5778014859       9.0000000000
2566 1       6.9040251877       9.0000000000
2567 1       6.9202884184       8.0000000000
2568 1       7.5985643891       9.0000000000
2569 1       6.8102814322      10.0000000000
2570 1       7.1206262826      14.0000000000
2571 1       7.4703568092      10.0000000000
2572 1       6.6624428119       7.0000000000
2573 1       7.4739967343       9.0000000000
2574 1       7.6121915862      10.0000000000
2575 1       7.3564952886       8.0000000000
2576 1       7.1570387834       8.0000000000
2577 1       7.4459850631       9.0000000000
2578 1       7.4041501307      11.0000000000
2579 1       7.2447695516       8.0000000000
2580 1       7.3510056695      10.0000000000
2581 1       6.8165129507       9.0000000000
2582 1       7.6429038788       8.0000000000
2583 1       7.0776163337       8.0000000000
2584 1       7.5162158111      10.0000000000
2585 1       7.0610603592      10.0000000000
2586 1       7.1693085200       9.0000000000
2587 1       7.2177156154       8.0000000000
2588 1       7.5127166827       8.0000000000
2589 1       7.2925079912       8.0000000000
2590 1       7.2593371421       8.0000000000
2591 1       6.9213505799       9.0000000000
2592 1       7.5382970979       8.0000000000
2593 1       7.2158297202       9.0000000000
2594 1       7.3512467723      11.0000000000
2595 1       7.4214964287      10.0000000000
2596 1       6.8295787430       8.0000000000
2597 1       7.2733606361       8.0000000000
2598 1       7.4728817057       9.0000000000
2599 1       7.2032553639       8.0000000000
2600 1       7.4353180034       9.0000000000
2601 1       7.1674043038       8.0000000000
2602 1       7.5718623071      11.0000000000
2603 1       7.4762763195      10.0000000000
2604 1       7.2300826825       7.0000000000
2605 1       7.3170864476      11.0000000000
2606 1       7.4773866414       8.0000000000
2607 1       7.1221404659       7.0000000000
2608 1       7.5283744912      10.0000000000
2609 1       7.2426661205       8.0000000000
2610 1       7.4118517946       9.0000000000
2611 1       7.1695252418      11.0000000000
2612 1       6.8704158300       9.0000000000
2613 1       7.5844919619       9.0000000000
2614 1       7.1326578477       8.0000000000
2615 1       7.2491092473       7.0000000000
2616 1       7.4034267450       9.0000000000
2617 1       7.0130486103       9.0000000000
2618 1       7.4617242005       9.0000000000
2619 1       7.3954429517       9.0000000000
2620 1       7.5364986408       8.0000000000
2621 1       7.8439742217      10.0000000000
2622 1       7.4917561635      11.0000000000
2623 1       6.7462190583      10.0000000000
2624 1       7.2729591154       9.0000000000
2625 1       7.2442486697       7.0000000000
2626 1       7.3458834061       8.0000000000
2627 1       7.3965291842      10.0000000000
2628 1       8.1164242803       9.0000000000
2629 1       6.8565431293       7.0000000000
2630 1       6.8073126728       8.0000000000
2631 1       7.3006812247       9.0000000000
2632 1       7.1487867328      13.0000000000
2633 1       6.6875630688       9.0000000000
2634 1       7.0691093719      11.0000000000
2635 1       7.9685379129      10.0000000000
2636 1       6.9440452473       8.0000000000
2637 1       7.6898484412      11.0000000000
2638 1       6.8951476142       9.0000000000
2639 1       7.3017931870       9.0000000000
2640 1       7.3478698375       8.0000000000
2641 1       7.4757468901      10.0000000000
2642 1       7.4988198071       9.0000000000
2643 1       6.8855230736      10.0000000000
2644 1       7.5122385803      11.0000000000
2645 1       7.1347894962      10.0000000000
2646 1       7.7559298443      12.0000000000
2647 1       7.2924258688       9.0000000000
2648 1       7.5030773713      12.0000000000
2649 1       7.3213341197       9.0000000000
2650 1       7.4159299913      10.0000000000
2651 1       7.2609369544      10.0000000000
2652 1       7.5502721671       9.0000000000
2653 1       7.0376277873       9.0000000000
2654 1       6.9222660778       9.0000000000
2655 1       6.8842052699       8.0000000000
2656 1       7.1399531224       7.0000000000
2657 1       6.7508261525       9.0000000000
2658 1       7.0893296634       7.0000000000
2659 1       7.8111076449       8.0000000000
2660 1       7.5343620647       9.0000000000
2661 1       7.4752096691       9.0000000000
2662 1       7.6470864131       8.0000000000
2663 1       7.2558086023      11.0000000000
2664 1       6.7308916751       9.0000000000
2665 1       7.4793333241       9.0000000000
2666 1       7.3366693873       8.0000000000
2667 1       7.1888364998       8.0000000000
2668 1       7.3148413725      11.0000000000
2669 1       7.1445180902       9.0000000000
2670 1       7.0187966927      10.0000000000
2671 1       7.0453233781       9.0000000000
2672 1       7.2548944649      10.0000000000
2673 1       7.4642133073      12.0000000000
2674 1       7.8375226707      10.0000000000
2675 1       7.7264189491      10.0000000000
2676 1       7.1808115796       8.0000000000
2677 1       7.4381960341      11.0000000000
2678 1       7.4292636226       9.0000000000
2679 1       7.7255018342       8.0000000000
2680 1       7.3910803238       8.0000000000
2681 1       7.5128165429      11.0000000000
2682 1       7.4202541611       8.0000000000
2683 1       7.4279247970       7.0000000000
2684 1       7.4106380074       8.0000000000
2685 1       7.5140156247      10.0000000000
2686 1       6.7877869298       9.0000000000
2687 1       7.1259088988      11.0000000000
2688 1       7.5655517463       8.0000000000
2689 1       7.3302332308      10.0000000000
2690 1       6.6560910399       9.0000000000
2691 1       7.5043730816       8.0000000000
2692 1       7.0648509895       6.0000000000
2693 1       7.2496833653      11.0000000000
2694 1       7.3837930499       8.0000000000
2695 1       6.9519459842       9.0000000000
2696 1       7.3746981551       9.0000000000
2697 1       7.6997455738       8.0000000000
2698 1       7.4215897367       9.0000000000
2699 1       7.6767005039       9.0000000000
2700 1       6.5914259677      10.0000000000
2701 1       6.8077311188       7.0000000000
2702 1       6.9398584009       9.0000000000
2703 1       7.1117600051       9.0000000000
2704 1       6.8464176497       9.0000000000
2705 1       7.3181821540       8.0000000000
2706 1       7.0587777488      11.0000000000
2707 1       7.8646672339      11.0000000000
2708 1       7.3605255696      12.0000000000
2709 1       7.2044101989      10.0000000000
2710 1       7.5272947011       9.0000000000
2711 1       7.2202711788       7.0000000000
2712 1       7.3867246921       8.0000000000
2713 1       7.3907581130       9.0000000000
2714 1       7.1848867580       9.0000000000
2715 1       7.2266100799      11.0000000000
2716 1       7.4021733025       7.0000000000
2717 1       6.9097972616       6.0000000000
2718 1       7.1081765357       8.0000000000
2719 1       7.2839664052      11.0000000000
2720 1       7.9348013425      12.0000000000
2721 1       7.4001322445      10.0000000000
2722 1       7.4284456072       9.0000000000
2723 1       7.2979620874       8.0000000000
2724 1       6.8569505790       9.0000000000
2725 1       7.5585911164      11.0000000000
2726 1       6.9219071630       8.0000000000
2727 1       6.8721473971       8.0000000000
2728 1       7.7707329316      11.0000000000
2729 1       7.0032506815       9.0000000000
2730 1       7.0206307075       7.0000000000
2731 1       7.3984129012       7.0000000000
2732 1       7.4514490699       9.0000000000
2733 1       7.0763759696       9.0000000000
2734 1       7.2848276394      10.0000000000
2735 1       7.5707678377       8.0000000000
2736 1       7.2382137456      10.0000000000
2737 1       7.4003510652      10.0000000000
2738 1       7.5489075227       9.0000000000
2739 1       7.6164078053       8.0000000000
2740 1       6.9072347331      10.0000000000
2741 1       7.2371369446       8.0000000000
2742 1       7.2697192936       8.0000000000
2743 1       7.7152436386      10.0000000000
2744 1       7.3508652330      11.0000000000
2745 1       6.7996663683       8.0000000000
2746 1       7.3159880627       8.0000000000
2747 1       6.8422705179      10.0000000000
2748 1       6.4612972810       8.0000000000
2749 1       7.3323643826       8.0000000000
2750 1       6.9253317731      10.0000000000
2751 1       8.1072662339      10.0000000000
2752 1       7.4100415245       8.0000000000
2753 1       7.0913534546      10.0000000000
2754 1       6.9673104478       7.0000000000
2755 1       7.0217740246      10.0000000000
2756 1       7.2363372278       9.0000000000
2757 1       7.0006401268       6.0000000000
2758 1       7.5787055358      12.0000000000
2759 1       7.2522167081      10.0000000000
2760 1       7.4427628939       9.0000000000
2761 1       7.3341623177       9.0000000000
2762 1       7.8545212822      10.0000000000
2763 1       7.2033885328       9.0000000000
2764 1       7.3448233560       9.0000000000
2765 1       7.7083816788      10.0000000000
2766 1       7.1629559888      11.0000000000
2767 1       7.4035138491       9.0000000000
2768 1       6.8880383637      11.0000000000
2769 1       7.2695107818      11.0000000000
2770 1       7.3279222069       8.0000000000
2771 1       7.2996871992       9.0000000000
2772 1       7.4389171641       7.0000000000
2773 1       7.5259128903      10.0000000000
2774 1       6.8837955645       9.0000000000
2775 1       7.6505873325      10.0000000000
2776 1       7.0552123215       8.0000000000
2777 1       6.6868616217       9.0000000000
2778 1       7.4922386779      10.0000000000
2779 1       7.4278537306       8.0000000000
2780 1       7.1159046327       7.0000000000
2781 1       7.2787160247       8.0000000000
2782 1       6.7770530147      11.0000000000
2783 1       7.2399464437      10.0000000000
2784 1       6.8586025771       9.0000000000
2785 1       7.4228032943      10.0000000000
2786 1       7.1674135082       9.0000000000
2787 1       7.4550979533      10.0000000000
2788 1       7.6735492177      11.0000000000
2789 1       7.7528438018       7.0000000000
2790 1       7.6198526754       9.0000000000
2791 1       7.3609769064       9.0000000000
2792 1       7.4009252640       9.0000000000
2793 1       7.6160016631       9.0000000000
2794 1       7.6613863975       9.0000000000
2795 1       7.8403757256      11.0000000000
2796 1       7.2543049278       8.0000000000
2797 1       7.4210225409       9.0000000000
2798 1       7.1480326988      10.0000000000
2799 1       7.5524569646      10.0000000000
2800 1       7.8605189678      11.0000000000
2801 1       7.8903491713      11.0000000000
2802 1       7.1175968746       8.0000000000
2803 1       7.3807045077      10.0000000000
2804 1       7.4927061639       9.0000000000
2805 1       7.6201563360       9.0000000000
2806 1       7.8448617562      10.0000000000
2807 1       7.4034398989       9.0000000000
2808 1       7.2361902819      10.0000000000
2809 1       6.9195165839       9.0000000000
2810 1       7.2647750567       9.0000000000
2811 1       7.3672028398       9.0000000000
2812 1       7.2994199564      11.0000000000
2813 1       7.7609160205       7.0000000000
2814 1       7.2256171401      10.0000000000
2815 1       7.3836256585       7.0000000000
2816 1       7.5842182286      10.0000000000
2817 1       7.3113154074       8.0000000000
2818 1       7.3334011405       8.0000000000
2819 1       7.1946365508       9.0000000000
2820 1       7.2238609789       9.0000000000
2821 1       7.0769717956       7.0000000000
2822 1       6.9737584326      10.0000000000
2823 1       7.3013124039       8.0000000000
2824 1       7.3674416767      11.0000000000
2825 1       7.3240362283       8.0000000000
2826 1       7.3893580812       8.0000000000
2827 1       7.8510207657       8.0000000000
2828 1       7.5180583486       9.0000000000
2829 1       7.4750537630       9.0000000000
2830 1       7.2566544566       9.0000000000
2831 1       6.9025841913       9.0000000000
2832 1       7.7322865363      10.0000000000
2833 1       7.9222847067       9.0000000000
2834 1       7.5887130975       9.0000000000
2835 1       7.2602444932      10.0000000000
2836 1       6.6992726951       7.0000000000
2837 1       7.1249255263       8.0000000000
2838 1       7.7426539747      12.0000000000
2839 1       7.4570370510      10.0000000000
2840 1       7.5958606915      10.0000000000
2841 1       7.9140782804      10.0000000000
2842 1       7.6152486576       8.0000000000
2843 1       7.1025622233       7.0000000000
2844 1       8.0906230599      10.0000000000
2845 1       7.5467682543      10.0000000000
2846 1       7.2170301348       8.0000000000
2847 1       7.0941156138       9.0000000000
2848 1       7.4961167885      10.0000000000
2849 1       6.5370445904       8.0000000000
2850 1       7.7077308963      12.0000000000
2851 1       6.8857824014       9.0000000000
2852 1       6.9953493868       8.0000000000
2853 1       7.4735086221      10.0000000000
2854 1       7.0810384843       9.0000000000
2855 1       7.1821295187       8.0000000000
2856 1       7.8760307308       9.0000000000
2857 1       7.3919926383       9.0000000000
2858 1       7.4473799925       9.0000000000
2859 1       7.6289638564      10.0000000000
2860 1       7.8059232211      10.0000000000
2861 1       7.0690364646      10.0000000000
2862 1       7.2027493668       9.0000000000
2863 1       7.6687833310      11.0000000000
2864 1       7.3806389004      10.0000000000
2865 1       7.2282685716       8.0000000000
2866 1       7.1366747962       9.0000000000
2867 1       7.4528571318       8.0000000000
2868 1       7.3791436034      10.0000000000
2869 1       7.6055858536      11.0000000000
2870 1       6.7624571437       7.0000000000
2871 1       7.1912810775       7.0000000000
2872 1       7.6852561169      10.0000000000
2873 1       7.3490738901       9.0000000000
2874 1       7.4651657473       9.0000000000
2875 1       7.3971294999      13.0000000000
2876 1       7.0462163333       8.0000000000
2877 1       7.7746569305       9.0000000000
2878 1       7.2784636596      10.0000000000
2879 1       7.2840135326      10.0000000000
2880 1       7.1310946288      10.0000000000
2881 1       7.0021797501       7.0000000000
2882 1       7.0846278219      10.0000000000
2883 1       7.5346951401      10.0000000000
2884 1       7.7771559974      10.0000000000
2885 1       7.6602126918       9.0000000000
2886 1       7.3348130981       9.0000000000
2887 1       6.7284499653       9.0000000000
2888 1       7.6561390936       8.0000000000
2889 1       7.6474421462       8.0000000000
2890 1       7.5789464041       8.0000000000
2891 1       7.4853858559       7.0000000000
2892 1       7.5038020622       9.0000000000
2893 1       7.1676514477       7.0000000000
2894 1       6.8014883694       7.0000000000
2895 1       7.6891966937      10.0000000000
2896 1       6.8976671344       7.0000000000
2897 1       7.4974511821      10.0000000000
2898 1       7.4962414988       8.0000000000
2899 1       7.0671040568      10.0000000000
2900 1       7.4721413781       8.0000000000
2901 1       6.8335831368       8.0000000000
2902 1       7.3018034693       9.0000000000
2903 1       7.3761349354       9.0000000000
2904 1       7.0947403385       7.0000000000
2905 1       7.4868887878       9.0000000000
2906 1       7.1533561591       8.0000000000
2907 1       7.2173196020      11.0000000000
2908 1       7.1303509759       9.0000000000
2909 1       6.7392308942       9.0000000000
2910 1       7.5733281489      11.0000000000
2911 1       7.2858081782      10.0000000000
2912 1       7.2473812976       8.0000000000
2913 1       7.1771940299       9.0000000000
2914 1       7.3542365452       9.0000000000
2915 1       7.0569755637       8.0000000000
2916 1       7.2267140183       8.0000000000
2917 1       7.3222390505       9.0000000000
2918 1       7.2891203727       7.0000000000
2919 1       6.6691765279       7.0000000000
2920 1       6.8090627732       9.0000000000
2921 1       7.3556531466       9.0000000000
2922 1       7.5160694823       8.0000000000
2923 1       7.7674769278       9.0000000000
2924 1       7.5891964905       9.0000000000
2925 1       8.3540098112       9.0000000000
2926 1       7.2394641593       9.0000000000
2927 1       6.9499029509      12.0000000000
2928 1       7.5376585609       8.0000000000
2929 1       6.9452348777       8.0000000000
2930 1       6.9791955915       8.0000000000
2931 1       7.2686315954       9.0000000000
2932 1       7.4200152736      10.0000000000
2933 1       7.0608676780      10.0000000000
2934 1       7.1485673671       6.0000000000
2935 1       7.7304948910      11.0000000000
2936 1       7.2466369279      11.0000000000
2937 1       6.7091279367       8.0000000000
2938 1       6.9658007970       8.0000000000
2939 1       7.2094554880      11.0000000000
2940 1       7.0247342348       8.0000000000
2941 1       7.4846454340       8.0000000000
2942 1       7.6630029091       9.0000000000
2943 1       7.3131146438       8.0000000000
2944 1       7.4635232009       7.0000000000
2945 1       7.3837174074       8.0000000000
2946 1       6.8904956095       8.0000000000
2947 1       7.1762749619       8.0000000000
2948 1       7.3383148052       9.0000000000
2949 1       7.1353096450      10.0000000000
2950 1       6.8379840284      10.0000000000
2951 1       7.1706021198      11.0000000000
2952 1       7.1924829139       9.0000000000
2953 1       7.1968179881      10.0000000000
2954 1       7.1250337367       8.0000000000
2955 1       7.3072176002       9.0000000000
2956 1       7.3905281839       8.0000000000
2957 1       6.9933773968       8.0000000000
2958 1       7.0624906381       7.0000000000
2959 1       7.4484759805      10.0000000000
2960 1       7.0287658670       8.0000000000
2961 1       7.5398601674       7.0000000000
2962 1       7.2389042390      10.0000000000
2963 1       8.0328783601       7.0000000000
2964 1       7.2376396411      11.0000000000
2965 1       6.6422153912       9.0000000000
2966 1       7.8769041804       9.0000000000
2967 1       7.6324677184      11.0000000000
2968 1       7.5541131975      10.0000000000
2969 1       7.7349883052      10.0000000000
2970 1       7.1119318455      11.0000000000
2971 1       7.5650278715       9.0000000000
2972 1       7.5797765273       8.0000000000
2973 1       7.6351015198      10.0000000000
2974 1       7.6185907657       8.0000000000
2975 1       6.9340857044       8.0000000000
2976 1       6.9738049507       9.0000000000
2977 1       7.6201865853       8.0000000000
2978 1       6.9173412821      11.0000000000
2979 1       7.3060934062       9.0000000000
2980 1       6.9312693082       9.0000000000
2981 1       7.2717947950       9.0000000000
2982 1       6.8063644051       9.0000000000
2983 1       7.1227039105       9.0000000000
2984 1       6.9997776059       7.0000000000
2985 1       7.7306081841       7.0000000000
2986 1       7.0073236461       8.0000000000
2987 1       7.0969664504       9.0000000000
2988 1       7.1133206120       8.0000000000
2989 1       7.4193984860       9.0000000000
2990 1       7.5036003757       8.0000000000
2991 1       7.4627204976       8.0000000000
2992 1       7.0857508575       8.0000000000
2993 1       6.9417507490       9.0000000000
2994 1       6.6813978068       7.0000000000
2995 1       7.2776779558       7.0000000000
2996 1       7.3197666980       7.0000000000
2997 1       7.2849071388       7.0000000000
2998 1       7.4005423560       7.0000000000
2999 1       6.9800398415       8.0000000000
3000 1       6.9002758353       8.0000000000
3001 1       7.3665388100       7.0000000000
3002 1       7.2922962356       9.0000000000
3003 1       7.6991450369      10.0000000000
3004 1       7.3280374594      10.0000000000
3005 1       7.7857663808      10.0000000000
3006 1       6.8729321910       8.0000000000
3007 1       7.2157113284       8.0000000000
3008 1       7.2331214999       7.0000000000
3009 1       6.8042964474       8.0000000000
3010 1       6.5864530967       8.0000000000
3011 1       7.2897876924       9.0000000000
3012 1       7.2880870305       9.0000000000
3013 1       7.5717572627      11.0000000000
3014 1       7.0242824291       9.0000000000
3015 1       7.1353560002       9.0000000000
3016 1       7.2729763329       8.0000000000
3017 1       7.0573726777       9.0000000000
3018 1       7.3213984597       9.0000000000
3019 1       7.0178733013      10.0000000000
3020 1       7.3975000907       9.0000000000
3021 1       7.3926893105       7.0000000000
3022 1       6.9727465893       8.0000000000
3023 1       6.9598473466       8.0000000000
3024 1       6.8613615172      10.0000000000
3025 1       7.4949099011      10.0000000000
3026 1       7.5228722951       8.0000000000
3027 1       7.2548034381       9.0000000000
3028 1       7.4626140427       7.0000000000
3029 1       7.4128523305       8.0000000000
3030 1       7.1321048361       8.0000000000
3031 1       7.3585673808      11.0000000000
3032 1       7.2305042394       9.0000000000
3033 1       7.3255017405      10.0000000000
3034 1       7.4092476927       9.0000000000
3035 1       7.2588823795       8.0000000000
3036 1       7.3643499027      11.0000000000
3037 1       7.4018124942       8.0000000000
3038 1       7.5880630445      11.0000000000
3039 1       7.0553805931       7.0000000000
3040 1       8.0703685640       8.0000000000
3041 1       7.3049527789      11.0000000000
3042 1       7.0479657714      11.0000000000
3043 1       6.8797716536      10.0000000000
3044 1       7.2705280647      12.0000000000
3045 1       7.2162022943       9.0000000000
3046 1       7.1714458379      10.0000000000
3047 1       7.9726404739       6.0000000000
3048 1       7.0949119901      10.0000000000
3049 1       7.7620403688       7.0000000000
3050 1       7.6853982071      10.0000000000
3051 1       6.7035632871       8.0000000000
3052 1       7.2695935590      10.0000000000
3053 1       7.0763161720      10.0000000000
3054 1       7.1623529844       8.0000000000
3055 1       7.5204199390       9.0000000000
3056 1       7.2434831507      11.0000000000
3057 1       7.6579566867       8.0000000000
3058 1       7.2903889675       7.0000000000
3059 1       6.9977197593      10.0000000000
3060 1       7.6354292867       8.0000000000
3061 1       6.8266462338      10.0000000000
3062 1       7.1825313101       9.0000000000
3063 1       7.3609610916       8.0000000000
3064 1       7.1022013634       8.0000000000
3065 1       7.7949444133      10.0000000000
3066 1       7.1411725326       9.0000000000
3067 1       7.0698098641       8.0000000000
3068 1       7.5293384699      11.0000000000
3069 1       7.5309988568      10.0000000000
3070 1       6.8908480763      11.0000000000
3071 1       6.7924456922       8.0000000000
3072 1       7.4964502680       9.0000000000
3073 1       7.3684360184      10.0000000000
3074 1       7.4705288575       9.0000000000
3075 1       7.0541723693       9.0000000000
3076 1       7.2706356347       9.0000000000
3077 1       7.1344924114       8.0000000000
3078 1       8.1229253272       7.0000000000
3079 1       7.4573477013       8.0000000000
3080 1       7.1637658906       8.0000000000
3081 1       7.9777431025      12.0000000000
3082 1       7.9935254359      12.0000000000
3083 1       6.9754481895       8.0000000000
3084 1       7.5601817727      11.0000000000
3085 1       7.7762993091      10.0000000000
3086 1       7.3794720618       9.0000000000
3087 1       7.4307276408       8.0000000000
3088 1       7.0528402357      10.0000000000
3089 1       7.7658635307      11.0000000000
3090 1       7.0858120496       8.0000000000
3091 1       7.4874659370       9.0000000000
3092 1       7.7025710298       9.0000000000
3093 1       7.7352487534       9.0000000000
3094 1       7.2327462398      10.0000000000
3095 1       7.0602226027       9.0000000000
3096 1       7.8707356404      10.0000000000
3097 1       7.5245429892       9.0000000000
3098 1       7.0774965857       9.0000000000
3099 1       7.4231156637       8.0000000000
3100 1       7.3417711896      11.0000000000
3101 1       7.3873138248       8.0000000000
3102 1       7.3933980722      10.0000000000
3103 1       7.7179501391      11.0000000000
3104 1       7.3031763482       8.0000000000
3105 1       7.6312232255       7.0000000000
3106 1       6.9760043874       7.0000000000
3107 1       7.5194992905       9.0000000000
3108 1       6.7831009541      11.0000000000
3109 1       6.8398989164       7.0000000000
3110 1       7.5376271373       8.0000000000
3111 1       7.4051883345       8.0000000000
3112 1       7.0199089542       7.0000000000
3113 1       6.6527792888       5.0000000000
3114 1       7.5201118045      11.0000000000
3115 1       7.8846954748       9.0000000000
3116 1       7.2996276160      12.0000000000
3117 1       7.1866703032       9.0000000000
3118 1       7.2664798208       9.0000000000
3119 1       6.9537002750       8.0000000000
3120 1       7.2966568859      11.0000000000
3121 1       7.3003237135       8.0000000000
3122 1       7.3185097947       8.0000000000
3123 1       7.9848804204      10.0000000000
3124 1       7.4352461298       9.0000000000
3125 1       6.9798565140       8.0000000000
3126 1       7.3680104297       8.0000000000
3127 1       7.1788704920      10.0000000000
3128 1       6.8794237080       9.0000000000
3129 1       7.8506397256       9.0000000000
3130 1       7.5894859469      10.0000000000
3131 1       7.9187538459       7.0000000000
3132 1       7.1392262265       8.0000000000
3133 1       7.1814510492       8.0000000000
3134 1       7.6102025266      10.0000000000
3135 1       7.3053505429      11.0000000000
3136 1       7.3104216177      10.0000000000
3137 1       7.8321603093      11.0000000000
3138 1       7.4852173443      10.0000000000
3139 1       7.4788915897      10.0000000000
3140 1       7.3630612888       9.0000000000
3141 1       7.1166394704      10.0000000000
3142 1       7.7310776664      10.0000000000
3143 1       7.3961840785       7.0000000000
3144 1       7.5987588533       8.0000000000
3145 1       7.4155957146       8.0000000000
3146 1       7.7774438473       7.0000000000
3147 1       7.4275797868       9.0000000000
3148 1       7.3987636480       8.0000000000
3149 1       7.2617122044       9.0000000000
3150 1       7.4133230404      10.0000000000
3151 1       7.2227931510       7.0000000000
3152 1       7.6537663420       9.0000000000
3153 1       7.0658661108       7.0000000000
3154 1       8.3458574914      12.0000000000
3155 1       7.3551335789      10.0000000000
3156 1       7.1957691520       8.0000000000
3157 1       8.0240821383       9.0000000000
3158 1       7.7120662018       8.0000000000
3159 1       7.2215918185      10.0000000000
3160 1       7.8689127869       9.0000000000
3161 1       7.0226156648       8.0000000000
3162 1       6.9664608991       7.0000000000
3163 1       7.6333069976      10.0000000000
3164 1       7.5343999511       8.0000000000
3165 1       7.4847491196      12.0000000000
3166 1       7.1523170335       9.0000000000
3167 1       7.3344620192       8.0000000000
3168 1       7.4032133709       9.0000000000
3169 1       6.4225064169       8.0000000000
3170 1       7.0326425577       9.0000000000
3171 1       7.4001677875       9.0000000000
3172 1       6.8651712299       9.0000000000
3173 1       7.2087930490      13.0000000000
3174 1       7.6027898172       9.0000000000
3175 1       7.1585707273      11.0000000000
3176 1       7.5688226747       9.0000000000
3177 1       7.6774151678       8.0000000000
3178 1       7.4853756430      11.0000000000
3179 1       7.4921006426      11.0000000000
3180 1       7.6235943185      10.0000000000
3181 1       7.1295604335      10.0000000000
3182 1       7.0476916185       8.0000000000
3183 1       7.9355956609      10.0000000000
3184 1       7.3716144203       9.0000000000
3185 1       7.1887957674       8.0000000000
3186 1       7.2050762695       9.0000000000
3187 1       7.0961104471       8.0000000000
3188 1       7.6521394342      11.0000000000
3189 1       8.0392608881      10.0000000000
3190 1       6.8303562490       8.0000000000
3191 1       7.4548552113       9.0000000000
3192 1       6.7526740826       9.0000000000
3193 1       7.0223591241      10.0000000000
3194 1       7.6503052403       8.0000000000
3195 1       7.3562207551       7.0000000000
3196 1       7.4480122599       7.0000000000
3197 1       7.5688893296      11.0000000000
3198 1       7.7377028240       9.0000000000
3199 1       7.3147684854       8.0000000000
3200 1       7.3818681606      12.0000000000
3201 1       7.5637198868       9.0000000000
3202 1       7.0048328043       8.0000000000
3203 1       7.1785590326      12.0000000000
3204 1       6.9436600588      10.0000000000
3205 1       7.5090757462      11.0000000000
3206 1       6.9162310735       8.0000000000
3207 1       7.5453820992       9.0000000000
3208 1       7.4959496142      10.0000000000
3209 1       7.6835569473       9.0000000000
3210 1       7.5963929260       9.0000000000
3211 1       7.0738168622      11.0000000000
3212 1       7.1804942931      11.0000000000
3213 1       7.3125375888       7.0000000000
3214 1       7.3253394376       9.0000000000
3215 1       7.4639893186       9.0000000000
3216 1       7.9278142879       7.0000000000
3217 1       6.8810775662      10.0000000000
3218 1       6.9645182362       9.0000000000
3219 1       6.8244650184       7.0000000000
3220 1       7.7075898721       8.0000000000
3221 1       7.3546849099       7.0000000000
3222 1       6.8589188022       9.0000000000
3223 1       7.3999926896      10.0000000000
3224 1       7.2029343894       7.0000000000
3225 1       7.5803498751      10.0000000000
3226 1       7.3252360092      10.0000000000
3227 1       7.3541674986       9.0000000000
3228 1       6.9396608762      10.0000000000
3229 1       7.8614228107       8.0000000000
3230 1       7.8705518207      10.0000000000
3231 1       7.4886896231       8.0000000000
3232 1       7.8976125778      11.0000000000
3233 1       7.6364405186       8.0000000000
3234 1       7.7908146868      10.0000000000
3235 1       7.7687973936      10.0000000000
3236 1       6.8189896106      10.0000000000
3237 1       7.5364047275      10.0000000000
3238 1       6.9821207169       9.0000000000
3239 1       6.9280994706       9.0000000000
3240 1       6.9997340202       8.0000000000
3241 1       7.1708300422       7.0000000000
3242 1       7.4810644417       9.0000000000
3243 1       7.0577218919       9.0000000000
3244 1       7.2134109280       8.0000000000
3245 1       7.4569506485      12.0000000000
3246 1       6.8884519996       8.0000000000
3247 1       8.1150650680       8.0000000000
3248 1       7.2487878193       9.0000000000
3249 1       7.4163302841      10.0000000000
3250 1       7.1045927567       8.0000000000
3251 1       7.9168021029       7.0000000000
3252 1       7.0246627545       8.0000000000
3253 1       7.0266217131       9.0000000000
3254 1       7.3929007625       8.0000000000
3255 1       7.7418604773       9.0000000000
3256 1       7.0657611990       8.0000000000
3257 1       7.2067696988       8.0000000000
3258 1       7.2045289097       8.0000000000
3259 1       6.7673815081       8.0000000000
3260 1       6.9702334741       8.0000000000
3261 1       7.1024005480       9.0000000000
3262 1       7.5144680655      10.0000000000
3263 1       8.0182075906       9.0000000000
3264 1       6.9833067188      11.0000000000
3265 1       7.8223741088       9.0000000000
3266 1       7.5435201476       9.0000000000
3267 1       7.4375236518       9.0000000000
3268 1       7.4620723817       9.0000000000
3269 1       7.7451239522       9.0000000000
3270 1       7.3326714185       8.0000000000
3271 1       7.1061912120       7.0000000000
3272 1       7.1523491641      10.0000000000
3273 1       7.2871389044       9.0000000000
3274 1       7.9033101806       9.0000000000
3275 1       7.1887897782       7.0000000000
3276 1       7.7036495962      11.0000000000
3277 1       6.9641270555       9.0000000000
3278 1       7.3961478793       7.0000000000
3279 1       7.6169191958       7.0000000000
3280 1       7.6672618973      10.0000000000
3281 1       7.1271673206       9.0000000000
3282 1       7.2932030248      10.0000000000
3283 1       6.8824709026       7.0000000000
3284 1       6.9905650592      11.0000000000
3285 1       7.4567731470       9.0000000000
3286 1       7.9701108928       9.0000000000
3287 1       7.4453101400       9.0000000000
3288 1       6.5763233969       9.0000000000
3289 1       7.4004364410       9.0000000000
3290 1       6.7976129411       9.0000000000
3291 1       7.0427083590       9.0000000000
3292 1       7.6904118746      13.0000000000
3293 1       7.0895556701       8.0000000000
3294 1       7.6604480359      12.0000000000
3295 1       7.2315572319      10.0000000000
3296 1       7.4938688254      11.0000000000
3297 1       7.8099022783      10.0000000000
3298 1       7.3332127571       9.0000000000
3299 1       6.6738796524       9.0000000000
3300 1       7.1649049371      11.0000000000
3301 1       7.6468671523       8.0000000000
3302 1       8.2091555427      10.0000000000
3303 1       7.5322366476      11.0000000000
3304 1       7.1599906006       9.0000000000
3305 1       7.5846940844       9.0000000000
3306 1       6.8648239298       9.0000000000
3307 1       7.3264848783       8.0000000000
3308 1       7.0164902114      11.0000000000
3309 1       7.4967427583      11.0000000000
3310 1       7.4904660555       9.0000000000
3311 1       7.4378726921       8.0000000000
3312 1       7.6073813517       9.0000000000
3313 1       7.3043506949      11.0000000000
3314 1       7.1699250035      10.0000000000
3315 1       7.6255060515      10.0000000000
3316 1       7.2626109658      10.0000000000
3317 1       7.3936821640      11.0000000000
3318 1       7.4691441852       9.0000000000
3319 1       7.7377041807       9.0000000000
3320 1       6.6059851073       5.0000000000
3321 1       6.5635194247       9.0000000000
3322 1       7.0552193091       8.0000000000
3323 1       7.2983064270       9.0000000000
3324 1       7.8500203210       9.0000000000
3325 1       7.0300708921       9.0000000000
3326 1       7.2523210714       7.0000000000
3327 1       7.1171515411       8.0000000000
3328 1       7.3430701522       9.0000000000
3329 1       7.2591762558       9.0000000000
3330 1       7.1941082832       8.0000000000
3331 1       7.2752336289       8.0000000000
3332 1       7.1915936767      10.0000000000
3333 1       6.8899468175       8.0000000000
3334 1       7.6451954740      11.0000000000
3335 1       7.0398667969      10.0000000000
3336 1       7.4388609137      13.0000000000
3337 1       7.1087997763       7.0000000000
3338 1       7.0231315451       8.0000000000
3339 1       7.9049888380      11.0000000000
3340 1       6.5343264751       8.0000000000
3341 1       7.0423765384       9.0000000000
3342 1       7.1251913087       7.0000000000
3343 1       7.0013032127      12.0000000000
3344 1       7.2163090834       9.0000000000
3345 1       7.1643683768       8.0000000000
3346 1       7.2325594653      10.0000000000
3347 1       6.9108767859       8.0000000000
3348 1       6.6724163964      10.0000000000
3349 1       7.4164145091       9.0000000000
3350 1       6.9373912448       8.0000000000
3351 1       7.1076904807      10.0000000000
3352 1       7.3188380539       8.0000000000
3353 1       7.5368851819      10.0000000000
3354 1       7.1379335810      11.0000000000
3355 1       7.5517750546      12.0000000000
3356 1       7.1136494993      12.0000000000
3357 1       7.2851518342       9.0000000000
3358 1       7.1921798341       7.0000000000
3359 1       7.3392259284       9.0000000000
3360 1       7.0405200817       9.0000000000
3361 1       7.3923500907      10.0000000000
3362 1       7.2157403234       8.0000000000
3363 1       7.1375974152       8.0000000000
3364 1       7.7284275304      10.0000000000
3365 1       7.4151958711       9.0000000000
3366 1       7.3448612122       9.0000000000
3367 1       7.2208125242      12.0000000000
3368 1       6.8072614742      10.0000000000
3369 1       7.4093136922      10.0000000000
3370 1       7.5560022880       8.0000000000
3371 1       7.4510403021      11.0000000000
3372 1       7.4383852863       8.0000000000
3373 1       7.5256681431       8.0000000000
3374 1       7.2772821636       8.0000000000
3375 1       7.2974597400      10.0000000000
3376 1       7.5438917008       8.0000000000
3377 1       7.8778518875       7.0000000000
3378 1       7.1600758822       7.0000000000
3379 1       7.7641571496       9.0000000000
3380 1       7.4172503330       8.0000000000
3381 1       6.9983599524       8.0000000000
3382 1       7.4035463358       9.0000000000
3383 1       7.0396422782       7.0000000000
3384 1       7.2366841919       8.0000000000
3385 1       7.6057930372       7.0000000000
3386 1       7.4999512118      10.0000000000
3387 1       7.2584004465      10.0000000000
3388 1       6.7866527980       9.0000000000
3389 1       7.3837784878      10.0000000000
3390 1       7.8191743083       8.0000000000
3391 1       7.1589621882       8.0000000000
3392 1       7.6786902548      12.0000000000
3393 1       7.3359327576      10.0000000000
3394 1       7.2516679199       8.0000000000
3395 1       7.1514686852       7.0000000000
3396 1       7.4487913210      10.0000000000
3397 1       7.1467591104      10.0000000000
3398 1       7.6495925270      11.0000000000
3399 1       7.6192370498      10.0000000000
3400 1       6.9043165897      10.0000000000
3401 1       7.4178309667      10.0000000000
3402 1       7.5892537427       8.0000000000
3403 1       7.1468221223       9.0000000000
3404 1       6.9002699500       8.0000000000
3405 1       7.3796664406       9.0000000000
3406 1       7.3632177692      10.0000000000
3407 1       7.0574948641       7.0000000000
3408 1       6.6561124736       9.0000000000
3409 1       7.0659914859      13.0000000000
3410 1       7.7160770522       8.0000000000
3411 1       7.6338285333       9.0000000000
3412 1       7.4721967737      10.0000000000
3413 1       7.1382866041       8.0000000000
3414 1       7.9570945495      10.0000000000
3415 1       7.1874668738      10.0000000000
3416 1       7.2965853847      11.0000000000
3417 1       6.8252379075       9.0000000000
3418 1       7.9270383920      10.0000000000
3419 1       7.8872736876      10.0000000000
3420 1       7.0146644135      10.0000000000
3421 1       7.6987812025      11.0000000000
3422 1       7.2933132832      11.0000000000
3423 1       7.5722839417       9.0000000000
3424 1       6.9810100553       7.0000000000
3425 1       6.8630308953       8.0000000000
3426 1       7.2871868751       8.0000000000
3427 1       7.3382779022       8.0000000000
3428 1       7.9498682800       6.0000000000
3429 1       7.4253016943      11.0000000000
3430 1       7.6220449280       8.0000000000
3431 1       7.3827032606      11.0000000000
3432 1       7.3672594293      13.0000000000
3433 1       6.8705043457      10.0000000000
3434 1       7.4834947999       8.0000000000
3435 1       7.2642089710       9.0000000000
3436 1       7.2334808142       9.0000000000
3437 1       7.9735921882      10.0000000000
3438 1       7.2553869234      10.0000000000
3439 1       6.9557352352      10.0000000000
3440 1       7.7206834783       8.0000000000
3441 1       7.4235761950       9.0000000000
3442 1       6.9791981908      10.0000000000
3443 1       7.5712480810       8.0000000000
3444 1       7.2496099832       8.0000000000
3445 1       7.3557783584       8.0000000000
3446 1       6.9186536881      12.0000000000
3447 1       6.8470372273       9.0000000000
3448 1       7.6330547831       8.0000000000
3449 1       8.3026832033      10.0000000000
3450 1       7.5409910871       9.0000000000
3451 1       6.8959575416      10.0000000000
3452 1       7.3514787038       9.0000000000
3453 1       7.3710782534       8.0000000000
3454 1       7.3838522015       8.0000000000
3455 1       6.9538176053       9.0000000000
3456 1       7.0069173553       8.0000000000
3457 1       7.1653216693       8.0000000000
3458 1       7.4561958416       8.0000000000
3459 1       8.0979823506       8.0000000000
3460 1       7.2045060713      10.0000000000
3461 1       6.9991177424       8.0000000000
3462 1       7.6612961863       9.0000000000
3463 1       7.5667909128       9.0000000000
3464 1       7.1589657474      10.0000000000
3465 1       7.2576037759      10.0000000000
3466 1       6.8324790965      10.0000000000
3467 1       7.5603862766       8.0000000000
3468 1       7.9984022044       6.0000000000
3469 1       7.5676602058      10.0000000000
3470 1       7.4666503241      11.0000000000
3471 1       7.1139459052       8.0000000000
3472 1       7.4779199854      11.0000000000
3473 1       7.3937322936       9.0000000000
3474 1       7.5854452093       8.0000000000
3475 1       7.3514884671      10.0000000000
3476 1       7.3062603367      10.0000000000
3477 1       7.5185372687       9.0000000000
3478 1       7.0889675246      10.0000000000
3479 1       7.6971608099       9.0000000000
3480 1       7.1946856650       7.0000000000
3481 1       7.0753901321       9.0000000000
3482 1       7.6740755437       9.0000000000
3483 1       7.4231407625       9.0000000000
3484 1       8.0383933568      10.0000000000
3485 1       7.6946817458       7.0000000000
3486 1       7.3893216866       9.0000000000
3487 1       7.7661029290       8.0000000000
3488 1       7.4356196015       9.0000000000
3489 1       7.1125584305       8.0000000000
3490 1       7.7121677556       9.0000000000
3491 1       7.0583761181       7.0000000000
3492 1       7.3933982442       9.0000000000
3493 1       7.3312279364       8.0000000000
3494 1       7.4917303282      10.0000000000
3495 1       6.8722705451       7.0000000000
3496 1       7.4296638140      10.0000000000
3497 1       7.2418883661       9.0000000000
3498 1       7.4054132559       9.0000000000
3499 1       7.3571148769      10.0000000000
3500 1       7.3905245903       7.0000000000
3501 1       7.3353770488      12.0000000000
3502 1       7.0965190568       8.0000000000
3503 1       6.9591344574       8.0000000000
3504 1       7.3569996706      11.0000000000
3505 1       7.6162352865      10.0000000000
3506 1       7.4174689194       9.0000000000
3507 1       6.9727250391       9.0000000000
3508 1       7.3497189811      10.0000000000
3509 1       7.4224640692       9.0000000000
3510 1       7.4178125000      10.0000000000
3511 1       7.2828445124       8.0000000000
3512 1       7.0557986742       9.0000000000
3513 1       7.3634569360      11.0000000000
3514 1       6.9814521959      10.0000000000
3515 1       7.6876698757      11.0000000000
3516 1       7.3979720141       9.0000000000
3517 1       6.6344757164       8.0000000000
3518 1       7.7629740736       9.0000000000
3519 1       7.0321574462       9.0000000000
3520 1       7.4220035905      10.0000000000
3521 1       7.2392127772       9.0000000000
3522 1       7.8963469479      10.0000000000
3523 1       7.0387377895       8.0000000000
3524 1       7.3839962393      10.0000000000
3525 1       7.6863260382      11.0000000000
3526 1       6.8526437801       8.0000000000
3527 1       7.2439007386       8.0000000000
3528 1       7.2895812079       8.0000000000
3529 1       7.1592045896       8.0000000000
3530 1       7.3288642408       7.0000000000
3531 1       7.6992582574      10.0000000000
3532 1       6.8817003053       9.0000000000
3533 1       7.0556300093       8.0000000000
3534 1       7.2693014715      10.0000000000
3535 1       6.9508921386       9.0000000000
3536 1       7.2543029950       9.0000000000
3537 1       6.7981572271       9.0000000000
3538 1       7.3780405014      10.0000000000
3539 1       7.0627624729       9.0000000000
3540 1       7.2191565021      10.0000000000
3541 1       6.9137885259       6.0000000000
3542 1       6.9511071473       9.0000000000
3543 1       8.0545685702       9.0000000000
3544 1       7.0045689248      10.0000000000
3545 1       7.1739752736       8.0000000000
3546 1       8.2534286559      11.0000000000
3547 1       7.3514608854       8.0000000000
3548 1       7.1824492834       7.0000000000
3549 1       7.3063780091      11.0000000000
3550 1       7.2760904410       7.0000000000
3551 1       7.1711711316       8.0000000000
3552 1       7.4338205444       7.0000000000
3553 1       7.6042000510       7.0000000000
3554 1       7.1663643124       9.0000000000
3555 1       7.9136573243       8.0000000000
3556 1       7.3229154087       9.0000000000
3557 1       7.9318121587      10.0000000000
3558 1       7.3125888576       9.0000000000
3559 1       7.2463876994       9.0000000000
3560 1       7.3938259162      11.0000000000
3561 1       7.8905220501       9.0000000000
3562 1       7.4117854336       6.0000000000
3563 1       7.5429295708       9.0000000000
3564 1       7.2854193718      10.0000000000
3565 1       7.5507933208      12.0000000000
3566 1       7.4727529057       9.0000000000
3567 1       7.2117072763      10.0000000000
3568 1       7.0863328566       7.0000000000
3569 1       7.5337707418       8.0000000000
3570 1       7.5001490404       7.0000000000
3571 1       6.9347365139      11.0000000000
3572 1       7.1362572455       9.0000000000
3573 1       7.3295152464       8.0000000000
3574 1       6.7468852365       9.0000000000
3575 1       7.3320984186       9.0000000000
3576 1       7.0279719275       9.0000000000
3577 1       7.8191170262      12.0000000000
3578 1       7.2226329553       9.0000000000
3579 1       7.5470884643       8.0000000000
3580 1       7.7824242759       8.0000000000
3581 1       7.4729683012      13.0000000000
3582 1       8.1827334256       9.0000000000
3583 1       7.3765469085      10.0000000000
3584 1       7.1377481794       8.0000000000
3585 1       7.1553987034       8.0000000000
3586 1       7.0548193349       8.0000000000
3587 1       7.0668361415       9.0000000000
3588 1       6.8477731611       7.0000000000
3589 1       7.3876710064      10.0000000000
3590 1       7.2007297598      10.0000000000
3591 1       6.7557443295       9.0000000000
3592 1       7.2438855207      10.0000000000
3593 1       7.4259411663       9.0000000000
3594 1       7.5375391405      12.0000000000
3595 1       7.3831036161       6.0000000000
3596 1       6.8440491698       8.0000000000
3597 1       7.3041747676       9.0000000000
3598 1       7.7658813854       9.0000000000
3599 1       7.2112366133       9.0000000000
3600 1       7.1967798242       8.0000000000
3601 1       7.3299866531      10.0000000000
3602 1       8.4471115405      10.0000000000
3603 1       7.0661979708       6.0000000000
3604 1       7.3473400209       9.0000000000
3605 1       7.1124293234       7.0000000000
3606 1       7.5639449353       9.0000000000
3607 1       7.4933705511      10.0000000000
3608 1       7.6312751950       9.0000000000
3609 1       7.3967452765      10.0000000000
3610 1       7.5716333967       7.0000000000
3611 1       7.6348886824       7.0000000000
3612 1       7.4484116315      10.0000000000
3613 1       7.3588713459       8.0000000000
3614 1       6.9481955312       8.0000000000
3615 1       7.2790580191       8.0000000000
3616 1       7.3030186558      11.0000000000
3617 1       6.9366918606       8.0000000000
3618 1       6.8375202496      10.0000000000
3619 1       7.2806237147       7.0000000000
3620 1       7.2313805265      10.0000000000
3621 1       7.6214410117      11.0000000000
3622 1       7.3871959854       9.0000000000
3623 1       7.4234905528      11.0000000000
3624 1       7.4207667590       9.0000000000
3625 1       6.6160484922       8.0000000000
3626 1       6.9527751376       8.0000000000
3627 1       7.0701239638      11.0000000000
3628 1       7.4404714590       8.0000000000
3629 1       7.3141180859       8.0000000000
3630 1       6.7838847361       9.0000000000
3631 1       6.6348790448      11.0000000000
3632 1       7.5840446509       9.0000000000
3633 1       7.2606134915       9.0000000000
3634 1       6.9922553253      10.0000000000
3635 1       7.1090643008       7.0000000000
3636 1       6.9101150036       7.0000000000
3637 1       8.1218626067      10.0000000000
3638 1       7.6344539585       7.0000000000
3639 1       7.3366199258       9.0000000000
3640 1       7.4649271870       8.0000000000
3641 1       7.2347019739       7.0000000000
3642 1       7.6401142130       9.0000000000
3643 1       6.9760450864       9.0000000000
3644 1       7.2607078096       7.0000000000
3645 1       6.9985816431      10.0000000000
3646 1       7.1687149054       8.0000000000
3647 1       7.1178885766       8.0000000000
3648 1       7.1967699060       6.0000000000
3649 1       6.9953227892       8.0000000000
3650 1       7.3390544417       9.0000000000
3651 1       7.4795099451      11.0000000000
3652 1       7.2851326003      10.0000000000
3653 1       7.1840588421      10.0000000000
3654 1       7.5920829219      10.0000000000
3655 1       7.2039697543      10.0000000000
3656 1       7.4081455726      10.0000000000
3657 1       7.5768134306       7.0000000000
3658 1       7.3130895647       7.0000000000
3659 1       7.1051866068      10.0000000000
3660 1       7.1538293772       9.0000000000
3661 1       7.1783346698       9.0000000000
3662 1       7.6950919426      10.0000000000
3663 1       7.2480639387      11.0000000000
3664 1       7.7654517462      10.0000000000
3665 1       6.7007444616      10.0000000000
3666 1       6.5603274129       8.0000000000
3667 1       7.1638322538      11.0000000000
3668 1       7.2605553777       9.0000000000
3669 1       7.3241042957       9.0000000000
3670 1       7.2604328389       8.0000000000
3671 1       6.8660861497       8.0000000000
3672 1       7.2106686579      11.0000000000
3673 1       6.9564064242       9.0000000000
3674 1       7.7817362344       8.0000000000
3675 1       6.7231926298       8.0000000000
3676 1       7.2260446367       8.0000000000
3677 1       7.0283293108       9.0000000000
3678 1       6.8851926009      10.0000000000
3679 1       7.2401729243      11.0000000000
3680 1       7.3448541598       8.0000000000
3681 1       7.1407463106       8.0000000000
3682 1       7.5367720951      11.0000000000
3683 1       7.0806232316       8.0000000000
3684 1       7.4204865276      10.0000000000
3685 1       6.7941294540       8.0000000000
3686 1       7.0024876935       8.0000000000
3687 1       6.7112854872       9.0000000000
3688 1       7.2632199681       8.0000000000
3689 1       6.8801685978      10.0000000000
3690 1       7.5965734057       9.0000000000
3691 1       7.4572263397       8.0000000000
3692 1       7.7489374268       6.0000000000
3693 1       7.6184854585       7.0000000000
3694 1       7.3146841033       9.0000000000
3695 1       7.2913406966       9.0000000000
3696 1       7.3517931592       8.0000000000
3697 1       7.7544965381      11.0000000000
3698 1       7.0426051519       8.0000000000
3699 1       7.5310494377       7.0000000000
3700 1       7.5887799530       7.0000000000
3701 1       6.9516604497       8.0000000000
3702 1       7.6479100713       8.0000000000
3703 1       6.9503306303       9.0000000000
3704 1       7.4667667577      11.0000000000
3705 1       7.3982960833       8.0000000000
3706 1       7.1097004806       8.0000000000
3707 1       6.8427600857      10.0000000000
3708 1       7.3537374772       9.0000000000
3709 1       7.2829216406       8.0000000000
3710 1       7.4159869490       8.0000000000
3711 1       7.0657483355       8.0000000000
3712 1       7.2935841166       8.0000000000
3713 1       6.9331277444       7.0000000000
3714 1       8.0356907317       8.0000000000
3715 1       7.4820151768       9.0000000000
3716 1       7.1967416254       9.0000000000
3717 1       7.0199827973       7.0000000000
3718 1       7.2488007848      11.0000000000
3719 1       7.3545303810      11.0000000000
3720 1       7.2538525751       8.0000000000
3721 1       7.2259629889       8.0000000000
3722 1       7.3310351285       9.0000000000
3723 1       7.2775798131       8.0000000000
3724 1       7.6417505739      10.0000000000
3725 1       7.8225876617      11.0000000000
3726 1       7.1761031671      10.0000000000
3727 1       6.6413427449       7.0000000000
3728 1       7.0041969088       7.0000000000
3729 1       6.9742206983       9.0000000000
3730 1       7.4554745194      11.0000000000
3731 1       7.4403482759      10.0000000000
3732 1       7.2700512866       9.0000000000
3733 1       7.3749232924       9.0000000000
3734 1       7.0302749684       9.0000000000
3735 1       6.9765405452      11.0000000000
3736 1       7.2052955490      12.0000000000
3737 1       7.4137906635      10.0000000000
3738 1       8.1872964448       9.0000000000
3739 1       7.6338971035      10.0000000000
3740 1       7.8223547579      10.0000000000
3741 1       7.2769894768      10.0000000000
3742 1       7.3964731017       8.0000000000
3743 1       7.2639713882      10.0000000000
3744 1       6.8286349374       8.0000000000
3745 1       7.3643927303       7.0000000000
3746 1       7.3730866831       9.0000000000
3747 1       7.9724501910       9.0000000000
3748 1       7.6772070354       9.0000000000
3749 1       6.7227166870       8.0000000000
3750 1       6.9828043558       9.0000000000
3751 2      19.5538181728      14.0000000000
3752 2      13.9698293634      19.0000000000
3753 2      15.3849138333      16.0000000000
3754 2      16.5517917091      19.0000000000
3755 2      17.5937559263      18.0000000000
3756 2      13.1304457430      18.0000000000
3757 2      16.9438226790      20.0000000000
3758 2      13.6252614163      17.0000000000
3759 2      13.8378384980      15.0000000000
3760 2      15.6823007475      20.0000000000
3761 2      14.6968980390      16.0000000000
3762 2      12.8548952837      15.0000000000
3763 2      14.5145518084      15.0000000000
3764 2      13.8387997787      15.0000000000
3765 2      16.7702390931      20.0000000000
3766 2      13.9307314183      17.0000000000
3767 2      12.6568654526      16.0000000000
3768 2      18.6417068334      17.0000000000
3769 2      16.7295936261      20.0000000000
3770 2      16.7466259966      11.0000000000
3771 2      14.1156664240      17.0000000000
3772 2      13.8809556800      18.0000000000
3773 2      15.2470300299      13.0000000000
3774 2      15.7167038684      20.0000000000
3775 2      14.2677099108      15.0000000000
3776 2      15.4992309742      17.0000000000
3777 2      15.9486836622      21.0000000000
3778 2      13.2068907803      18.0000000000
3779 2      19.5187419500      18.0000000000
3780 2      18.4359908557      20.0000000000
3781 2      17.9297023900      15.0000000000
3782 2      15.6908538644      19.0000000000
3783 2      13.5188674446      15.0000000000
3784 2      17.5912272061      17.0000000000
3785 2      16.8039366865      18.0000000000
3786 2      17.6985227311      15.0000000000
3787 2      15.1746875761      22.0000000000
3788 2      15.8824999436      20.0000000000
3789 2      15.1739286937      19.0000000000
3790 2      15.7023882784      18.0000000000
3791 2      14.0450344419      16.0000000000
3792 2      15.2403833901      13.0000000000
3793 2      17.0149085171      16.0000000000
3794 2      11.9067197239      16.0000000000
3795 2      13.4316384959      17.0000000000
3796 2      15.0503635131      17.0000000000
3797 2      20.1996835819      14.0000000000
3798 2      15.5440174764      17.0000000000
3799 2      16.8442993241      19.0000000000
3800 2      16.8717464933      17.0000000000
3801 2      14.7796968383      15.0000000000
3802 2      18.9186710169      19.0000000000
3803 2      14.8298193942      17.0000000000
3804 2      12.7621046469      17.0000000000
3805 2      16.0868375925      15.0000000000
3806 2      18.8915879045      16.0000000000
3807 2      13.8656525135      18.0000000000
3808 2      15.8955475740      15.0000000000
3809 2      12.9153232803      18.0000000000
3810 2      21.0773469401      17.0000000000
3811 2      15.5361400947      18.0000000000
3812 2      16.4518163936      19.0000000000
3813 2      18.1650364557      16.0000000000
3814 2      22.2200714998      16.0000000000
3815 2      17.2081141480      20.0000000000
3816 2      16.6165981778      17.0000000000
3817 2      13.8419506556      17.0000000000
3818 2      15.4918319786      15.0000000000
3819 2      15.1534716355      16.0000000000
3820 2      15.3947461949      17.0000000000
3821 2      17.1936326825      23.0000000000
3822 2      15.0174352726      15.0000000000
3823 2      17.7194692126      18.0000000000
3824 2      18.2566180427      24.0000000000
3825 2      19.1330068329      18.0000000000
3826 2      17.5226565004      18.0000000000
3827 2      16.5499510882      18.0000000000
3828 2      15.7614933428      18.0000000000
3829 2      21.4528521195      22.0000000000
3830 2      18.9136429812      22.0000000000
3831 2      16.5800099161      17.0000000000
3832 2      16.4380500688      19.0000000000
3833 2      15.6742719595      19.0000000000
3834 2      15.1813570164      16.0000000000
3835 2      12.8951436887      15.0000000000
3836 2      16.9139118551      16.0000000000
3837 2      17.5650416041      19.0000000000
3838 2      15.2797646965      20.0000000000
3839 2      17.5868282387      19.0000000000
3840 2      16.4144410866      21.0000000000
3841 2      15.9360759329      17.0000000000
3842 2      17.4854776960      16.0000000000
3843 2      14.3478951532      17.0000000000
3844 2      14.3319393921      14.0000000000
3845 2      16.0181281832      17.0000000000
3846 2      17.5329703083      20.0000000000
3847 2      16.0100976825      17.0000000000
3848 2      17.7325546473      16.0000000000
3849 2      17.1750970075      15.0000000000
3850 2      15.9864769219      18.0000000000
3851 2      13.8078985398      20.0000000000
3852 2      13.4746478890      13.0000000000
3853 2      14.8053923309      15.0000000000
3854 2      14.6106932673      19.0000000000
3855 2      14.0284304862      18.0000000000
3856 2      13.3565897945      14.0000000000
3857 2      14.0915230150      16.0000000000
3858 2      19.3194109120      18.0000000000
3859 2      17.5531500700      13.0000000000
3860 2      19.1462653622      22.0000000000
3861 2      19.5741680941      22.0000000000
3862 2      18.2123844146      18.0000000000
3863 2      14.5995427651      16.0000000000
3864 2      14.8224079561      17.0000000000
3865 2      12.7578232205      16.0000000000
3866 2      15.9483624669      19.0000000000
3867 2      18.0488459361      18.0000000000
3868 2      15.3288263451      12.0000000000
3869 2      22.1835670426      21.0000000000
3870 2      18.8228474962      20.0000000000
3871 2      13.2880768618      17.0000000000
3872 2      14.0050484478      17.0000000000
3873 2      17.9083023672      16.0000000000
3874 2      16.9197698525      21.0000000000
3875 2      14.9455944383      20.0000000000
3876 2      14.2277295419      16.0000000000
3877 2      15.1170096887      18.0000000000
3878 2      17.0917535412      12.0000000000
3879 2      16.1602558455      17.0000000000
3880 2      14.1755532181      18.0000000000
3881 2      14.1673210308      16.0000000000
3882 2      16.0739709605      20.0000000000
3883 2      14.8569617518      17.0000000000
3884 2      15.6015786077      18.0000000000
3885 2      14.8396820480      17.0000000000
3886 2      17.8128977847      19.0000000000
3887 2      18.1141074203      19.0000000000
3888 2      14.4068924174      15.0000000000
3889 2      13.1223191321      17.0000000000
3890 2      16.9802848507      18.0000000000
3891 2      15.8618746528      18.0000000000
3892 2      14.5316039070      17.0000000000
3893 2      16.7113631318      22.0000000000
3894 2      16.4023307740      20.0000000000
3895 2      16.2481490125      22.0000000000
3896 2      15.8549195741      17.0000000000
3897 2      14.9093166139      17.0000000000
3898 2      14.8187047882      15.0000000000
3899 2      13.8051793187      17.0000000000
3900 2      14.6203339887      20.0000000000
3901 2      17.7970440806      16.0000000000
3902 2      13.9376392683      19.0000000000
3903 2      15.8533060781      19.0000000000
3904 2      13.9313171648      17.0000000000
3905 2      15.6845604366      19.0000000000
3906 2      15.2235312592      23.0000000000
3907 2      15.4533925887      17.0000000000
3908 2      14.6648964849      17.0000000000
3909 2      13.3296962578      17.0000000000
3910 2      15.7289931061      15.0000000000
3911 2      15.4452079383      17.0000000000
3912 2      13.5296184102      20.0000000000
3913 2      18.0252759017      16.0000000000
3914 2      13.9375600404      20.0000000000
3915 2      17.5401157141      21.0000000000
3916 2      16.5804812116      20.0000000000
3917 2      16.0651778410      15.0000000000
3918 2      13.6951644106      17.0000000000
3919 2      18.3662284993      13.0000000000
3920 2      16.4828120388      17.0000000000
3921 2      15.8781219812      17.0000000000
3922 2      16.6830516916      18.0000000000
3923 2      13.5479074690      15.0000000000
3924 2      16.9327151087      15.0000000000
3925 2      13.3324830591      16.0000000000
3926 2      16.2383056644      21.0000000000
3927 2      14.0238195185      17.0000000000
3928 2      17.7915189173      19.0000000000
3929 2      17.5063477861      20.0000000000
3930 2      15.9522111210      17.0000000000
3931 2      14.3070310486      16.0000000000
3932 2      13.1378099372      20.0000000000
3933 2      16.1247456303      18.0000000000
3934 2      16.4697834017      19.0000000000
3935 2      15.5309192896      16.0000000000
3936 2      18.1373803745      17.0000000000
3937 2      15.7736116885      18.0000000000
3938 2      16.3022310966      21.0000000000
3939 2      14.1269026081      15.0000000000
3940 2      18.7444521344      15.0000000000
3941 2      14.2327361762      18.0000000000
3942 2      12.7755559476      15.0000000000
3943 2      16.2090416667      16.0000000000
3944 2      17.7970310373      18.0000000000
3945 2      15.3954520153      15.0000000000
3946 2      17.0024511196      16.0000000000
3947 2      14.4507550539      17.0000000000
3948 2      16.4151667379      16.0000000000
3949 2      13.0139654638      15.0000000000
3950 2      17.1919659523      18.0000000000
3951 2      16.3543527083      16.0000000000
3952 2      15.6296345568      22.0000000000
3953 2      14.1845825468      16.0000000000
3954 2      15.9413316359      16.0000000000
3955 2      14.4211019062      14.0000000000
3956 2      14.6779331564      18.0000000000
3957 2      18.5315989225      18.0000000000
3958 2      14.5079210629      18.0000000000
3959 2      14.9428286874      15.0000000000
3960 2      16.7631023024      18.0000000000
3961 2      13.6548176815      14.0000000000
3962 2      15.8182967642      18.0000000000
3963 2      16.7040005170      17.0000000000
3964 2      16.6094814366      13.0000000000
3965 2      16.1772714910      20.0000000000
3966 2      14.6844052096      15.0000000000
3967 2      15.3670359012      17.0000000000
3968 2      14.5237971923      17.0000000000
3969 2      15.2797798569      19.0000000000
3970 2      17.4417894522      20.0000000000
3971 2      14.8149532508      16.0000000000
3972 2      12.8210193369      13.0000000000
3973 2      18.7695350782      19.0000000000
3974 2      14.4166284990      17.0000000000
3975 2      13.1289655627      15.0000000000
3976 2      18.1044992802      17.0000000000
3977 2      13.6128033945      19.0000000000
3978 2      14.3498014503      20.0000000000
3979 2      13.1176372054      16.0000000000
3980 2      17.2782542746      21.0000000000
3981 2      13.8946847791      17.0000000000
3982 2      15.1233651409      14.0000000000
3983 2      15.8295037282      17.0000000000
3984 2      14.7982554645      19.0000000000
3985 2      13.2312580208      16.0000000000
3986 2      14.7757365682      19.0000000000
3987 2      15.0079371720      17.0000000000
3988 2      14.8787903324      14.0000000000
3989 2      16.8628135649      17.0000000000
3990 2      14.1000319156      15.0000000000
3991 2      15.8685108113      22.0000000000
3992 2      14.6073742845      18.0000000000
3993 2      14.6796662743      20.0000000000
3994 2      14.8539238343      17.0000000000
3995 2      14.2725170560      18.0000000000
3996 2      14.1998832607      18.0000000000
3997 2      15.8072719985      18.0000000000
3998 2      16.9503465585      18.0000000000
3999 2      13.0369447796      17.0000000000
4000 2      12.6591021022      14.0000000000
4001 2      16.7555389814      21.0000000000
4002 2      15.0905211488      16.0000000000
4003 2      16.8505478948      15.0000000000
4004 2      15.4154959298      20.0000000000
4005 2      15.9942607963      17.0000000000
4006 2      15.1100396073      15.0000000000
4007 2      15.6468228559      15.0000000000
4008 2      12.4144913734      17.0000000000
4009 2      16.6640523708      18.0000000000
4010 2      16.2674324453      20.0000000000
4011 2      12.9879824883      15.0000000000
4012 2      17.2260894809      21.0000000000
4013 2      16.9390055479      19.0000000000
4014 2      17.3163200478      24.0000000000
4015 2      15.5886181648      20.0000000000
4016 2      13.8708535943      19.0000000000
4017 2      13.5699315253      13.0000000000
4018 2      18.2215888821      19.0000000000
4019 2      13.1522921493      16.0000000000
4020 2      15.7753016362      17.0000000000
4021 2      17.2477402063      17.0000000000
4022 2      14.4004472619      18.0000000000
4023 2      14.9239813746      17.0000000000
4024 2      17.1057346648      20.0000000000
4025 2      14.7321805929      21.0000000000
4026 2      20.8013349006      20.0000000000
4027 2      15.1416023800      16.0000000000
4028 2      15.8795817241      15.0000000000
4029 2      14.2648223448      14.0000000000
4030 2      17.7017511228      15.0000000000
4031 2      15.6166215044      17.0000000000
4032 2      18.9627320782      14.0000000000
4033 2      15.3069549221      16.0000000000
4034 2      14.7427567653      15.0000000000
4035 2      17.1665695336      22.0000000000
4036 2      13.8210698810      15.0000000000
4037 2      14.7988489768      19.0000000000
4038 2      13.3129497407      18.0000000000
4039 2      15.4572091597      20.0000000000
4040 2      17.1790836119      19.0000000000
4041 2      15.5845081268      15.0000000000
4042 2      15.7148078997      15.0000000000
4043 2      16.3410005508      15.0000000000
4044 2      17.2215326985      18.0000000000
4045 2      17.2282892234      19.0000000000
4046 2      15.9530961523      20.0000000000
4047 2      14.8683415954      20.0000000000
4048 2      15.2187122455      17.0000000000
4049 2      14.3782661240      15.0000000000
4050 2      13.5776791783      14.0000000000
4051 2      14.1950402726      18.0000000000
4052 2      14.9929235292      20.0000000000
4053 2      16.4367726357      16.0000000000
4054 2      15.6816667259      20.0000000000
4055 2      13.7908272851      15.0000000000
4056 2      13.3429047421      18.0000000000
4057 2      19.8292832217      14.0000000000
4058 2      15.6596417585      15.0000000000
4059 2      14.7618008128      18.0000000000
4060 2      14.5682826503      17.0000000000
4061 2      14.7449219848      20.0000000000
4062 2      14.1176539778      14.0000000000
4063 2      15.2956186505      19.0000000000
4064 2      15.4980960167      21.0000000000
4065 2      13.4783648292      15.0000000000
4066 2      13.8683607277      16.0000000000
4067 2      16.9561913023      23.0000000000
4068 2      15.6987569887      19.0000000000
4069 2      15.9395211185      19.0000000000
4070 2      15.5331573551      15.0000000000
4071 2      15.2162543224      15.0000000000
4072 2      17.1564142147      16.0000000000
4073 2      15.9211357416      17.0000000000
4074 2      15.1523127738      19.0000000000
4075 2      14.2559903581      13.0000000000
4076 2      15.3596290714      18.0000000000
4077 2      16.0091707362      20.0000000000
4078 2      14.2198556336      15.0000000000
4079 2      16.4191651941      19.0000000000
4080 2      14.3969731224      18.0000000000
4081 2      14.8121103803      19.0000000000
4082 2      15.5162691269      15.0000000000
4083 2      14.9827456159      21.0000000000
4084 2      16.7587458306      17.0000000000
4085 2      15.5571080992      18.0000000000
4086 2      16.0347079021      14.0000000000
4087 2      12.8653801059      15.0000000000
4088 2      16.1160186003      18.0000000000
4089 2      13.0770399222      16.0000000000
4090 2      14.0954706037      19.0000000000
4091 2      12.7098400540      18.0000000000
4092 2      19.2144098721      22.0000000000
4093 2      15.3847757350      18.0000000000
4094 2      13.8282202801      16.0000000000
4095 2      15.3863221944      19.0000000000
4096 2      16.6847475360      21.0000000000
4097 2      14.6784904135      15.0000000000
4098 2      13.2988501094      14.0000000000
4099 2      18.4659733401      21.0000000000
4100 2      13.2905133373      16.0000000000
4101 2      14.3306851144      17.0000000000
4102 2      14.7423015774      20.0000000000
4103 2      13.7784936564      17.0000000000
4104 2      16.5077668018      23.0000000000
4105 2      14.8454961366      14.0000000000
4106 2      13.2212690896      19.0000000000
4107 2      20.0512502954      19.0000000000
4108 2      14.8075308113      16.0000000000
4109 2      16.7825656520      21.0000000000
4110 2      15.8845748786      17.0000000000
4111 2      15.0445742281      20.0000000000
4112 2      14.4849219752      19.0000000000
4113 2      14.4408946324      16.0000000000
4114 2      13.6124026596      17.0000000000
4115 2      17.5546814904      14.0000000000
4116 2      17.6746347454      18.0000000000
4117 2      14.5023676364      20.0000000000
4118 2      17.5807311175      16.0000000000
4119 2      16.8518612743      18.0000000000
4120 2      15.6257043835      14.0000000000
4121 2      14.4813142247      16.0000000000
4122 2      15.7883316669      15.0000000000
4123 2      17.2590838233      20.0000000000
4124 2      15.1751945688      20.0000000000
4125 2      16.1338563728      18.0000000000
4126 2      15.0490228572      16.0000000000
4127 2      15.5200946304      18.0000000000
4128 2      17.1361003188      16.0000000000
4129 2      14.4546011640      19.0000000000
4130 2      16.5361723584      17.0000000000
4131 2      13.2633895064      16.0000000000
4132 2      17.2928162934      20.0000000000
4133 2      13.2483696561      16.0000000000
4134 2      15.1714561888      21.0000000000
4135 2      15.4092944292      20.0000000000
4136 2      17.2669509477      18.0000000000
4137 2      19.2124578311      19.0000000000
4138 2      17.1709606669      17.0000000000
4139 2      17.0738474991      19.0000000000
4140 2      16.5775907078      17.0000000000
4141 2      14.7885626170      18.0000000000
4142 2      15.7150438725      17.0000000000
4143 2      12.9506303675      17.0000000000
4144 2      14.2298777157      17.0000000000
4145 2      17.7638373133      15.0000000000
4146 2      15.9988838721      18.0000000000
4147 2      15.5154050135      16.0000000000
4148 2      14.5304191114      18.0000000000
4149 2      18.4277899090      19.0000000000
4150 2      14.8279138051      19.0000000000
4151 2      14.5329123442      14.0000000000
4152 2      12.6504940642      17.0000000000
4153 2      16.1141139093      20.0000000000
4154 2      13.1406465568      19.0000000000
4155 2      17.4772617353      16.0000000000
4156 2      11.9400882270      16.0000000000
4157 2      16.3107924500      19.0000000000
4158 2      14.5197633251      16.0000000000
4159 2      15.4037737669      19.0000000000
4160 2      16.5656607266      19.0000000000
4161 2      15.4109599463      20.0000000000
4162 2      14.7847109007      17.0000000000
4163 2      18.0096755389      19.0000000000
4164 2      15.1371368986      17.0000000000
4165 2      17.5032805944      17.0000000000
4166 2      13.5482076913      17.0000000000
4167 2      15.8818444920      18.0000000000
4168 2      17.9627958265      17.0000000000
4169 2      15.0207204731      21.0000000000
4170 2      15.4430626169      16.0000000000
4171 2      15.0120691571      20.0000000000
4172 2      13.8010528322      17.0000000000
4173 2      16.3439619895      17.0000000000
4174 2      16.7164072018      19.0000000000
4175 2      17.7529116937      19.0000000000
4176 2      15.5337679190      21.0000000000
4177 2      14.5907652056      16.0000000000
4178 2      17.6801008431      16.0000000000
4179 2      15.9950163244      17.0000000000
4180 2      17.2347922215      18.0000000000
4181 2      17.4323063768      21.0000000000
4182 2      16.9260191111      15.0000000000
4183 2      16.5183942947      20.0000000000
4184 2      16.0979474739      14.0000000000
4185 2      13.5161185901      17.0000000000
4186 2      16.4482343503      17.0000000000
4187 2      14.9621685850      19.0000000000
4188 2      14.2380067136      17.0000000000
4189 2      15.5469627419      16.0000000000
4190 2      16.4859648427      19.0000000000
4191 2      16.3871697486      17.0000000000
4192 2      14.4394808530      18.0000000000
4193 2      16.3411116375      15.0000000000
4194 2      14.6986771001      14.0000000000
4195 2      15.0479380838      19.0000000000
4196 2      18.4578579818      18.0000000000
4197 2      15.8951385662      19.0000000000
4198 2      15.1944862908      17.0000000000
4199 2      16.3533193036      15.0000000000
4200 2      13.1874230916      17.0000000000
4201 2      13.0577569594      16.0000000000
4202 2      17.8173209805      17.0000000000
4203 2      16.3038382401      19.0000000000
4204 2      13.7107317154      16.0000000000
4205 2      16.6889714268      13.0000000000
4206 2      13.3673236770      13.0000000000
4207 2      13.0784270524      17.0000000000
4208 2      15.3647509074      17.0000000000
4209 2      12.9668853450      13.0000000000
4210 2      15.0610163882      16.0000000000
4211 2      13.9517504923      15.0000000000
4212 2      20.1436126592      13.0000000000
4213 2      14.4183536731      17.0000000000
4214 2      13.6281988668      15.0000000000
4215 2      16.2053905107      16.0000000000
4216 2      16.4612520562      21.0000000000
4217 2      15.8577558299      18.0000000000
4218 2      12.8844738804      17.0000000000
4219 2      17.0141026574      18.0000000000
4220 2      12.1290039281      17.0000000000
4221 2      15.9833436794      20.0000000000
4222 2      15.0050775184      14.0000000000
4223 2      20.3385683009      21.0000000000
4224 2      14.8204860731      18.0000000000
4225 2      17.3574611519      19.0000000000
4226 2      14.8675918522      16.0000000000
4227 2      14.6617418278      16.0000000000
4228 2      15.5905312738      15.0000000000
4229 2      17.8926169846      24.0000000000
4230 2      13.5766042854      16.0000000000
4231 2      18.2755370079      18.0000000000
4232 2      18.0549665125      21.0000000000
4233 2      15.3942684464      20.0000000000
4234 2      13.9787873751      19.0000000000
4235 2      13.3706045842      15.0000000000
4236 2      16.7891259619      20.0000000000
4237 2      16.0385406333      18.0000000000
4238 2      18.0719896293      21.0000000000
4239 2      15.6192465161      18.0000000000
4240 2      15.3404388442      23.0000000000
4241 2      16.2737454605      18.0000000000
4242 2      16.1226995127      19.0000000000
4243 2      12.3608778789      16.0000000000
4244 2      19.6385106214      17.0000000000
4245 2      15.4001375879      19.0000000000
4246 2      14.7570682960      12.0000000000
4247 2      15.2291319106      13.0000000000
4248 2      14.7767151629      16.0000000000
4249 2      16.2955658115      18.0000000000
4250 2      15.5775296566      22.0000000000
4251 2      16.8121605127      18.0000000000
4252 2      15.2795752259      15.0000000000
4253 2      17.5858319110      17.0000000000
4254 2      17.0885331682      18.0000000000
4255 2      15.0351614257      16.0000000000
4256 2      15.4384060367      15.0000000000
4257 2      13.7080872423      15.0000000000
4258 2      15.5289659362      20.0000000000
4259 2      15.5333828123      17.0000000000
4260 2      17.8049493637      18.0000000000
4261 2      14.6856932601      15.0000000000
4262 2      17.8247036345      21.0000000000
4263 2      14.6581970321      17.0000000000
4264 2      12.5919976340      15.0000000000
4265 2      16.4824013681      20.0000000000
4266 2      14.4931120116      20.0000000000
4267 2      14.8818406883      18.0000000000
4268 2      13.5156240422      17.0000000000
4269 2      16.3105914709      19.0000000000
4270 2      16.6349430819      20.0000000000
4271 2      14.6067579980      18.0000000000
4272 2      14.8628021365      16.0000000000
4273 2      15.5816996636      16.0000000000
4274 2      17.7614856651      20.0000000000
4275 2      13.9653075460      16.0000000000
4276 2      15.4546616449      16.0000000000
4277 2      13.5712243614      17.0000000000
4278 2      15.0530692418      16.0000000000
4279 2      12.7714262965      16.0000000000
4280 2      13.0297024804      15.0000000000
4281 2      14.0297909047      17.0000000000
4282 2      19.4391819798      19.0000000000
4283 2      16.6504943352      20.0000000000
4284 2      14.2885912157      19.0000000000
4285 2      14.3242012717      19.0000000000
4286 2      16.5592857938      16.0000000000
4287 2      14.4845319799      16.0000000000
4288 2      13.8617071871      16.0000000000
4289 2      15.3192892265      14.0000000000
4290 2      13.1974145758      16.0000000000
4291 2      14.8641659821      15.0000000000
4292 2      16.4711993515      21.0000000000
4293 2      13.6868071438      21.0000000000
4294 2      16.0708451847      15.0000000000
4295 2      18.6741575099      19.0000000000
4296 2      16.3007843219      16.0000000000
4297 2      19.4512565265      18.0000000000
4298 2      14.7210232449      16.0000000000
4299 2      16.2926673283      16.0000000000
4300 2      14.8120384777      15.0000000000
4301 2      16.7020946032      14.0000000000
4302 2      13.3303109213      14.0000000000
4303 2      15.4693434871      19.0000000000
4304 2      12.8734480986      18.0000000000
4305 2      15.8254886259      19.0000000000
4306 2      22.9508475278      16.0000000000
4307 2      16.6297577484      21.0000000000
4308 2      15.1859365812      15.0000000000
4309 2      16.3764937395      21.0000000000
4310 2      13.4172061132      14.0000000000
4311 2      20.0055296666      22.0000000000
4312 2      16.6344329053      19.0000000000
4313 2      16.1289955465      15.0000000000
4314 2      15.5380152717      19.0000000000
4315 2      16.1921750918      16.0000000000
4316 2      18.7175214204      15.0000000000
4317 2      12.9504834356      14.0000000000
4318 2      16.4048460522      16.0000000000
4319 2      15.1770534150      18.0000000000
4320 2      15.9079498730      20.0000000000
4321 2      17.1072274114      21.0000000000
4322 2      14.9501209364      19.0000000000
4323 2      15.3196905013      19.0000000000
4324 2      14.7145456214      17.0000000000
4325 2      17.4869214347      22.0000000000
4326 2      17.3290949296      20.0000000000
4327 2      18.0966842509      16.0000000000
4328 2      14.9875538271      17.0000000000
4329 2      14.0400247226      16.0000000000
4330 2      19.1863658342      15.0000000000
4331 2      17.2957087095      20.0000000000
4332 2      14.1221729528      16.0000000000
4333 2      14.0433040746      13.0000000000
4334 2      13.3642694516      18.0000000000
4335 2      14.5490929087      16.0000000000
4336 2      19.0290357595      17.0000000000
4337 2      16.0867995935      19.0000000000
4338 2      18.9409762309      19.0000000000
4339 2      23.7024803638      18.0000000000
4340 2      15.9520997135      17.0000000000
4341 2      15.9588744942      18.0000000000
4342 2      17.5158984805      17.0000000000
4343 2      15.8656843844      16.0000000000
4344 2      15.3959709098      22.0000000000
4345 2      17.2769881663      23.0000000000
4346 2      19.6416207007      17.0000000000
4347 2      13.2729102585      14.0000000000
4348 2      16.5627411469      16.0000000000
4349 2      15.5601077903      16.0000000000
4350 2      14.1267343133      17.0000000000
4351 2      14.7309727044      20.0000000000
4352 2      16.2029222025      19.0000000000
4353 2      16.1460756839      23.0000000000
4354 2      16.0981717479      17.0000000000
4355 2      18.8058715087      23.0000000000
4356 2      14.6713177080      21.0000000000
4357 2      17.2635412438      17.0000000000
4358 2      18.7923910328      19.0000000000
4359 2      15.2265155852      19.0000000000
4360 2      15.9352668967      22.0000000000
4361 2      16.0201925133      19.0000000000
4362 2      16.3455311186      17.0000000000
4363 2      15.1517293470      19.0000000000
4364 2      17.5605572890      14.0000000000
4365 2      14.4564849934      15.0000000000
4366 2      14.9157830012      15.0000000000
4367 2      13.9410321615      16.0000000000
4368 2      13.5420941180      15.0000000000
4369 2      14.4176167552      15.0000000000
4370 2      15.9886407169      20.0000000000
4371 2      14.9647701702      18.0000000000
4372 2      16.9774565156      14.0000000000
4373 2      17.7823208218      22.0000000000
4374 2      13.4558261239      16.0000000000
4375 2      13.6609096170      17.0000000000
4376 2      14.2845012674      17.0000000000
4377 2      14.5091794235      20.0000000000
4378 2      13.7748318015      15.0000000000
4379 2      17.1925279609      19.0000000000
4380 2      13.5702429938      18.0000000000
4381 2      20.5719161627      18.0000000000
4382 2      14.2703628414      14.0000000000
4383 2      15.7163690203      17.0000000000
4384 2      16.5860614002      16.0000000000
4385 2      16.2313262324      17.0000000000
4386 2      14.4599577524      18.0000000000
4387 2      13.5869982899      13.0000000000
4388 2      14.7319111425      15.0000000000
4389 2      19.1740115075      22.0000000000
4390 2      15.7182060399      18.0000000000
4391 2      18.1722560855      14.0000000000
4392 2      17.1068987260      17.0000000000
4393 2      14.6669689852      16.0000000000
4394 2      17.7129370350      20.0000000000
4395 2      15.1929584848      19.0000000000
4396 2      15.0448236062      14.0000000000
4397 2      16.7884949403      19.0000000000
4398 2      14.1614159225      15.0000000000
4399 2      16.8719501613      19.0000000000
4400 2      14.8287429435      17.0000000000
4401 2      14.6143067358      18.0000000000
4402 2      15.1991924068      18.0000000000
4403 2      13.1418120372      18.0000000000
4404 2      16.2434044449      19.0000000000
4405 2      15.8418585712      18.0000000000
4406 2      12.5057914722      16.0000000000
4407 2      15.4732593257      21.0000000000
4408 2      15.2844101091      16.0000000000
4409 2      15.4209173239      17.0000000000
4410 2      17.5405975090      21.0000000000
4411 2      16.5407629756      19.0000000000
4412 2      17.2343423767      21.0000000000
4413 2      13.4667087952      14.0000000000
4414 2      13.3105591929      14.0000000000
4415 2      22.4523594709      18.0000000000
4416 2      15.5917228102      14.0000000000
4417 2      16.0159856074      19.0000000000
4418 2      15.0567464727      19.0000000000
4419 2      14.2947071811      20.0000000000
4420 2      17.7737103124      18.0000000000
4421 2      14.2070149691      17.0000000000
4422 2      15.9457388675      16.0000000000
4423 2      19.3520111208      20.0000000000
4424 2      15.0799319189      17.0000000000
4425 2      16.6158148031      21.0000000000
4426 2      17.1560500456      15.0000000000
4427 2      14.5215646742      14.0000000000
4428 2      15.0898088666      17.0000000000
4429 2      22.2358077856      19.0000000000
4430 2      17.1012380803      21.0000000000
4431 2      21.0491749711      17.0000000000
4432 2      20.2561677633      21.0000000000
4433 2      12.2619372222      16.0000000000
4434 2      14.3805289545      14.0000000000
4435 2      15.2440759306      17.0000000000
4436 2      15.6952188591      16.0000000000
4437 2      14.3284447248      16.0000000000
4438 2      18.3332141883      19.0000000000
4439 2      16.3461573982      17.0000000000
4440 2      14.7400985888      17.0000000000
4441 2      14.0975235088      16.0000000000
4442 2      18.4119416774      19.0000000000
4443 2      16.3076775319      18.0000000000
4444 2      15.2081535389      15.0000000000
4445 2      17.3791536833      19.0000000000
4446 2      19.4334092359      14.0000000000
4447 2      26.2014705044      16.0000000000
4448 2      16.0566023350      16.0000000000
4449 2      19.5034030079      19.0000000000
4450 2      14.5195320461      16.0000000000
4451 2      17.0555520909      17.0000000000
4452 2      13.9852159804      21.0000000000
4453 2      12.8106708714      17.0000000000
4454 2      13.6583004268      17.0000000000
4455 2      17.5524655654      18.0000000000
4456 2      17.7964852613      14.0000000000
4457 2      16.0612635735      18.0000000000
4458 2      14.9978680177      19.0000000000
4459 2      17.0881933528      14.0000000000
4460 2      16.6707229842      18.0000000000
4461 2      16.7926589533      19.0000000000
4462 2      12.8011189037      17.0000000000
4463 2      14.3998218460      15.0000000000
4464 2      14.3271338107      20.0000000000
4465 2      17.3933189893      17.0000000000
4466 2      15.8952287456      18.0000000000
4467 2      14.1680872785      17.0000000000
4468 2      15.5392865795      17.0000000000
4469 2      16.7309526373      22.0000000000
4470 2      14.8983954448      19.0000000000
4471 2      14.0765742512      14.0000000000
4472 2      16.9925401278      14.0000000000
4473 2      14.8442333913      18.0000000000
4474 2      17.0809326935      16.0000000000
4475 2      15.6209779970      16.0000000000
4476 2      22.7420857521      17.0000000000
4477 2      18.8849174122      17.0000000000
4478 2      14.1030716023      17.0000000000
4479 2      15.0329478437      19.0000000000
4480 2      19.5279791879      20.0000000000
4481 2      16.6719984494      16.0000000000
4482 2      16.8332311992      18.0000000000
4483 2      17.0195540094      13.0000000000
4484 2      17.7522889514      17.0000000000
4485 2      16.8688731736      18.0000000000
4486 2      14.4147781650      14.0000000000
4487 2      17.1424710308      15.0000000000
4488 2      14.0495769449      16.0000000000
4489 2      15.2946073113      16.0000000000
4490 2      12.7918381030      15.0000000000
4491 2      17.1174192644      19.0000000000
4492 2      11.8729368925      17.0000000000
4493 2      14.6495132342      18.0000000000
4494 2      15.7679096167      17.0000000000
4495 2      13.5107640470      18.0000000000
4496 2      11.8145648519      16.0000000000
4497 2      12.6209156901      14.0000000000
4498 2      17.3007513563      21.0000000000
4499 2      15.2993065164      18.0000000000
4500 2      16.2212470333      17.0000000000
4501 2      18.3093511516      15.0000000000
4502 2      12.7866524340      15.0000000000
4503 2      15.4077903074      18.0000000000
4504 2      14.3843977526      14.0000000000
4505 2      16.1618261240      19.0000000000
4506 2      17.2438522976      21.0000000000
4507 2      14.9720926963      17.0000000000
4508 2      21.6977039329      20.0000000000
4509 2      18.5563147649      19.0000000000
4510 2      18.4373234473      16.0000000000
4511 2      13.7486695105      16.0000000000
4512 2      15.7000617855      16.0000000000
4513 2      17.7958264277      20.0000000000
4514 2      17.7097426903      23.0000000000
4515 2      16.2028105094      21.0000000000
4516 2      16.7541149039      19.0000000000
4517 2      14.1286833932      15.0000000000
4518 2      18.2711457643      22.0000000000
4519 2      13.0171917233      18.0000000000
4520 2      14.4170525155      20.0000000000
4521 2      16.3222363989      20.0000000000
4522 2      16.1121698355      18.0000000000
4523 2      13.8520743204      18.0000000000
4524 2      13.5739346910      18.0000000000
4525 2      15.7154975548      18.0000000000
4526 2      15.1857917008      21.0000000000
4527 2      14.6375603251      17.0000000000
4528 2      17.4183545826      20.0000000000
4529 2      14.0312517271      15.0000000000
4530 2      14.8213078276      16.0000000000
4531 2      16.8267462556      17.0000000000
4532 2      15.7221439993      19.0000000000
4533 2      19.7708684068      16.0000000000
4534 2      14.2279330431      17.0000000000
4535 2      15.4001732510      17.0000000000
4536 2      16.5729345190      20.0000000000
4537 2      16.3463152537      16.0000000000
4538 2      14.6635666270      16.0000000000
4539 2      15.3120469337      21.0000000000
4540 2      21.4664258128      19.0000000000
4541 2      16.0763264266      16.0000000000
4542 2      14.1223934987      18.0000000000
4543 2      15.6232671560      19.0000000000
4544 2      14.7325942251      19.0000000000
4545 2      15.9749333331      13.0000000000
4546 2      18.6130067298      17.0000000000
4547 2      14.6753570820      18.0000000000
4548 2      17.4478486149      22.0000000000
4549 2      16.4742923749      18.0000000000
4550 2      13.1315366329      17.0000000000
4551 2      18.8844115595      16.0000000000
4552 2      15.1449581335      15.0000000000
4553 2      14.6900305732      14.0000000000
4554 2      14.5909027755      16.0000000000
4555 2      19.2587869810      15.0000000000
4556 2      12.3109208264      14.0000000000
4557 2      14.3324435713      14.0000000000
4558 2      15.1190039791      16.0000000000
4559 2      15.5594908341      18.0000000000
4560 2      13.6977178086      17.0000000000
4561 2      16.1657766474      19.0000000000
4562 2      17.3006385785      20.0000000000
4563 2      16.9997516709      15.0000000000
4564 2      18.5230500379      19.0000000000
4565 2      15.7557196867      19.0000000000
4566 2      14.7658175611      18.0000000000
4567 2      15.7444386604      19.0000000000
4568 2      17.3137797584      16.0000000000
4569 2      20.0666314620      18.0000000000
4570 2      17.4630341495      23.0000000000
4571 2      15.1180665038      20.0000000000
4572 2      16.0711825331      19.0000000000
4573 2      15.3971473944      16.0000000000
4574 2      16.4202522156      17.0000000000
4575 2      11.3741796613      15.0000000000
4576 2      12.5041803989      13.0000000000
4577 2      14.7578912777      17.0000000000
4578 2      17.4209957540      16.0000000000
4579 2      18.9739546027      18.0000000000
4580 2      15.7761545444      20.0000000000
4581 2      17.0790963556      19.0000000000
4582 2      16.5721171700      16.0000000000
4583 2      15.0019325056      18.0000000000
4584 2      13.9922397953      16.0000000000
4585 2      16.6698359076      21.0000000000
4586 2      13.2574351495      17.0000000000
4587 2      15.5526468183      22.0000000000
4588 2      16.0783617398      18.0000000000
4589 2      14.6358541801      17.0000000000
4590 2      17.6322122396      19.0000000000
4591 2      15.4575364529      20.0000000000
4592 2      16.1943118692      17.0000000000
4593 2      16.4175925271      18.0000000000
4594 2      16.8286131040      22.0000000000
4595 2      16.5150680499      19.0000000000
4596 2      15.7476923026      17.0000000000
4597 2      13.9703706265      17.0000000000
4598 2      14.6464368463      17.0000000000
4599 2      12.9992798884      16.0000000000
4600 2      15.0209577652      14.0000000000
4601 2      21.0034827871      17.0000000000
4602 2      14.7693333953      18.0000000000
4603 2      15.4397726954      18.0000000000
4604 2      13.6337354645      15.0000000000
4605 2      14.9756787900      17.0000000000
4606 2      18.2469195087      22.0000000000
4607 2      12.9202533146      15.0000000000
4608 2      16.9246356200      17.0000000000
4609 2      14.0378699046      17.0000000000
4610 2      16.0308215402      16.0000000000
4611 2      13.2721619669      21.0000000000
4612 2      15.9166710026      18.0000000000
4613 2      15.7283159531      16.0000000000
4614 2      13.8602409644      17.0000000000
4615 2      16.7991356318      17.0000000000
4616 2      15.6652955345      17.0000000000
4617 2      14.6665229676      18.0000000000
4618 2      16.1878080748      19.0000000000
4619 2      12.7714774319      17.0000000000
4620 2      17.8640183878      14.0000000000
4621 2      13.1472664734      16.0000000000
4622 2      18.3025095274      15.0000000000
4623 2      14.4728797138      17.0000000000
4624 2      17.1543761990      19.0000000000
4625 2      23.9341969013      22.0000000000
4626 2      20.6703983415      20.0000000000
4627 2      16.8831843129      19.0000000000
4628 2      14.5845811159      19.0000000000
4629 2      18.4057501708      19.0000000000
4630 2      15.5130238589      18.0000000000
4631 2      16.2940456022      20.0000000000
4632 2      15.7626432165      17.0000000000
4633 2      15.4574234272      15.0000000000
4634 2      15.1254013292      20.0000000000
4635 2      19.0526095525      17.0000000000
4636 2      18.7575382033      17.0000000000
4637 2      15.0134932495      14.0000000000
4638 2      16.4543039427      16.0000000000
4639 2      15.8548032428      19.0000000000
4640 2      16.5205345010      16.0000000000
4641 2      13.1546816629      17.0000000000
4642 2      19.2443450266      14.0000000000
4643 2      13.8283894213      16.0000000000
4644 2      14.0976384274      15.0000000000
4645 2      15.1846170823      22.0000000000
4646 2      14.2533087898      18.0000000000
4647 2      22.2903594958      20.0000000000
4648 2      15.0306024000      19.0000000000
4649 2      22.7000114376      21.0000000000
4650 2      18.0421574223      18.0000000000
4651 2      16.1078994011      17.0000000000
4652 2      15.5128516668      17.0000000000
4653 2      19.8587423643      19.0000000000
4654 2      15.3898336714      21.0000000000
4655 2      16.2976420290      16.0000000000
4656 2      15.0520529147      20.0000000000
4657 2      15.9663336946      19.0000000000
4658 2      18.6029156479      14.0000000000
4659 2      16.6199653625      15.0000000000
4660 2      15.4861806536      18.0000000000
4661 2      13.6418008097      13.0000000000
4662 2      15.6048956435      17.0000000000
4663 2      14.7440338268      16.0000000000
4664 2      15.0535898506      15.0000000000
4665 2      14.4080057956      14.0000000000
4666 2      15.0133843885      20.0000000000
4667 2      19.2957880248      23.0000000000
4668 2      14.0518892258      14.0000000000
4669 2      18.4679795209      16.0000000000
4670 2      14.6759489671      17.0000000000
4671 2      14.6096389478      16.0000000000
4672 2      16.3061492915      15.0000000000
4673 2      15.3751605119      17.0000000000
4674 2      19.3375767850      16.0000000000
4675 2      13.4774860733      15.0000000000
4676 2      16.6558929928      16.0000000000
4677 2      15.8774075574      20.0000000000
4678 2      16.2864666566      20.0000000000
4679 2      17.4503826698      21.0000000000
4680 2      15.5869049516      18.0000000000
4681 2      20.3472698858      20.0000000000
4682 2      15.0528738644      16.0000000000
4683 2      16.6589008652      20.0000000000
4684 2      17.8958257398      14.0000000000
4685 2      14.1387384303      17.0000000000
4686 2      15.4246134849      21.0000000000
4687 2      14.3311904678      17.0000000000
4688 2      16.9345690367      18.0000000000
4689 2      17.1072245826      18.0000000000
4690 2      14.0327739715      15.0000000000
4691 2      14.1046297432      16.0000000000
4692 2      14.8010125840      16.0000000000
4693 2      13.9189991032      14.0000000000
4694 2      16.4705486416      18.0000000000
4695 2      15.2583837134      18.0000000000
4696 2      14.8170494457      17.0000000000
4697 2      15.6617663021      16.0000000000
4698 2      13.8220953420      16.0000000000
4699 2      14.4034517952      16.0000000000
4700 2      14.9526458005      17.0000000000
4701 2      19.4796228402      19.0000000000
4702 2      14.3552462321      19.0000000000
4703 2      14.2889290433      21.0000000000
4704 2      15.2749771789      17.0000000000
4705 2      15.6706430543      17.0000000000
4706 2      14.3210064625      19.0000000000
4707 2      18.0932189605      15.0000000000
4708 2      13.7964411075      17.0000000000
4709 2      14.4788601983      16.0000000000
4710 2      16.3663184220      18.0000000000
4711 2      15.8498583373      19.0000000000
4712 2      15.2381710393      16.0000000000
4713 2      15.4387070241      20.0000000000
4714 2      17.0673870049      16.0000000000
4715 2      14.0041424857      16.0000000000
4716 2      15.4581683834      14.0000000000
4717 2      12.3618898315      14.0000000000
4718 2      17.4026590256      18.0000000000
4719 2      12.6562517994      16.0000000000
4720 2      14.7302333299      16.0000000000
4721 2      23.6071632609      20.0000000000
4722 2      15.4578946503      17.0000000000
4723 2      17.6151981721      22.0000000000
4724 2      15.9248561369      19.0000000000
4725 2      15.3202363354      17.0000000000
4726 2      16.1879734032      17.0000000000
4727 2      16.1915458165      18.0000000000
4728 2      16.6902347159      23.0000000000
4729 2      16.9077611129      19.0000000000
4730 2      18.6241850206      16.0000000000
4731 2      16.4555169563      16.0000000000
4732 2      17.1852312704      18.0000000000
4733 2      16.1026149632      19.0000000000
4734 2      15.1799800002      15.0000000000
4735 2      19.6381581513      20.0000000000
4736 2      14.1960526361      17.0000000000
4737 2      15.8808474503      18.0000000000
4738 2      13.3974717968      20.0000000000
4739 2      17.1367627870      19.0000000000
4740 2      18.4466873276      16.0000000000
4741 2      13.2794160533      16.0000000000
4742 2      15.3188115755      19.0000000000
4743 2      12.6929862850      18.0000000000
4744 2      17.2677094501      19.0000000000
4745 2      14.2788938762      17.0000000000
4746 2      19.5041453448      21.0000000000
4747 2      10.5268274050      13.0000000000
4748 2      17.0750776794      22.0000000000
4749 2      14.7107495473      18.0000000000
4750 2      20.0276310512      27.0000000000
4751 2      16.5700710233      17.0000000000
4752 2      17.3827990613      15.0000000000
4753 2      16.5057341156      18.0000000000
4754 2      13.8895226989      17.0000000000
4755 2      17.6431273706      19.0000000000
4756 2      23.6033088542      18.0000000000
4757 2      16.7874078648      20.0000000000
4758 2      19.2478585638      20.0000000000
4759 2      19.8185928092      20.0000000000
4760 2      17.3173441646      19.0000000000
4761 2      14.4799302033      17.0000000000
4762 2      17.0511213146      18.0000000000
4763 2      15.9706744235      15.0000000000
4764 2      16.9092547212      20.0000000000
4765 2      14.7345813571      18.0000000000
4766 2      17.3523060325      16.0000000000
4767 2      19.3612456421      20.0000000000
4768 2      13.2847081558      18.0000000000
4769 2      15.3186921359      17.0000000000
4770 2      16.5806136704      18.0000000000
4771 2      15.9188881222      16.0000000000
4772 2      14.6136276875      19.0000000000
4773 2      15.3991448606      15.0000000000
4774 2      15.5278733695      19.0000000000
4775 2      18.1357868204      21.0000000000
4776 2      15.0861969057      17.0000000000
4777 2      15.7607992842      20.0000000000
4778 2      16.2065410316      18.0000000000
4779 2      14.0507718459      18.0000000000
4780 2      16.3756150050      19.0000000000
4781 2      14.1159756601      17.0000000000
4782 2      16.6727334149      19.0000000000
4783 2      15.3768384718      17.0000000000
4784 2      12.2535698203      14.0000000000
4785 2      19.7477862979      16.0000000000
4786 2      14.3268844643      18.0000000000
4787 2      15.2690576520      20.0000000000
4788 2      17.1367275343      16.0000000000
4789 2      13.5427316029      16.0000000000
4790 2      12.9894113921      17.0000000000
4791 2      14.0870994286      18.0000000000
4792 2      12.0059125072      13.0000000000
4793 2      17.8307986771      18.0000000000
4794 2      15.3012956692      18.0000000000
4795 2      15.2422445355      18.0000000000
4796 2      12.9319539780      14.0000000000
4797 2      18.8682329931      22.0000000000
4798 2      15.4771915066      16.0000000000
4799 2      15.3166971011      16.0000000000
4800 2      12.8950606416      17.0000000000
4801 2      13.2002849496      18.0000000000
4802 2      21.4035471761      21.0000000000
4803 2      14.6762893061      22.0000000000
4804 2      15.1218561726      17.0000000000
4805 2      18.3079762498      21.0000000000
4806 2      19.0355041933      13.0000000000
4807 2      16.7769776645      15.0000000000
4808 2      14.8962611688      17.0000000000
4809 2      16.5576120464      21.0000000000
4810 2      15.7644076598      17.0000000000
4811 2      18.2656288784      18.0000000000
4812 2      14.6153536889      21.0000000000
4813 2      13.5227502929      19.0000000000
4814 2      18.1339730294      15.0000000000
4815 2      15.3481771435      15.0000000000
4816 2      14.1253649225      16.0000000000
4817 2      13.3252200946      18.0000000000
4818 2      13.8871303013      16.0000000000
4819 2      14.7241121051      16.0000000000
4820 2      16.8189830075      19.0000000000
4821 2      14.2050337484      17.0000000000
4822 2      15.5819773727      18.0000000000
4823 2      11.5606556028      15.0000000000
4824 2      14.8590458447      16.0000000000
4825 2      13.8463861722      14.0000000000
4826 2      14.7986499239      16.0000000000
4827 2      16.6529477675      19.0000000000
4828 2      20.7111137562      21.0000000000
4829 2      18.1112760557      19.0000000000
4830 2      18.9084106258      18.0000000000
4831 2      15.6101812572      17.0000000000
4832 2      15.9854841792      18.0000000000
4833 2      16.4983888101      15.0000000000
4834 2      16.7071222929      17.0000000000
4835 2      14.8947002224      17.0000000000
4836 2      13.6164339312      15.0000000000
4837 2      15.7547718971      16.0000000000
4838 2      16.9227337249      17.0000000000
4839 2      16.0871918359      21.0000000000
4840 2      16.4624808009      21.0000000000
4841 2      16.2926149500      20.0000000000
4842 2      12.6039800689      17.0000000000
4843 2      14.0085598177      19.0000000000
4844 2      15.1316843254      15.0000000000
4845 2      19.0212513938      19.0000000000
4846 2      14.3157261834      14.0000000000
4847 2      16.8319668460      17.0000000000
4848 2      14.8063186032      16.0000000000
4849 2      14.0034623576      15.0000000000
4850 2      16.6597607750      15.0000000000
4851 2      14.2599661232      18.0000000000
4852 2      16.0584513433      16.0000000000
4853 2      16.5161616055      20.0000000000
4854 2      15.0025125626      17.0000000000
4855 2      15.9918420309      18.0000000000
4856 2      14.1841780533      15.0000000000
4857 2      15.6865298246      19.0000000000
4858 2      14.7665579586      20.0000000000
4859 2      14.6725989140      12.0000000000
4860 2      15.8308637426      15.0000000000
4861 2      14.7037368674      17.0000000000
4862 2      16.4731920466      15.0000000000
4863 2      15.0402721655      20.0000000000
4864 2      17.1670416785      19.0000000000
4865 2      14.1359252131      17.0000000000
4866 2      17.0266870018      14.0000000000
4867 2      17.3770308900      17.0000000000
4868 2      16.1607655939      20.0000000000
4869 2      16.5020862865      18.0000000000
4870 2      14.8352995019      18.0000000000
4871 2      12.5932220381      14.0000000000
4872 2      14.6427689081      20.0000000000
4873 2      16.9508586085      14.0000000000
4874 2      14.9263375362      13.0000000000
4875 2      14.4940809655      17.0000000000
4876 2      14.2219769826      17.0000000000
4877 2      15.2239793159      19.0000000000
4878 2      17.2485452917      20.0000000000
4879 2      15.1134481283      19.0000000000
4880 2      14.3517080511      19.0000000000
4881 2      16.5658648508      20.0000000000
4882 2      19.2295456914      22.0000000000
4883 2      14.5223598682      15.0000000000
4884 2      15.4905291066      17.0000000000
4885 2      14.4542423751      19.0000000000
4886 2      13.8703895933      16.0000000000
4887 2      18.0314891371      19.0000000000
4888 2      15.4991567237      20.0000000000
4889 2      14.7280126147      18.0000000000
4890 2      15.2021174948      18.0000000000
4891 2      15.8042545580      15.0000000000
4892 2      13.4217324427      15.0000000000
4893 2      15.4138918017      14.0000000000
4894 2      13.6864325518      15.0000000000
4895 2      16.2152660311      16.0000000000
4896 2      13.9577800208      19.0000000000
4897 2      15.6931748125      16.0000000000
4898 2      21.1575657011      23.0000000000
4899 2      18.1748999133      22.0000000000
4900 2      16.8648641920      18.0000000000
4901 2      12.9195548823      16.0000000000
4902 2      16.2409029605      17.0000000000
4903 2      13.7385839006      20.0000000000
4904 2      17.5648555085      18.0000000000
4905 2      15.2952121163      21.0000000000
4906 2      15.3736173029      19.0000000000
4907 2      18.6994837811      14.0000000000
4908 2      15.2269943964      13.0000000000
4909 2      15.0757882604      13.0000000000
4910 2      12.5505759169      17.0000000000
4911 2      17.8779178549      20.0000000000
4912 2      15.2127794070      17.0000000000
4913 2      16.8168979301      18.0000000000
4914 2      15.7247265250      18.0000000000
4915 2      15.2770903007      17.0000000000
4916 2      15.6435799321      16.0000000000
4917 2      16.1245794339      18.0000000000
4918 2      16.8563192414      15.0000000000
4919 2      12.8089523806      18.0000000000
4920 2      15.9185248512      16.0000000000
4921 2      18.3317843696      14.0000000000
4922 2      15.1764246492      15.0000000000
4923 2      16.1452487067      18.0000000000
4924 2      16.6630028743      16.0000000000
4925 2      14.8651252854      21.0000000000
4926 2      16.6683150677      15.0000000000
4927 2      15.9992208663      17.0000000000
4928 2      15.6031470017      20.0000000000
4929 2      20.1555282032      21.0000000000
4930 2      14.3557307718      15.0000000000
4931 2      16.3391143637      17.0000000000
4932 2      18.1488131896      14.0000000000
4933 2      17.1368631123      19.0000000000
4934 2      13.5368179181      17.0000000000
4935 2      16.2530500233      19.0000000000
4936 2      16.6364374257      16.0000000000
4937 2      16.6034027249      20.0000000000
4938 2      14.0414705380      19.0000000000
4939 2      15.5340351046      17.0000000000
4940 2      16.5359407855      21.0000000000
4941 2      15.4664415574      20.0000000000
4942 2      13.8819559768      15.0000000000
4943 2      13.5496490923      16.0000000000
4944 2      16.3241178917      13.0000000000
4945 2      14.4473792352      16.0000000000
4946 2      18.6858156239      20.0000000000
4947 2      14.9643277928      14.0000000000
4948 2      13.8825839316      17.0000000000
4949 2      19.1960683257      16.0000000000
4950 2      16.7532866494      16.0000000000
4951 2      14.6474559502      18.0000000000
4952 2      13.6551116614      15.0000000000
4953 2      16.7905309680      17.0000000000
4954 2      12.3445621448      19.0000000000
4955 2      17.6994182698      14.0000000000
4956 2      14.9434788518      12.0000000000
4957 2      17.3855802795      20.0000000000
4958 2      13.9255116602      14.0000000000
4959 2      15.5249299462      16.0000000000
4960 2      17.9121832594      19.0000000000
4961 2      20.3646977911      18.0000000000
4962 2      13.5523167843      13.0000000000
4963 2      15.0730941657      15.0000000000
4964 2      18.9033199055      19.0000000000
4965 2      14.0402248628      16.0000000000
4966 2      13.5653673361      20.0000000000
4967 2      14.0386969876      18.0000000000
4968 2      14.6050802167      19.0000000000
4969 2      15.6547260323      17.0000000000
4970 2      17.1146197269      15.0000000000
4971 2      14.0376832792      19.0000000000
4972 2      20.7826637846      21.0000000000
4973 2      17.8740827525      19.0000000000
4974 2      16.8891276113      17.0000000000
4975 2      17.1834988703      18.0000000000
4976 2      18.1983790404      18.0000000000
4977 2      13.6137982873      19.0000000000
4978 2      14.5174507005      19.0000000000
4979 2      13.9776067721      19.0000000000
4980 2      14.0262046587      17.0000000000
4981 2      16.1927718025      19.0000000000
4982 2      16.9755825150      17.0000000000
4983 2      23.4237139077      17.0000000000
4984 2      13.2263047793      17.0000000000
4985 2      14.7464409364      17.0000000000
4986 2      13.2877991611      15.0000000000
4987 2      21.8183792107      18.0000000000
4988 2      18.4374727240      19.0000000000
4989 2      16.9459481853      20.0000000000
4990 2      15.7302587452      15.0000000000
4991 2      17.5498103793      17.0000000000
4992 2      16.1348313276      17.0000000000
4993 2      16.6752368693      19.0000000000
4994 2      17.5117788488      22.0000000000
4995 2      15.4490431840      22.0000000000
4996 2      16.3533402339      17.0000000000
4997 2      14.7449194464      16.0000000000
4998 2      14.7334147105      16.0000000000
4999 2      15.9582743949      22.0000000000
5000 2      16.0141076544      20.0000000000
5001 2      14.5930793651      17.0000000000
5002 2      14.5897336381      15.0000000000
5003 2      15.8526194089      16.0000000000
5004 2      12.4962769676      14.0000000000
5005 2      13.8955212575      17.0000000000
5006 2      17.2380646863      15.0000000000
5007 2      17.9464164908      24.0000000000
5008 2      15.1167349846      20.0000000000
5009 2      15.9372075141      22.0000000000
5010 2      18.9794712083      15.0000000000
5011 2      18.5915517527      23.0000000000
5012 2      14.9825435809      16.0000000000
5013 2      16.4454410878      20.0000000000
5014 2      17.0586772499      17.0000000000
5015 2      17.1003644410      19.0000000000
5016 2      18.8391640462      19.0000000000
5017 2      15.3189260484      19.0000000000
5018 2      20.2103877190      23.0000000000
5019 2      22.1638757226      17.0000000000
5020 2      16.6916244461      16.0000000000
5021 2      15.2351210702      18.0000000000
5022 2      16.0395357838      19.0000000000
5023 2      15.0283318309      18.0000000000
5024 2      16.6128914612      21.0000000000
5025 2      16.4564796562      16.0000000000
5026 2      16.9968864880      23.0000000000
5027 2      15.5534861630      20.0000000000
5028 2      16.8639007552      17.0000000000
5029 2      16.9338920731      19.0000000000
5030 2      15.2692511343      18.0000000000
5031 2      13.5706040828      14.0000000000
5032 2      14.1944626954      17.0000000000
5033 2      12.4632484653      17.0000000000
5034 2      14.8057451027      18.0000000000
5035 2      14.7535916967      20.0000000000
5036 2      13.7251597357      16.0000000000
5037 2      15.3855827140      14.0000000000
5038 2      15.4695061393      16.0000000000
5039 2      18.6187478416      21.0000000000
5040 2      13.3969340319      15.0000000000
5041 2      18.3894798928      23.0000000000
5042 2      19.7201491595      17.0000000000
5043 2      16.3737524542      19.0000000000
5044 2      15.3504466072      15.0000000000
5045 2      15.9200969468      16.0000000000
5046 2      20.0076032185      19.0000000000
5047 2      15.2068007274      16.0000000000
5048 2      18.6034802785      18.0000000000
5049 2      15.4412674789      15.0000000000
5050 2      15.4341850964      14.0000000000
5051 2      15.9864501465      20.0000000000
5052 2      20.6921286618      18.0000000000
5053 2      15.8887006898      15.0000000000
5054 2      15.5237008465      19.0000000000
5055 2      14.3505317191      15.0000000000
5056 2      16.0713146865      17.0000000000
5057 2      14.4679439263      16.0000000000
5058 2      14.7657650549      18.0000000000
5059 2      14.8565876270      17.0000000000
5060 2      17.0876593101      17.0000000000
5061 2      14.0987932017      14.0000000000
5062 2      14.8576870725      16.0000000000
5063 2      15.5410146556      20.0000000000
5064 2      14.2054021605      19.0000000000
5065 2      19.1875784449      18.0000000000
5066 2      16.2685432680      19.0000000000
5067 2      17.9125297738      17.0000000000
5068 2      17.3760524468      21.0000000000
5069 2      14.5790776130      17.0000000000
5070 2      20.3788397866      19.0000000000
5071 2      16.3567023018      20.0000000000
5072 2      13.9714829054      18.0000000000
5073 2      13.5153320694      16.0000000000
5074 2      17.8108313604      17.0000000000
5075 2      16.1081718941      14.0000000000
5076 2      15.8722489155      16.0000000000
5077 2      15.8120823749      18.0000000000
5078 2      15.7692244493      17.0000000000
5079 2      14.5597441725      19.0000000000
5080 2      18.0899481567      23.0000000000
5081 2      18.0345824692      21.0000000000
5082 2      17.1066230988      23.0000000000
5083 2      14.4915180310      17.0000000000
5084 2      17.0518147294      19.0000000000
5085 2      23.5235249223      22.0000000000
5086 2      16.6046040810      18.0000000000
5087 2      16.9436979510      18.0000000000
5088 2      17.8002057524      18.0000000000
5089 2      14.1621060333      16.0000000000
5090 2      15.8338856337      18.0000000000
5091 2      14.5872484922      20.0000000000
5092 2      15.5759659046      20.0000000000
5093 2      15.0143951493      16.0000000000
5094 2      14.3556733252      18.0000000000
5095 2      15.5711849306      16.0000000000
5096 2      14.6054982069      14.0000000000
5097 2      15.8550045767      16.0000000000
5098 2      16.0152459165      20.0000000000
5099 2      16.2790109804      21.0000000000
5100 2      14.3670499659      18.0000000000
5101 2      15.8306436338      18.0000000000
5102 2      15.0906330823      19.0000000000
5103 2      13.7487200670      17.0000000000
5104 2      15.4079417812      18.0000000000
5105 2      16.1425868146      21.0000000000
5106 2      16.1673465344      16.0000000000
5107 2      15.7326720182      22.0000000000
5108 2      16.7147291706      20.0000000000
5109 2      15.5361858330      16.0000000000
5110 2      16.2918082963      17.0000000000
5111 2      17.4728136619      20.0000000000
5112 2      15.9818234805      20.0000000000
5113 2      14.4343889378      16.0000000000
5114 2      15.1694531412      17.0000000000
5115 2      15.1556282067      22.0000000000
5116 2      12.5172748346      20.0000000000
5117 2      16.7361330524      18.0000000000
5118 2      13.9155405538      15.0000000000
5119 2      15.5239643385      13.0000000000
5120 2      17.4404526284      17.0000000000
5121 2      15.3452146433      16.0000000000
5122 2      15.1050955764      18.0000000000
5123 2      15.1571985893      17.0000000000
5124 2      14.5956838188      17.0000000000
5125 2      16.4596287890      20.0000000000
5126 2      20.2096652170      20.0000000000
5127 2      19.5725843092      22.0000000000
5128 2      13.5922624900      15.0000000000
5129 2      14.6568320056      16.0000000000
5130 2      14.6951715410      19.0000000000
5131 2      15.2040427681      18.0000000000
5132 2      15.6251206024      13.0000000000
5133 2      15.6208299771      19.0000000000
5134 2      15.6127435948      17.0000000000
5135 2      18.0530610488      20.0000000000
5136 2      14.6868001691      20.0000000000
5137 2      18.1913495600      19.0000000000
5138 2      13.1024540044      17.0000000000
5139 2      13.7731322167      15.0000000000
5140 2      16.1974889439      18.0000000000
5141 2      17.3982334931      19.0000000000
5142 2      18.4484751212      15.0000000000
5143 2      16.5754663404      18.0000000000
5144 2      17.4599549366      15.0000000000
5145 2      15.3019068976      21.0000000000
5146 2      17.1238885079      19.0000000000
5147 2      15.6311666282      16.0000000000
5148 2      14.3197287341      17.0000000000
5149 2      13.9224602642      17.0000000000
5150 2      16.4699119003      16.0000000000
5151 2      16.1400735819      18.0000000000
5152 2      16.5982985398      19.0000000000
5153 2      15.1669131716      19.0000000000
5154 2      17.3049399673      16.0000000000
5155 2      19.4267763568      17.0000000000
5156 2      15.3210755054      17.0000000000
5157 2      16.8035606987      17.0000000000
5158 2      14.3658520427      15.0000000000
5159 2      14.7885203386      17.0000000000
5160 2      16.9861125097      19.0000000000
5161 2      24.6390562966      17.0000000000
5162 2      14.0315197697      14.0000000000
5163 2      12.3923164147      16.0000000000
5164 2      16.8779568196      22.0000000000
5165 2      17.8166721901      17.0000000000
5166 2      14.9890813226      20.0000000000
5167 2      15.7639635964      16.0000000000
5168 2      17.0263903740      19.0000000000
5169 2      22.3411398737      17.0000000000
5170 2      15.2121844024      16.0000000000
5171 2      17.0799751476      18.0000000000
5172 2      15.3971419380      15.0000000000
5173 2      14.8956676225      18.0000000000
5174 2      19.0534571739      15.0000000000
5175 2      16.8073588251      15.0000000000
5176 2      18.5574513708      20.0000000000
5177 2      16.6729217881      16.0000000000
5178 2      15.1707131159      20.0000000000
5179 2      17.1845279173      21.0000000000
5180 2      17.2472974683      16.0000000000
5181 2      15.4041437165      16.0000000000
5182 2      12.9372980158      15.0000000000
5183 2      16.2141952346      21.0000000000
5184 2      16.0158577423      15.0000000000
5185 2      14.5479768404      14.0000000000
5186 2      17.2339283317      19.0000000000
5187 2      15.7993795410      20.0000000000
5188 2      16.1640208389      18.0000000000
5189 2      17.2267833672      20.0000000000
5190 2      16.2335720319      20.0000000000
5191 2      13.1887493676      16.0000000000
5192 2      17.4235081830      18.0000000000
5193 2      16.8941252571      16.0000000000
5194 2      18.5487185313      20.0000000000
5195 2      15.2721450425      18.0000000000
5196 2      14.8652917358      14.0000000000
5197 2      14.7657086322      20.0000000000
5198 2      17.1604731724      19.0000000000
5199 2      13.8949245720      14.0000000000
5200 2      14.1783196340      18.0000000000
5201 2      15.2554636449      14.0000000000
5202 2      14.6466330268      15.0000000000
5203 2      14.3048190976      18.0000000000
5204 2      15.7239569831      15.0000000000
5205 2      16.5981483085      16.0000000000
5206 2      13.5040721598      17.0000000000
5207 2      15.8320954698      16.0000000000
5208 2      16.2400385684      20.0000000000
5209 2      17.8359745789      22.0000000000
5210 2      15.8290546118      23.0000000000
5211 2      18.7623237708      18.0000000000
5212 2      20.6948878027      21.0000000000
5213 2      12.8976088291      16.0000000000
5214 2      17.5590211617      20.0000000000
5215 2      22.9714593027      19.0000000000
5216 2      14.7304866994      15.0000000000
5217 2      17.8351273327      19.0000000000
5218 2      19.5406686361      21.0000000000
5219 2      17.4211267991      19.0000000000
5220 2      14.8057623876      16.0000000000
5221 2      13.5179645777      15.0000000000
5222 2      19.2501604639      19.0000000000
5223 2      18.5786318416      20.0000000000
5224 2      14.3775993789      19.0000000000
5225 2      15.7627957555      18.0000000000
5226 2      14.7310497212      16.0000000000
5227 2      15.5202738214      18.0000000000
5228 2      12.5602150053      15.0000000000
5229 2      17.4309001429      18.0000000000
5230 2      18.4289164176      19.0000000000
5231 2      14.8325863623      19.0000000000
5232 2      14.5625199697      18.0000000000
5233 2      17.2465308901      18.0000000000
5234 2      13.9719257244      16.0000000000
5235 2      18.7191509665      21.0000000000
5236 2      20.8308165951      20.0000000000
5237 2      15.6461766882      19.0000000000
5238 2      15.2177204384      19.0000000000
5239 2      13.9084075543      18.0000000000
5240 2      14.9232703003      14.0000000000
5241 2      14.6748952183      16.0000000000
5242 2      17.8481016804      19.0000000000
5243 2      16.5057858492      18.0000000000
5244 2      14.1938491365      15.0000000000
5245 2      14.6956765994      16.0000000000
5246 2      13.0786500392      17.0000000000
5247 2      15.2792221328      15.0000000000
5248 2      16.2653220050      17.0000000000
5249 2      14.3863458001      18.0000000000
5250 2      17.4553274395      16.0000000000
5251 2      17.0258049582      18.0000000000
5252 2      14.2740360689      20.0000000000
5253 2      15.9620270223      14.0000000000
5254 2      18.3072138099      21.0000000000
5255 2      13.8157341701      17.0000000000
5256 2      15.9712652699      17.0000000000
5257 2      15.0556857587      19.0000000000
5258 2      14.5697034711      18.0000000000
5259 2      14.8214135228      19.0000000000
5260 2      15.0250284219      17.0000000000
5261 2      14.3504301581      20.0000000000
5262 2      13.8564943774      19.0000000000
5263 2      16.6812611084      18.0000000000
5264 2      16.6678370621      17.0000000000
5265 2      16.0857508242      21.0000000000
5266 2      13.6509694627      17.0000000000
5267 2      16.5538237450      20.0000000000
5268 2      15.2427665698      14.0000000000
5269 2      14.8007554561      18.0000000000
5270 2      18.6927344355      19.0000000000
5271 2      15.1055125413      14.0000000000
5272 2      17.1424733111      21.0000000000
5273 2      14.8035196100      14.0000000000
5274 2      17.0074492295      18.0000000000
5275 2      14.3409321572      15.0000000000
5276 2      18.2165097493      20.0000000000
5277 2      14.4905958475      14.0000000000
5278 2      18.0038889331      20.0000000000
5279 2      12.3600486282      14.0000000000
5280 2      16.6694131607      13.0000000000
5281 2      17.7940991627      22.0000000000
5282 2      17.6990470297      18.0000000000
5283 2      17.5425073078      20.0000000000
5284 2      13.7810284896      17.0000000000
5285 2      13.5870449762      19.0000000000
5286 2      13.1731163679      13.0000000000
5287 2      13.3714225589      17.0000000000
5288 2      12.5423006712      12.0000000000
5289 2      17.6856070157      19.0000000000
5290 2      23.5668487468      19.0000000000
5291 2      17.8945137920      20.0000000000
5292 2      14.1898059873      14.0000000000
5293 2      13.9691837594      15.0000000000
5294 2      15.7905068467      21.0000000000
5295 2      14.7382749191      19.0000000000
5296 2      15.2367370793      17.0000000000
5297 2      16.8957011998      16.0000000000
5298 2      14.5263858365      17.0000000000
5299 2      17.1561682326      19.0000000000
5300 2      13.9387721757      15.0000000000
5301 2      14.6700439679      22.0000000000
5302 2      13.8588214055      14.0000000000
5303 2      14.9051582567      17.0000000000
5304 2      17.0202580142      21.0000000000
5305 2      13.9612011461      13.0000000000
5306 2      13.3729489116      16.0000000000
5307 2      14.4764693751      20.0000000000
5308 2      15.8659537013      15.0000000000
5309 2      14.2817293959      21.0000000000
5310 2      21.5318900099      18.0000000000
5311 2      20.4439506979      23.0000000000
5312 2      16.7727013121      17.0000000000
5313 2      16.8373091011      19.0000000000
5314 2      12.3156731931      15.0000000000
5315 2      19.7568736108      19.0000000000
5316 2      16.1057888622      17.0000000000
5317 2      14.6431667867      14.0000000000
5318 2      14.2040439811      16.0000000000
5319 2      15.1472282540      20.0000000000
5320 2      14.2778930617      13.0000000000
5321 2      15.7165389802      20.0000000000
5322 2      17.4197505148      19.0000000000
5323 2      15.5333584051      14.0000000000
5324 2      13.9998965014      14.0000000000
5325 2      14.6273806497      16.0000000000
5326 2      14.2209646154      14.0000000000
5327 2      15.0768210993      19.0000000000
5328 2      18.0024690716      24.0000000000
5329 2      14.8818440177      13.0000000000
5330 2      13.9963944358      18.0000000000
5331 2      14.2775995711      18.0000000000
5332 2      14.6349385074      19.0000000000
5333 2      16.3865094912      17.0000000000
5334 2      18.1104103840      24.0000000000
5335 2      15.5305089296      19.0000000000
5336 2      14.0452469274      18.0000000000
5337 2      15.8877175881      16.0000000000
5338 2      15.3966816400      21.0000000000
5339 2      15.8241965462      17.0000000000
5340 2      16.2580258605      20.0000000000
5341 2      18.3690438097      20.0000000000
5342 2      14.9669351736      20.0000000000
5343 2      14.8924763693      17.0000000000
5344 2      13.6978958274      14.0000000000
5345 2      16.0030666141      19.0000000000
5346 2      14.3614970563      17.0000000000
5347 2      18.5253407991      22.0000000000
5348 2      21.3787015537      20.0000000000
5349 2      15.1630398184      22.0000000000
5350 2      14.7714376062      16.0000000000
5351 2      17.4904273494      17.0000000000
5352 2      18.7693986730      20.0000000000
5353 2      20.2059489189      19.0000000000
5354 2      17.8789644039      17.0000000000
5355 2      17.0369103235      20.0000000000
5356 2      16.3976563348      17.0000000000
5357 2      16.9761622489      14.0000000000
5358 2      14.8208951260      20.0000000000
5359 2      13.8585415885      17.0000000000
5360 2      15.2626739489      19.0000000000
5361 2      17.5604500148      22.0000000000
5362 2      15.2528605179      16.0000000000
5363 2      17.3172394986      20.0000000000
5364 2      14.2582912763      13.0000000000
5365 2      14.7107564107      21.0000000000
5366 2      17.4891655295      16.0000000000
5367 2      15.6463886097      19.0000000000
5368 2      15.9650873373      19.0000000000
5369 2      20.9568261832      21.0000000000
5370 2      17.7049020367      23.0000000000
5371 2      16.6124918706      14.0000000000
5372 2      17.5912046323      15.0000000000
5373 2      18.0219353954      19.0000000000
5374 2      14.5893680029      16.0000000000
5375 2      15.0796758490      17.0000000000
5376 2      13.6366143843      14.0000000000
5377 2      15.7264818553      18.0000000000
5378 2      13.7806165642      17.0000000000
5379 2      16.8979574366      16.0000000000
5380 2      16.9474191680      20.0000000000
5381 2      14.6312586337      21.0000000000
5382 2      14.7302446104      15.0000000000
5383 2      14.0699818671      17.0000000000
5384 2      15.8758827157      16.0000000000
5385 2      15.0882717449      17.0000000000
5386 2      15.2801084542      17.0000000000
5387 2      13.5692411103      14.0000000000
5388 2      13.8661728511      16.0000000000
5389 2      14.2049432981      15.0000000000
5390 2      15.2648335618      19.0000000000
5391 2      13.8688059658      17.0000000000
5392 2      17.0988076365      16.0000000000
5393 2      23.7415176628      21.0000000000
5394 2      19.5249810661      24.0000000000
5395 2      13.2208435396      16.0000000000
5396 2      16.0491739034      17.0000000000
5397 2      15.8615498813      20.0000000000
5398 2      13.1531705183      17.0000000000
5399 2      14.9749789017      22.0000000000
5400 2      15.2663905748      16.0000000000
5401 2      15.0667927600      17.0000000000
5402 2      14.8953198335      17.0000000000
5403 2      13.9776661117      16.0000000000
5404 2      12.9105460221      14.0000000000
5405 2      13.6673015621      17.0000000000
5406 2      15.8337547938      17.0000000000
5407 2      13.4757658632      16.0000000000
5408 2      20.7178488949      22.0000000000
5409 2      18.5600483399      24.0000000000
5410 2      14.0725312862      14.0000000000
5411 2      18.1617127765      18.0000000000
5412 2      20.2302435728      17.0000000000
5413 2      18.5136363516      20.0000000000
5414 2      13.8298808172      16.0000000000
5415 2      17.8194659576      22.0000000000
5416 2      18.7042157422      17.0000000000
5417 2      13.1451775635      15.0000000000
5418 2      16.6630040089      15.0000000000
5419 2      17.7952150997      16.0000000000
5420 2      15.6615130900      16.0000000000
5421 2      16.5574922701      21.0000000000
5422 2      14.2947909004      17.0000000000
5423 2      15.8976078960      15.0000000000
5424 2      13.6510019850      16.0000000000
5425 2      15.4391687536      18.0000000000
5426 2      13.7188890586      17.0000000000
5427 2      15.8318830775      18.0000000000
5428 2      16.6360176947      15.0000000000
5429 2      15.2936576432      18.0000000000
5430 2      17.4190627034      15.0000000000
5431 2      12.4180517672      18.0000000000
5432 2      15.3259411855      15.0000000000
5433 2      16.2700606303      17.0000000000
5434 2      15.8307201769      19.0000000000
5435 2      14.9315434832      21.0000000000
5436 2      15.5638492492      13.0000000000
5437 2      12.1523959083      16.0000000000
5438 2      16.7518676790      20.0000000000
5439 2      14.6340909109      16.0000000000
5440 2      16.5659547369      23.0000000000
5441 2      13.3501985166      17.0000000000
5442 2      14.8274804617      21.0000000000
5443 2      15.9111219338      20.0000000000
5444 2      14.2366780835      17.0000000000
5445 2      15.1652598685      17.0000000000
5446 2      18.1198001483      18.0000000000
5447 2      14.0274837684      16.0000000000
5448 2      15.9611310940      20.0000000000
5449 2      16.5407942856      23.0000000000
5450 2      16.5559686960      21.0000000000
5451 2      15.1765956020      17.0000000000
5452 2      15.7079217553      21.0000000000
5453 2      13.3841655264      16.0000000000
5454 2      13.1964715445      14.0000000000
5455 2      13.5649788921      19.0000000000
5456 2      14.6083864890      21.0000000000
5457 2      16.8708147906      23.0000000000
5458 2      16.2592986436      18.0000000000
5459 2      16.7784180207      18.0000000000
5460 2      16.1036273850      18.0000000000
5461 2      14.5861952029      18.0000000000
5462 2      15.0421667666      16.0000000000
5463 2      18.8709425793      26.0000000000
5464 2      17.5991712676      17.0000000000
5465 2      16.2075066761      16.0000000000
5466 2      16.1479510147      20.0000000000
5467 2      15.1564253773      15.0000000000
5468 2      14.7041138022      16.0000000000
5469 2      13.6784412897      20.0000000000
5470 2      14.7742595601      16.0000000000
5471 2      14.3040831395      14.0000000000
5472 2      16.1407124281      17.0000000000
5473 2      14.1426102253      18.0000000000
5474 2      16.3121846061      15.0000000000
5475 2      15.9080462581      18.0000000000
5476 2      15.9578301871      14.0000000000
5477 2      17.9007311382      19.0000000000
5478 2      15.8948610652      19.0000000000
5479 2      15.4266591155      14.0000000000
5480 2      16.3711376239      20.0000000000
5481 2      17.6279381305      16.0000000000
5482 2      19.6922240066      20.0000000000
5483 2      17.2222541308      17.0000000000
5484 2      16.3926080363      19.0000000000
5485 2      14.8967489475      20.0000000000
5486 2      15.2165746618      15.0000000000
5487 2      14.9635526518      17.0000000000
5488 2      14.9764735500      16.0000000000
5489 2      14.5631584320      18.0000000000
5490 2      13.3398953070      16.0000000000
5491 2      17.1646981627      17.0000000000
5492 2      15.2194676311      20.0000000000
5493 2      14.0069314333      19.0000000000
5494 2      14.6194785192      16.0000000000
5495 2      14.9769877326      16.0000000000
5496 2      14.0820755229      16.0000000000
5497 2      14.2798796299      19.0000000000
5498 2      18.0856739864      15.0000000000
5499 2      15.1469964204      19.0000000000
5500 2      15.3925751568      17.0000000000
5501 2      14.8636936566      19.0000000000
5502 2      17.3855146919      17.0000000000
5503 2      17.7949432572      18.0000000000
5504 2      15.2784758618      19.0000000000
5505 2      16.7770045704      19.0000000000
5506 2      18.6214126509      16.0000000000
5507 2      15.9744953025      22.0000000000
5508 2      13.5650672612      16.0000000000
5509 2      19.1485998321      20.0000000000
5510 2      15.6219546023      14.0000000000
5511 2      15.6227997449      19.0000000000
5512 2      14.4365627960      17.0000000000
5513 2      14.0516622061      18.0000000000
5514 2      14.4915539401      15.0000000000
5515 2      15.4500349136      17.0000000000
5516 2      14.4080716755      17.0000000000
5517 2      16.9697876144      18.0000000000
5518 2      16.1912597119      18.0000000000
5519 2      17.6274203677      19.0000000000
5520 2      15.4450269795      19.0000000000
5521 2      17.3905165420      20.0000000000
5522 2      18.4530891901      18.0000000000
5523 2      17.0042122124      20.0000000000
5524 2      15.1090972133      19.0000000000
5525 2      12.6407931399      14.0000000000
5526 2      13.1222052226      13.0000000000
5527 2      16.2704859183      19.0000000000
5528 2      16.9134387405      17.0000000000
5529 2      13.6562451251      19.0000000000
5530 2      14.2518169940      17.0000000000
5531 2      17.5586288475      21.0000000000
5532 2      14.0027048630      13.0000000000
5533 2      16.8570415759      17.0000000000
5534 2      13.1754179800      15.0000000000
5535 2      11.4477856369      14.0000000000
5536 2      16.4531852086      23.0000000000
5537 2      14.4337717231      18.0000000000
5538 2      17.1988143424      18.0000000000
5539 2      15.1757988023      18.0000000000
5540 2      16.6791966898      17.0000000000
5541 2      18.5570593898      18.0000000000
5542 2      14.7511438039      18.0000000000
5543 2      15.9908640845      16.0000000000
5544 2      15.1133650302      19.0000000000
5545 2      15.9689891817      19.0000000000
5546 2      16.2545586338      15.0000000000
5547 2      14.8018032180      17.0000000000
5548 2      18.4857607960      17.0000000000
5549 2      16.9183402915      18.0000000000
5550 2      13.5685470411      19.0000000000
5551 2      14.9107632521      16.0000000000
5552 2      14.8620661455      19.0000000000
5553 2      16.8026906986      20.0000000000
5554 2      16.8934578923      17.0000000000
5555 2      18.4925379930      15.0000000000
5556 2      16.0629489118      16.0000000000
5557 2      16.5849487095      14.0000000000
5558 2      17.5415831879      17.0000000000
5559 2      14.2963313608      15.0000000000
5560 2      15.8076692932      19.0000000000
5561 2      14.7817271365      15.0000000000
5562 2      20.5520139849      20.0000000000
5563 2      15.6127683036      18.0000000000
5564 2      15.0359903419      18.0000000000
5565 2      18.1910874406      16.0000000000
5566 2      17.5614297745      23.0000000000
5567 2      15.1307298599      18.0000000000
5568 2      16.2948739407      17.0000000000
5569 2      16.9637171602      17.0000000000
5570 2      12.6459558309      15.0000000000
5571 2      14.5895809927      18.0000000000
5572 2      17.2839700678      18.0000000000
5573 2      15.7363198466      20.0000000000
5574 2      14.0948033392      18.0000000000
5575 2      16.5502396419      16.0000000000
5576 2      15.9210479694      19.0000000000
5577 2      15.1236469195      19.0000000000
5578 2      14.1275412536      13.0000000000
5579 2      15.7159935882      20.0000000000
5580 2      15.2442065555      19.0000000000
5581 2      14.3378189344      18.0000000000
5582 2      15.0373048642      21.0000000000
5583 2      15.3803147836      19.0000000000
5584 2      16.4466037083      13.0000000000
5585 2      12.8004704965      15.0000000000
5586 2      16.2686616811      20.0000000000
5587 2      15.1701972716      19.0000000000
5588 2      14.9702386167      19.0000000000
5589 2      15.4303868499      18.0000000000
5590 2      11.9794603775      16.0000000000
5591 2      15.4388982349      20.0000000000
5592 2      15.4699485897      16.0000000000
5593 2      15.7609636472      18.0000000000
5594 2      18.1236325567      23.0000000000
5595 2      20.5033269601      19.0000000000
5596 2      15.6999769477      17.0000000000
5597 2      16.4183482003      17.0000000000
5598 2      28.6112791484      20.0000000000
5599 2      15.9540648908      19.0000000000
5600 2      13.4726531733      16.0000000000
5601 2      17.6822008695      22.0000000000
5602 2      15.7508608680      16.0000000000
5603 2      15.3752274773      17.0000000000
5604 2      19.3285260773      14.0000000000
5605 2      14.5460579399      17.0000000000
5606 2      14.4413860779      18.0000000000
5607 2      15.8763178414      18.0000000000
5608 2      16.6513226655      24.0000000000
5609 2      14.8553245510      15.0000000000
5610 2      18.0040195392      22.0000000000
5611 2      16.9474328370      15.0000000000
5612 2      16.3408782730      15.0000000000
5613 2      18.2924659221      22.0000000000
5614 2      15.4855085533      17.0000000000
5615 2      17.4740261334      16.0000000000
5616 2      15.9214841763      16.0000000000
5617 2      18.0845315836      16.0000000000
5618 2      16.1815266212      19.0000000000
5619 2      13.7131080790      17.0000000000
5620 2      16.6833545740      20.0000000000
5621 2      14.5411136741      16.0000000000
5622 2      14.9448142068      20.0000000000
5623 2      13.2274168660      15.0000000000
5624 2      17.1038626980      21.0000000000
5625 2      17.0747155232      14.0000000000
5626 2      15.7755154896      19.0000000000
5627 2      14.5240493956      15.0000000000
5628 2      15.1725831309      17.0000000000
5629 2      15.9864332830      16.0000000000
5630 2      17.1404077541      20.0000000000
5631 2      24.0557557486      19.0000000000
5632 2      14.9701269889      16.0000000000
5633 2      16.3267242968      17.0000000000
5634 2      15.4833106828      15.0000000000
5635 2      14.2328464787      14.0000000000
5636 2      16.2549245298      20.0000000000
5637 2      11.2793561642      13.0000000000
5638 2      14.9308374709      15.0000000000
5639 2      18.6459735126      14.0000000000
5640 2      15.3507390565      21.0000000000
5641 2      14.2130138018      18.0000000000
5642 2      12.9367749669      17.0000000000
5643 2      16.6668062484      16.0000000000
5644 2      14.9855376726      20.0000000000
5645 2      13.2491524378      14.0000000000
5646 2      13.5209625082      16.0000000000
5647 2      13.7202555897      17.0000000000
5648 2      15.9720476599      18.0000000000
5649 2      15.1373110979      19.0000000000
5650 2      14.5895912800      20.0000000000
5651 2      17.9590829337      17.0000000000
5652 2      13.9007278630      14.0000000000
5653 2      13.7750967064      13.0000000000
5654 2      15.0634879524      16.0000000000
5655 2      14.5418848790      15.0000000000
5656 2      14.8064739387      16.0000000000
5657 2      19.4365643494      23.0000000000
5658 2      14.4259784748      16.0000000000
5659 2      17.5329691727      16.0000000000
5660 2      17.7840481550      18.0000000000
5661 2      14.1540231263      19.0000000000
5662 2      16.7083837492      18.0000000000
5663 2      18.1178212961      16.0000000000
5664 2      15.4311710046      20.0000000000
5665 2      14.8605211270      15.0000000000
5666 2      15.1738624486      14.0000000000
5667 2      15.9190565414      16.0000000000
5668 2      14.2639522379      16.0000000000
5669 2      16.9529807016      20.0000000000
5670 2      18.3240947932      18.0000000000
5671 2      20.8386814095      20.0000000000
5672 2      15.5252687132      17.0000000000
5673 2      12.4371217117      20.0000000000
5674 2      12.4434903568      15.0000000000
5675 2      16.6041446544      18.0000000000
5676 2      14.8160223616      16.0000000000
5677 2      17.9247695337      17.0000000000
5678 2      15.9079771971      17.0000000000
5679 2      16.7474082950      21.0000000000
5680 2      13.3477358902      15.0000000000
5681 2      16.8361458466      20.0000000000
5682 2      12.8121245315      15.0000000000
5683 2      15.9020476379      20.0000000000
5684 2      14.1780360020      17.0000000000
5685 2      15.5217693948      16.0000000000
5686 2      14.6080690117      19.0000000000
5687 2      21.1310543848      17.0000000000
5688 2      16.0025985453      19.0000000000
5689 2      14.2579377370      15.0000000000
5690 2      19.6733497532      18.0000000000
5691 2      14.6135517835      22.0000000000
5692 2      17.9507256109      18.0000000000
5693 2      15.7856205553      18.0000000000
5694 2      17.3233277624      15.0000000000
5695 2      16.3847279087      23.0000000000
5696 2      16.2604609221      17.0000000000
5697 2      17.1907290500      17.0000000000
5698 2      15.2047135218      18.0000000000
5699 2      16.8830947023      19.0000000000
5700 2      24.0868796881      21.0000000000
5701 2      16.8021461499      16.0000000000
5702 2      16.6467446330      18.0000000000
5703 2      15.8974724712      18.0000000000
5704 2      13.6801029395      14.0000000000
5705 2      16.6789982502      15.0000000000
5706 2      12.8330880869      16.0000000000
5707 2      14.6169493635      18.0000000000
5708 2      16.0975397909      19.0000000000
5709 2      13.9270246788      14.0000000000
5710 2      18.2333640167      22.0000000000
5711 2      14.6634045027      16.0000000000
5712 2      17.0063559820      20.0000000000
5713 2      17.7714140864      18.0000000000
5714 2      15.4525758269      16.0000000000
5715 2      15.3138547180      17.0000000000
5716 2      18.2092826009      12.0000000000
5717 2      17.9933850802      19.0000000000
5718 2      14.5000132773      16.0000000000
5719 2      16.6532261485      20.0000000000
5720 2      20.8558384611      17.0000000000
5721 2      15.7077427458      18.0000000000
5722 2      16.7543826555      18.0000000000
5723 2      13.5859711978      17.0000000000
5724 2      14.0504125978      18.0000000000
5725 2      14.6052342633      19.0000000000
5726 2      15.7153711743      16.0000000000
5727 2      14.6579302626      15.0000000000
5728 2      17.6212180100      19.0000000000
5729 2      16.6482828253      14.0000000000
5730 2      15.1067555778      14.0000000000
5731 2      13.2665784117      19.0000000000
5732 2      14.9598594989      22.0000000000
5733 2      22.5106065127      19.0000000000
5734 2      15.8388166381      21.0000000000
5735 2      16.6366138774      16.0000000000
5736 2      15.2370653766      19.0000000000
5737 2      16.7699953512      17.0000000000
5738 2      18.4661782763      20.0000000000
5739 2      17.5690626856      21.0000000000
5740 2      20.0089389935      18.0000000000
5741 2      15.0381361184      13.0000000000
5742 2      14.1213843830      17.0000000000
5743 2      17.5122880247      15.0000000000
5744 2      16.1400262707      19.0000000000
5745 2      15.8635843353      20.0000000000
5746 2      14.0480157774      17.0000000000
5747 2      16.1536606853      21.0000000000
5748 2      16.9247433248      17.0000000000
5749 2      15.2634262363      22.0000000000
5750 2      14.4478248282      14.0000000000
5751 2      14.1646915457      18.0000000000
5752 2      17.7361148131      22.0000000000
5753 2      16.6285926768      15.0000000000
5754 2      15.2572039909      15.0000000000
5755 2      17.6175984921      21.0000000000
5756 2      15.8599443853      18.0000000000
5757 2      14.1497833263      16.0000000000
5758 2      17.0018677380      21.0000000000
5759 2      14.0215137170      17.0000000000
5760 2      14.6780853266      20.0000000000
5761 2      15.7551434000      14.0000000000
5762 2      12.5169978569      15.0000000000
5763 2      14.6451677798      14.0000000000
5764 2      15.1009898071      18.0000000000
5765 2      20.1513737166      15.0000000000
5766 2      15.0201552564      18.0000000000
5767 2      16.2278649316      22.0000000000
5768 2      15.5553184874      17.0000000000
5769 2      16.4325980652      15.0000000000
5770 2      14.6107700488      16.0000000000
5771 2      13.3988485601      16.0000000000
5772 2      14.7932635747      16.0000000000
5773 2      13.4207446548      15.0000000000
5774 2      15.2057203240      16.0000000000
5775 2      14.0261748957      16.0000000000
5776 2      13.4903698319      16.0000000000
5777 2      16.9696939594      18.0000000000
5778 2      13.9424555422      16.0000000000
5779 2      13.3310830203      14.0000000000
5780 2      15.4360632084      17.0000000000
5781 2      14.9871629880      18.0000000000
5782 2      14.1824588454      15.0000000000
5783 2      17.4132546919      18.0000000000
5784 2      13.6443585787      16.0000000000
5785 2      14.7108417187      18.0000000000
5786 2      14.1694423608      15.0000000000
5787 2      15.3874236371      15.0000000000
5788 2      15.6766968496      18.0000000000
5789 2      12.9292243770      16.0000000000
5790 2      14.5914691541      19.0000000000
5791 2      19.4133646620      18.0000000000
5792 2      14.3713710441      16.0000000000
5793 2      14.9570873527      17.0000000000
5794 2      15.6132929544      16.0000000000
5795 2      14.6087610955      18.0000000000
5796 2      16.7923437209      19.0000000000
5797 2      14.4795406427      18.0000000000
5798 2      15.1100229620      15.0000000000
5799 2      15.2212740952      17.0000000000
5800 2      15.8075388762      16.0000000000
5801 2      14.3556617024      18.0000000000
5802 2      19.1621567624      18.0000000000
5803 2      15.6911088112      20.0000000000
5804 2      15.5194633242      18.0000000000
5805 2      14.1400635551      16.0000000000
5806 2      13.9397775119      16.0000000000
5807 2      15.4686231768      12.0000000000
5808 2      16.4395112813      20.0000000000
5809 2      15.1796434193      17.0000000000
5810 2      18.3929791384      16.0000000000
5811 2      21.2166017094      18.0000000000
5812 2      15.6762743828      22.0000000000
5813 2      16.7732987312      21.0000000000
5814 2      16.0467322353      17.0000000000
5815 2      15.9827576310      17.0000000000
5816 2      14.6168993540      19.0000000000
5817 2      14.8713291334      18.0000000000
5818 2      14.2689788200      17.0000000000
5819 2      16.4902735772      19.0000000000
5820 2      15.9573201660      18.0000000000
5821 2      15.1585979437      18.0000000000
5822 2      16.5566970126      21.0000000000
5823 2      14.7931257724      16.0000000000
5824 2      12.9294074109      15.0000000000
5825 2      14.7135371745      20.0000000000
5826 2      14.1740516668      17.0000000000
5827 2      12.5163526032      14.0000000000
5828 2      12.7888925312      16.0000000000
5829 2      15.8113113392      17.0000000000
5830 2      15.6614189202      20.0000000000
5831 2      18.5057922642      14.0000000000
5832 2      13.2705899790      17.0000000000
5833 2      15.8356540326      19.0000000000
5834 2      14.2246129291      14.0000000000
5835 2      13.6933412961      14.0000000000
5836 2      17.8527011715      17.0000000000
5837 2      13.3858063941      15.0000000000
5838 2      15.8960416896      18.0000000000
5839 2      16.0220032572      15.0000000000
5840 2      14.9801422105      18.0000000000
5841 2      15.2734163732      21.0000000000
5842 2      15.3174253890      15.0000000000
5843 2      15.6389235743      19.0000000000
5844 2      14.7453210143      14.0000000000
5845 2      13.7893297993      15.0000000000
5846 2      15.2460062984      19.0000000000
5847 2      14.4318977839      16.0000000000
5848 2      15.6236846194      17.0000000000
5849 2      14.1516082422      16.0000000000
5850 2      14.7849416033      19.0000000000
5851 2      16.2645407318      18.0000000000
5852 2      15.8257028299      17.0000000000
5853 2      13.1752360658      19.0000000000
5854 2      15.6657761871      20.0000000000
5855 2      15.5494466454      13.0000000000
5856 2      14.4858080168      17.0000000000
5857 2      13.1182961268      19.0000000000
5858 2      15.5124655415      15.0000000000
5859 2      17.7872595518      17.0000000000
5860 2      15.9483488223      17.0000000000
5861 2      15.4450148735      15.0000000000
5862 2      16.6730310786      19.0000000000
5863 2      15.6238041454      25.0000000000
5864 2      15.1909680796      19.0000000000
5865 2      16.0387001508      19.0000000000
5866 2      15.8119604425      19.0000000000
5867 2      17.5935897107      20.0000000000
5868 2      15.6254237553      15.0000000000
5869 2      17.0208762302      19.0000000000
5870 2      18.1412636919      21.0000000000
5871 2      18.5410276993      24.0000000000
5872 2      15.8637388716      15.0000000000
5873 2      17.3954683386      16.0000000000
5874 2      14.6678748844      14.0000000000
5875 2      15.4739010147      16.0000000000
5876 2      18.9672670900      19.0000000000
5877 2      17.3394031099      17.0000000000
5878 2      18.4501987007      18.0000000000
5879 2      14.9565464358      17.0000000000
5880 2      16.2141922576      20.0000000000
5881 2      15.4161050426      20.0000000000
5882 2      17.5931533608      18.0000000000
5883 2      15.1950866332      20.0000000000
5884 2      16.5323990681      21.0000000000
5885 2      15.8037570386      19.0000000000
5886 2      18.0845193362      18.0000000000
5887 2      16.6790521086      20.0000000000
5888 2      16.9875724630      22.0000000000
5889 2      16.0652998093      16.0000000000
5890 2      17.7021435801      19.0000000000
5891 2      15.5604553832      19.0000000000
5892 2      14.8254667259      17.0000000000
5893 2      17.9553604698      19.0000000000
5894 2      12.6875629544      16.0000000000
5895 2      14.8713527599      17.0000000000
5896 2      15.1238144292      16.0000000000
5897 2      13.3263894383      18.0000000000
5898 2      14.6182191345      17.0000000000
5899 2      14.1633768917      13.0000000000
5900 2      13.2719390279      14.0000000000
5901 2      14.0294540027      17.0000000000
5902 2      22.1803746103      23.0000000000
5903 2      18.6299791812      22.0000000000
5904 2      15.4079807765      15.0000000000
5905 2      17.9762120175      20.0000000000
5906 2      14.5691070588      14.0000000000
5907 2      14.5584727813      17.0000000000
5908 2      16.5670312008      15.0000000000
5909 2      13.4322311410      17.0000000000
5910 2      16.8391356662      16.0000000000
5911 2      17.9939334472      15.0000000000
5912 2      15.9794066596      19.0000000000
5913 2      14.3988862625      13.0000000000
5914 2      15.9978998397      15.0000000000
5915 2      16.7120681729      24.0000000000
5916 2      15.0409997795      20.0000000000
5917 2      14.9181923411      21.0000000000
5918 2      13.8570054663      19.0000000000
5919 2      15.2389401598      13.0000000000
5920 2      16.3330058432      12.0000000000
5921 2      15.2966504415      15.0000000000
5922 2      13.4679402861      17.0000000000
5923 2      16.3037510256      16.0000000000
5924 2      14.2162497572      17.0000000000
5925 2      15.6301496542      20.0000000000
5926 2      15.9405800177      18.0000000000
5927 2      17.2678413133      20.0000000000
5928 2      14.3462771497      16.0000000000
5929 2      14.5830243624      18.0000000000
5930 2      18.9788648295      15.0000000000
5931 2      15.2902962191      17.0000000000
5932 2      14.4862581110      17.0000000000
5933 2      20.7911508653      18.0000000000
5934 2      23.9251500052      16.0000000000
5935 2      18.0971135002      21.0000000000
5936 2      14.3496781890      15.0000000000
5937 2      15.5428516496      13.0000000000
5938 2      18.3915233966      20.0000000000
5939 2      15.1666902900      17.0000000000
5940 2      15.0845587326      19.0000000000
5941 2      14.7109656281      18.0000000000
5942 2      16.4434453857      20.0000000000
5943 2      13.5470618454      15.0000000000
5944 2      15.7966143720      13.0000000000
5945 2      14.7539573758      16.0000000000
5946 2      15.7377832900      18.0000000000
5947 2      17.1937699229      15.0000000000
5948 2      18.1259755273      21.0000000000
5949 2      12.2122747466      15.0000000000
5950 2      13.8840516043      18.0000000000
5951 2      15.9870948407      23.0000000000
5952 2      17.1414778456      18.0000000000
5953 2      16.0163491016      19.0000000000
5954 2      14.3538212243      14.0000000000
5955 2      15.2535784260      19.0000000000
5956 2      20.8014496285      16.0000000000
5957 2      13.3175966833      17.0000000000
5958 2      15.1510779579      17.0000000000
5959 2      17.0358335966      15.0000000000
5960 2      13.7341179138      14.0000000000
5961 2      19.3936588213      17.0000000000
5962 2      14.4598384208      16.0000000000
5963 2      19.1140489027      16.0000000000
5964 2      14.0809291219      17.0000000000
5965 2      16.6245054295      20.0000000000
5966 2      14.4505958965      16.0000000000
5967 2      16.3626107384      20.0000000000
5968 2      13.5638085492      16.0000000000
5969 2      15.7105001354      19.0000000000
5970 2      16.0069383813      13.0000000000
5971 2      15.0559535640      18.0000000000
5972 2      15.6076060851      15.0000000000
5973 2      15.2657123991      19.0000000000
5974 2      16.9005396991      18.0000000000
5975 2      13.7267824518      14.0000000000
5976 2      15.7776693653      15.0000000000
5977 2      18.7470632695      15.0000000000
5978 2      16.7836694068      15.0000000000
5979 2      18.6259015834      16.0000000000
5980 2      15.3805449078      18.0000000000
5981 2      16.4280468619      20.0000000000
5982 2      14.6361845841      21.0000000000
5983 2      16.5394403616      16.0000000000
5984 2      15.6722711941      24.0000000000
5985 2      15.8549822400      18.0000000000
5986 2      16.3912988063      18.0000000000
5987 2      17.3090783294      19.0000000000
5988 2      16.3056206621      17.0000000000
5989 2      19.2370984208      17.0000000000
5990 2      16.9501755239      21.0000000000
5991 2      13.8464646416      16.0000000000
5992 2      14.2733761236      19.0000000000
5993 2      13.0062990304      18.0000000000
5994 2      16.9546118255      20.0000000000
5995 2      16.2368833139      18.0000000000
5996 2      14.7690002004      16.0000000000
5997 2      16.5566872386      18.0000000000
5998 2      16.2438204590      19.0000000000
5999 2      15.5381220958      15.0000000000
6000 2      14.0134442057      15.0000000000
6001 2      16.2774036955      18.0000000000
6002 2      16.4905779258      16.0000000000
6003 2      16.1437291523      21.0000000000
6004 2      15.2274331490      17.0000000000
6005 2      17.1625088955      16.0000000000
6006 2      13.7439717434      12.0000000000
6007 2      13.7675425235      16.0000000000
6008 2      16.8634746504      23.0000000000
6009 2      13.3453214049      17.0000000000
6010 2      16.0605240518      19.0000000000
6011 2      14.4748060548      15.0000000000
6012 2      17.5716721032      13.0000000000
6013 2      16.8599967848      22.0000000000
6014 2      14.3823467400      19.0000000000
6015 2      15.6856524449      14.0000000000
6016 2      16.3168095916      19.0000000000
6017 2      18.1104207364      18.0000000000
6018 2      12.9252894821      16.0000000000
6019 2      14.7562756090      17.0000000000
6020 2      15.6226027663      21.0000000000
6021 2      16.0814180805      20.0000000000
6022 2      19.4480537557      14.0000000000
6023 2      16.8000869882      20.0000000000
6024 2      12.2497205354      15.0000000000
6025 2      18.8369335177      19.0000000000
6026 2      15.2140496886      21.0000000000
6027 2      17.2888047872      18.0000000000
6028 2      13.3919033792      15.0000000000
6029 2      14.8669486984      12.0000000000
6030 2      14.2306226624      14.0000000000
6031 2      19.1689643641      20.0000000000
6032 2      13.8631616178      13.0000000000
6033 2      15.3623673697      19.0000000000
6034 2      13.1266004117      17.0000000000
6035 2      13.1466413511      18.0000000000
6036 2      15.1253796124      17.0000000000
6037 2      16.5712849735      17.0000000000
6038 2      13.2678047997      15.0000000000
6039 2      16.2015396893      14.0000000000
6040 2      16.4818690476      16.0000000000
6041 2      13.8189751955      17.0000000000
6042 2      16.7006619489      18.0000000000
6043 2      14.9104045105      15.0000000000
6044 2      16.9477048629      20.0000000000
6045 2      18.8191127305      16.0000000000
6046 2      13.7199115948      17.0000000000
6047 2      15.5350530339      16.0000000000
6048 2      16.1805951656      20.0000000000
6049 2      14.8909924748      19.0000000000
6050 2      13.8714944437      14.0000000000
6051 2      15.0422285523      16.0000000000
6052 2      16.3142865710      15.0000000000
6053 2      16.1253740158      19.0000000000
6054 2      13.8992549196      15.0000000000
6055 2      18.5215287663      19.0000000000
6056 2      18.3502099425      18.0000000000
6057 2      14.6965231736      13.0000000000
6058 2      16.1664545675      18.0000000000
6059 2      16.2613792137      17.0000000000
6060 2      14.9582481593      18.0000000000
6061 2      15.4334221264      13.0000000000
6062 2      13.2577753950      14.0000000000
6063 2      11.9821475919      14.0000000000
6064 2      15.6245864548      18.0000000000
6065 2      13.3020553251      16.0000000000
6066 2      13.7871065334      15.0000000000
6067 2      13.5040262497      18.0000000000
6068 2      20.2802584166      16.0000000000
6069 2      17.2705932450      16.0000000000
6070 2      12.7920924484      17.0000000000
6071 2      14.2769766364      20.0000000000
6072 2      12.8090026666      15.0000000000
6073 2      16.8417340078      15.0000000000
6074 2      14.6300520495      14.0000000000
6075 2      14.4051301799      15.0000000000
6076 2      14.1430545982      21.0000000000
6077 2      13.4214986446      17.0000000000
6078 2      15.9780195929      16.0000000000
6079 2      15.6838337416      17.0000000000
6080 2      15.9853845411      20.0000000000
6081 2      14.9400871783      21.0000000000
6082 2      17.7673480956      20.0000000000
6083 2      14.6865657202      15.0000000000
6084 2      18.4513249430      18.0000000000
6085 2      16.6904610112      16.0000000000
6086 2      16.4817443716      21.0000000000
6087 2      14.6492682775      15.0000000000
6088 2      17.2786511409      17.0000000000
6089 2      18.4300404329      20.0000000000
6090 2      14.3000222025      16.0000000000
6091 2      15.3943749376      18.0000000000
6092 2      18.1492333581      21.0000000000
6093 2      13.7761414489      14.0000000000
6094 2      14.5207697523      17.0000000000
6095 2      16.2101899584      19.0000000000
6096 2      16.4232283809      20.0000000000
6097 2      16.7074060893      17.0000000000
6098 2      13.7962923192      18.0000000000
6099 2      16.6179294132      22.0000000000
6100 2      15.4666273667      14.0000000000
6101 2      14.0772624913      14.0000000000
6102 2      14.4108659373      16.0000000000
6103 2      20.3009761260      17.0000000000
6104 2      15.6144299309      18.0000000000
6105 2      13.8992206005      17.0000000000
6106 2      13.7009938040      18.0000000000
6107 2      15.7824109025      17.0000000000
6108 2      18.1136131993      16.0000000000
6109 2      14.7494101204      16.0000000000
6110 2      15.0286362347      17.0000000000
6111 2      15.6661022967      19.0000000000
6112 2      16.6503978461      17.0000000000
6113 2      16.1584439266      17.0000000000
6114 2      14.9857614623      13.0000000000
6115 2      16.2536485050      17.0000000000
6116 2      17.7000588341      18.0000000000
6117 2      13.8331914746      15.0000000000
6118 2      15.4603143022      18.0000000000
6119 2      17.0425092070      20.0000000000
6120 2      16.3623437351      17.0000000000
6121 2      15.5485363890      19.0000000000
6122 2      15.4354004176      17.0000000000
6123 2      17.6000543154      16.0000000000
6124 2      17.6094040627      15.0000000000
6125 2      17.0899237745      17.0000000000
6126 2      16.3365079939      17.0000000000
6127 2      15.2333836078      19.0000000000
6128 2      14.2578083438      18.0000000000
6129 2      15.6530866963      17.0000000000
6130 2      14.1272833403      14.0000000000
6131 2      15.2583760823      18.0000000000
6132 2      14.5841604276      17.0000000000
6133 2      18.4794423730      15.0000000000
6134 2      15.8847086856      17.0000000000
6135 2      15.1141917953      21.0000000000
6136 2      14.6560163283      16.0000000000
6137 2      18.0215539900      17.0000000000
6138 2      16.5175540928      18.0000000000
6139 2      15.3757722935      14.0000000000
6140 2      15.6015634209      18.0000000000
6141 2      19.0579184253      19.0000000000
6142 2      18.0298175175      17.0000000000
6143 2      16.1703607201      22.0000000000
6144 2      16.2035420229      19.0000000000
6145 2      23.5537854079      18.0000000000
6146 2      14.6291888534      16.0000000000
6147 2      14.1365843726      15.0000000000
6148 2      15.2363387651      18.0000000000
6149 2      14.7357905532      17.0000000000
6150 2      16.1738598071      18.0000000000
6151 2      17.0580091508      14.0000000000
6152 2      17.6256865091      12.0000000000
6153 2      16.5109380048      24.0000000000
6154 2      15.1833976688      18.0000000000
6155 2      14.2713263465      19.0000000000
6156 2      17.7233004891      16.0000000000
6157 2      17.4103022729      16.0000000000
6158 2      15.2050323299      15.0000000000
6159 2      13.7742980730      16.0000000000
6160 2      14.9821379034      17.0000000000
6161 2      15.9641618964      15.0000000000
6162 2      16.8351234650      21.0000000000
6163 2      15.5072796248      17.0000000000
6164 2      16.8100103357      19.0000000000
6165 2      17.3574304740      19.0000000000
6166 2      15.6002203766      22.0000000000
6167 2      14.1589171785      15.0000000000
6168 2      13.1680405632      16.0000000000
6169 2      18.2331068406      17.0000000000
6170 2      16.0645974833      19.0000000000
6171 2      12.4209463190      18.0000000000
6172 2      15.3931924763      16.0000000000
6173 2      16.2327533976      20.0000000000
6174 2      17.9516008969      19.0000000000
6175 2      15.3173078574      15.0000000000
6176 2      13.3855633246      15.0000000000
6177 2      17.3706709862      15.0000000000
6178 2      15.5541423275      18.0000000000
6179 2      15.7636209812      14.0000000000
6180 2      14.7571230261      15.0000000000
6181 2      16.6565846334      21.0000000000
6182 2      13.3397504869      13.0000000000
6183 2      14.0218498379      19.0000000000
6184 2      13.2645755942      16.0000000000
6185 2      16.8484138521      22.0000000000
6186 2      14.4333941988      17.0000000000
6187 2      14.2913099677      20.0000000000
6188 2      15.2768847302      18.0000000000
6189 2      14.1565051307      13.0000000000
6190 2      17.1598615529      23.0000000000
6191 2      13.7623149882      21.0000000000
6192 2      16.7682013834      20.0000000000
6193 2      17.4226306227      18.0000000000
6194 2      19.5629632576      22.0000000000
6195 2      14.9724993110      18.0000000000
6196 2      13.0417458930      15.0000000000
6197 2      15.8068369332      18.0000000000
6198 2      19.9408658608      17.0000000000
6199 2      15.2698104882      19.0000000000
6200 2      15.6447078868      14.0000000000
6201 2      19.1669747472      20.0000000000
6202 2      15.5156142691      16.0000000000
6203 2      14.9453966130      16.0000000000
6204 2      17.8660878112      24.0000000000
6205 2      15.4328572521      20.0000000000
6206 2      15.7797892080      15.0000000000
6207 2      13.2385158916      13.0000000000
6208 2      18.0938135977      18.0000000000
6209 2      15.4154561074      16.0000000000
6210 2      15.3974478624      16.0000000000
6211 2      15.4947536756      20.0000000000
6212 2      14.2000560808      16.0000000000
6213 2      13.8719544739      20.0000000000
6214 2      16.3675421389      18.0000000000
6215 2      16.8739076781      19.0000000000
6216 2      15.9692770008      19.0000000000
6217 2      16.6550920463      22.0000000000
6218 2      15.9360484929      14.0000000000
6219 2      15.9189553941      16.0000000000
6220 2      13.7885796138      17.0000000000
6221 2      14.2717590026      19.0000000000
6222 2      16.3172027143      19.0000000000
6223 2      17.1691248791      13.0000000000
6224 2      13.9033333907      16.0000000000
6225 2      15.3514248124      21.0000000000
6226 2      14.5978741620      21.0000000000
6227 2      16.1007088275      18.0000000000
6228 2      17.5575677844      20.0000000000
6229 2      16.2347511746      20.0000000000
6230 2      18.8292063622      17.0000000000
6231 2      18.2999290048      15.0000000000
6232 2      14.2185271327      19.0000000000
6233 2      14.7466168522      19.0000000000
6234 2      17.6202499036      21.0000000000
6235 2      13.3799214421      17.0000000000
6236 2      15.9655051822      16.0000000000
6237 2      18.2096921370      14.0000000000
6238 2      15.7145493437      16.0000000000
6239 2      14.0218923484      17.0000000000
6240 2      16.8812752965      20.0000000000
6241 2      14.1211408630      19.0000000000
6242 2      16.8772583295      17.0000000000
6243 2      18.9277093213      23.0000000000
6244 2      13.3086393940      15.0000000000
6245 2      16.1162857445      16.0000000000
6246 2      13.8442988841      19.0000000000
6247 2      14.7219279532      19.0000000000
6248 2      16.8464471062      22.0000000000
6249 2      13.0213442937      18.0000000000
6250 2      17.5282698507      16.0000000000
6251 2      13.0548139186      14.0000000000
6252 2      13.2599531151      17.0000000000
6253 2      20.6882897378      17.0000000000
6254 2      15.7024378570      20.0000000000
6255 2      17.7639754618      15.0000000000
6256 2      18.1534889382      20.0000000000
6257 2      14.0975244320      18.0000000000
6258 2      13.5223251500      16.0000000000
6259 2      13.7400155424      15.0000000000
6260 2      18.0282349956      17.0000000000
6261 2      12.3781101071      14.0000000000
6262 2      15.2983829896      18.0000000000
6263 2      18.3626498744      16.0000000000
6264 2      14.3941604489      18.0000000000
6265 2      15.0033011804      18.0000000000
6266 2      14.9976669256      19.0000000000
6267 2      16.0139867297      20.0000000000
6268 2      16.5764872056      17.0000000000
6269 2      14.8875515294      15.0000000000
6270 2      16.8141117879      16.0000000000
6271 2      14.0114469517      22.0000000000
6272 2      14.3449766163      19.0000000000
6273 2      12.5655557904      14.0000000000
6274 2      16.0377726390      18.0000000000
6275 2      16.3434533667      15.0000000000
6276 2      14.9862626834      18.0000000000
6277 2      13.7502232002      18.0000000000
6278 2      15.2456959657      19.0000000000
6279 2      14.4181805191      21.0000000000
6280 2      15.6113257373      19.0000000000
6281 2      14.4129517015      14.0000000000
6282 2      16.4628115491      18.0000000000
6283 2      13.3855833797      16.0000000000
6284 2      16.8263208784      17.0000000000
6285 2      15.3714690175      17.0000000000
6286 2      14.8845847317      19.0000000000
6287 2      15.3218439613      16.0000000000
6288 2      14.7073335844      22.0000000000
6289 2      14.6483215760      14.0000000000
6290 2      15.3056939104      20.0000000000
6291 2      18.6241468608      16.0000000000
6292 2      15.1478300186      17.0000000000
6293 2      16.5553705392      19.0000000000
6294 2      15.5155147174      17.0000000000
6295 2      18.8288356329      19.0000000000
6296 2      18.7359785496      20.0000000000
6297 2      14.3620706029      16.0000000000
6298 2      14.2113490059      20.0000000000
6299 2      14.1298897905      17.0000000000
6300 2      15.2073473680      15.0000000000
6301 2      17.3954333597      19.0000000000
6302 2      16.0764712082      18.0000000000
6303 2      15.4922821110      18.0000000000
6304 2      14.0332400264      21.0000000000
6305 2      14.8384685538      18.0000000000
6306 2      15.0815203528      15.0000000000
6307 2      14.4909094836      17.0000000000
6308 2      15.9075717173      16.0000000000
6309 2      16.7402308110      18.0000000000
6310 2      13.0546166493      16.0000000000
6311 2      13.1230226380      15.0000000000
6312 2      15.2062727889      13.0000000000
6313 2      16.2576466513      24.0000000000
6314 2      19.4187902553      22.0000000000
6315 2      12.4171621053      14.0000000000
6316 2      14.6407613685      16.0000000000
6317 2      14.7153040027      17.0000000000
6318 2      14.3469023966      18.0000000000
6319 2      18.4394255065      18.0000000000
6320 2      13.8302360807      16.0000000000
6321 2      13.7603692883      19.0000000000
6322 2      14.7760967247      17.0000000000
6323 2      15.0199837232      18.0000000000
6324 2      15.0724234814      24.0000000000
6325 2      11.8046947513      15.0000000000
6326 2      16.3970616389      20.0000000000
6327 2      18.4689978515      20.0000000000
6328 2      16.3423470991      14.0000000000
6329 2      16.4309870325      18.0000000000
6330 2      16.7145794622      14.0000000000
6331 2      16.6935335526      16.0000000000
6332 2      13.6615631090      18.0000000000
6333 2      15.2327412707      16.0000000000
6334 2      15.2695640687      13.0000000000
6335 2      16.0591724224      21.0000000000
6336 2      16.9650867059      23.0000000000
6337 2      15.3279185352      15.0000000000
6338 2      13.6015952396      16.0000000000
6339 2      15.8012244272      19.0000000000
6340 2      17.3591016753      14.0000000000
6341 2      13.1757763571      14.0000000000
6342 2      14.3423884181      18.0000000000
6343 2      15.0402075223      22.0000000000
6344 2      14.3785404652      15.0000000000
6345 2      14.7172529304      19.0000000000
6346 2      13.0603527097      13.0000000000
6347 2      19.6047962715      20.0000000000
6348 2      17.7191065529      16.0000000000
6349 2      15.1331110025      14.0000000000
6350 2      13.0228432606      12.0000000000
6351 2      17.3578170257      18.0000000000
6352 2      13.6865239661      19.0000000000
6353 2      14.5167484276      15.0000000000
6354 2      12.7994633359      13.0000000000
6355 2      13.7468671854      15.0000000000
6356 2      17.6568469596      20.0000000000
6357 2      15.2020987066      19.0000000000
6358 2      13.3298271972      13.0000000000
6359 2      15.7793656615      17.0000000000
6360 2      15.0324660799      18.0000000000
6361 2      16.7283362984      19.0000000000
6362 2      13.2934316664      16.0000000000
6363 2      15.4924325043      16.0000000000
6364 2      17.1317816253      20.0000000000
6365 2      13.7973749149      15.0000000000
6366 2      15.3715579958      14.0000000000
6367 2      17.3266579206      19.0000000000
6368 2      15.3989608293      16.0000000000
6369 2      14.1292640110      19.0000000000
6370 2      15.1312676421      17.0000000000
6371 2      19.4297297288      25.0000000000
6372 2      11.7380567539      14.0000000000
6373 2      18.6939335465      19.0000000000
6374 2      16.5009934653      20.0000000000
6375 2      15.3498403383      18.0000000000
6376 2      14.7398842336      16.0000000000
6377 2      17.2342874922      22.0000000000
6378 2      19.2461417071      18.0000000000
6379 2      16.3505085065      20.0000000000
6380 2      20.4750545942      17.0000000000
6381 2      19.0057717570      18.0000000000
6382 2      19.1956683317      16.0000000000
6383 2      17.6445430602      18.0000000000
6384 2      20.9211392553      21.0000000000
6385 2      15.7570392592      23.0000000000
6386 2      18.2352351053      17.0000000000
6387 2      16.1267282302      18.0000000000
6388 2      17.8987632902      19.0000000000
6389 2      13.8611860285      14.0000000000
6390 2      13.1445106001      16.0000000000
6391 2      15.2426178925      16.0000000000
6392 2      15.1229316028      18.0000000000
6393 2      13.3704878211      18.0000000000
6394 2      19.0370765122      13.0000000000
6395 2      13.6492575375      16.0000000000
6396 2      16.5570064591      19.0000000000
6397 2      13.9992324276      13.0000000000
6398 2      15.2855621592      16.0000000000
6399 2      13.7873004395      17.0000000000
6400 2      17.7371345378      20.0000000000
6401 2      18.0485183734      17.0000000000
6402 2      17.5640870832      17.0000000000
6403 2      15.5569189187      18.0000000000
6404 2      15.7380871858      13.0000000000
6405 2      17.7043547915      15.0000000000
6406 2      14.1666920328      16.0000000000
6407 2      16.7187428428      19.0000000000
6408 2      19.5437482385      23.0000000000
6409 2      15.7071798209      17.0000000000
6410 2      17.1017778364      14.0000000000
6411 2      15.8783938114      17.0000000000
6412 2      15.2965992871      15.0000000000
6413 2      19.1998220877      15.0000000000
6414 2      13.7819840093      14.0000000000
6415 2      16.1947378410      20.0000000000
6416 2      17.6044957273      19.0000000000
6417 2      17.2114946569      25.0000000000
6418 2      17.6046882938      17.0000000000
6419 2      13.4676012085      16.0000000000
6420 2      14.1005937802      12.0000000000
6421 2      17.0237253372      20.0000000000
6422 2      16.2039720090      16.0000000000
6423 2      17.4343644824      20.0000000000
6424 2      14.8213050357      19.0000000000
6425 2      17.5741051314      19.0000000000
6426 2      14.3735686383      17.0000000000
6427 2      16.7002285878      23.0000000000
6428 2      18.3003360724      21.0000000000
6429 2      15.0498610972      16.0000000000
6430 2      14.7100718834      14.0000000000
6431 2      15.4763606666      19.0000000000
6432 2      14.7377008877      15.0000000000
6433 2      15.4312172795      19.0000000000
6434 2      15.7392248152      16.0000000000
6435 2      17.6858825466      24.0000000000
6436 2      15.5294141982      22.0000000000
6437 2      17.9452105233      18.0000000000
6438 2      16.0475245014      20.0000000000
6439 2      13.6844458917      18.0000000000
6440 2      14.6774068880      18.0000000000
6441 2      18.0464608577      17.0000000000
6442 2      19.0634422770      24.0000000000
6443 2      17.7116529493      17.0000000000
6444 2      13.8749067065      17.0000000000
6445 2      14.3255915239      15.0000000000
6446 2      15.0369968474      18.0000000000
6447 2      15.0972575066      17.0000000000
6448 2      12.9424405634      13.0000000000
6449 2      17.7080106620      17.0000000000
6450 2      14.7436962098      19.0000000000
6451 2      14.3862417724      15.0000000000
6452 2      14.0464752132      15.0000000000
6453 2      13.8234167228      19.0000000000
6454 2      14.9683762185      18.0000000000
6455 2      17.0262634908      18.0000000000
6456 2      15.4240415115      15.0000000000
6457 2      14.6289729572      16.0000000000
6458 2      14.5658361828      19.0000000000
6459 2      15.2453080418      15.0000000000
6460 2      13.2427665813      18.0000000000
6461 2      17.5201898930      21.0000000000
6462 2      14.9849234865      16.0000000000
6463 2      14.2811453470      17.0000000000
6464 2      17.2581592121      14.0000000000
6465 2      15.5197158700      18.0000000000
6466 2      12.4996420971      18.0000000000
6467 2      16.3455724599      22.0000000000
6468 2      13.2862631859      17.0000000000
6469 2      19.2694137013      18.0000000000
6470 2      17.6278648172      20.0000000000
6471 2      15.3409369305      16.0000000000
6472 2      18.2521613311      18.0000000000
6473 2      15.2370341963      18.0000000000
6474 2      19.6694987611      18.0000000000
6475 2      14.1182112920      16.0000000000
6476 2      16.8331780620      18.0000000000
6477 2      14.6619420234      18.0000000000
6478 2      16.3433671509      18.0000000000
6479 2      14.6196724385      22.0000000000
6480 2      15.5833067959      16.0000000000
6481 2      11.8558261773      12.0000000000
6482 2      15.1959300947      17.0000000000
6483 2      16.4116121428      17.0000000000
6484 2      15.5636480240      18.0000000000
6485 2      16.9036709509      18.0000000000
6486 2      14.1374426686      17.0000000000
6487 2      15.8882581133      16.0000000000
6488 2      14.6181037375      19.0000000000
6489 2      16.0564161206      23.0000000000
6490 2      14.1775409183      14.0000000000
6491 2      14.5680350230      18.0000000000
6492 2      18.6354916819      17.0000000000
6493 2      14.6754687194      18.0000000000
6494 2      17.3673206732      19.0000000000
6495 2      14.6788160375      16.0000000000
6496 2      15.2983516921      19.0000000000
6497 2      19.3231045536      17.0000000000
6498 2      14.8107789949      20.0000000000
6499 2      13.5600742892      19.0000000000
6500 2      15.1039117520      16.0000000000
6501 2      16.7994433620      17.0000000000
6502 2      17.2325609577      21.0000000000
6503 2      16.3677222208      19.0000000000
6504 2      16.1529337662      21.0000000000
6505 2      17.8986362670      19.0000000000
6506 2      13.4427212121      14.0000000000
6507 2      14.1155411856      16.0000000000
6508 2      15.2865463498      17.0000000000
6509 2      18.6365144951      16.0000000000
6510 2      17.1653868593      17.0000000000
6511 2      14.4015385593      19.0000000000
6512 2      15.4883638415      20.0000000000
6513 2      13.6157579904      16.0000000000
6514 2      18.2475450730      17.0000000000
6515 2      14.9616898159      21.0000000000
6516 2      16.2291664344      16.0000000000
6517 2      14.6660902661      19.0000000000
6518 2      15.3611271115      20.0000000000
6519 2      15.6528879289      16.0000000000
6520 2      17.4964229688      17.0000000000
6521 2      19.0434398939      17.0000000000
6522 2      15.7597708686      17.0000000000
6523 2      14.5787004688      18.0000000000
6524 2      19.1815347674      11.0000000000
6525 2      13.9085651276      17.0000000000
6526 2      16.3432413615      14.0000000000
6527 2      16.5914571297      20.0000000000
6528 2      14.5090870531      15.0000000000
6529 2      15.9771343726      19.0000000000
6530 2      15.8176826695      16.0000000000
6531 2      20.9926406393      19.0000000000
6532 2      18.0190821364      16.0000000000
6533 2      15.3674861248      18.0000000000
6534 2      16.4360454060      20.0000000000
6535 2      17.3715521178      19.0000000000
6536 2      17.2601609302      16.0000000000
6537 2      22.3537794865      20.0000000000
6538 2      17.8796187457      18.0000000000
6539 2      16.2358182696      22.0000000000
6540 2      14.7370903704      18.0000000000
6541 2      15.3618812417      17.0000000000
6542 2      15.9191776957      15.0000000000
6543 2      15.4403980244      16.0000000000
6544 2      14.9627473708      17.0000000000
6545 2      16.2500481896      17.0000000000
6546 2      15.8629058834      20.0000000000
6547 2      14.8128723456      20.0000000000
6548 2      17.5212262679      18.0000000000
6549 2      15.7019450148      15.0000000000
6550 2      14.4756935149      16.0000000000
6551 2      13.0541361439      16.0000000000
6552 2      15.8127018774      16.0000000000
6553 2      17.4423267836      19.0000000000
6554 2      16.7118633758      19.0000000000
6555 2      15.9627330942      19.0000000000
6556 2      18.3220177024      18.0000000000
6557 2      14.5529710295      17.0000000000
6558 2      17.0026811044      19.0000000000
6559 2      15.2923695622      17.0000000000
6560 2      14.9957754838      15.0000000000
6561 2      18.1185624987      15.0000000000
6562 2      16.7165308258      18.0000000000
6563 2      17.6244708099      15.0000000000
6564 2      14.4656251476      22.0000000000
6565 2      16.5613024128      16.0000000000
6566 2      14.8240826781      18.0000000000
6567 2      15.4787446077      15.0000000000
6568 2      16.7365447319      22.0000000000
6569 2      17.0804676933      16.0000000000
6570 2      14.6283849362      19.0000000000
6571 2      14.4047197535      13.0000000000
6572 2      12.3385702065      17.0000000000
6573 2      20.1309627135      19.0000000000
6574 2      16.1058969633      18.0000000000
6575 2      16.1406276993      16.0000000000
6576 2      15.8276692114      15.0000000000
6577 2      14.1930714663      18.0000000000
6578 2      14.4286358824      20.0000000000
6579 2      16.0757569076      19.0000000000
6580 2      13.9277945247      18.0000000000
6581 2      15.4204365814      15.0000000000
6582 2      17.9976927421      21.0000000000
6583 2      17.4125073588      19.0000000000
6584 2      14.8091394646      13.0000000000
6585 2      18.7028786613      16.0000000000
6586 2      13.7464383042      16.0000000000
6587 2      19.4341534218      17.0000000000
6588 2      16.7534793772      15.0000000000
6589 2      15.7423432522      15.0000000000
6590 2      16.1476702697      17.0000000000
6591 2      16.1987179365      19.0000000000
6592 2      15.6202274772      21.0000000000
6593 2      16.0985014900      15.0000000000
6594 2      16.3439348295      17.0000000000
6595 2      15.1982920489      18.0000000000
6596 2      16.6009894860      19.0000000000
6597 2      17.1938068546      12.0000000000
6598 2      13.5125780929      14.0000000000
6599 2      14.3036055257      19.0000000000
6600 2      15.5552570476      20.0000000000
6601 2      18.4158341295      22.0000000000
6602 2      16.9430572453      17.0000000000
6603 2      17.9474460236      20.0000000000
6604 2      16.4776905287      21.0000000000
6605 2      13.1861786180      18.0000000000
6606 2      17.4717414883      16.0000000000
6607 2      16.9625150834      21.0000000000
6608 2      15.5879290990      18.0000000000
6609 2      15.7315232740      16.0000000000
6610 2      18.8430721785      16.0000000000
6611 2      16.3857457333      19.0000000000
6612 2      14.3648014592      19.0000000000
6613 2      14.7392226824      18.0000000000
6614 2      16.5401719414      16.0000000000
6615 2      14.1770620365      20.0000000000
6616 2      16.3018112783      18.0000000000
6617 2      14.1655308536      19.0000000000
6618 2      14.6865868973      15.0000000000
6619 2      21.1272958136      17.0000000000
6620 2      15.8579034553      16.0000000000
6621 2      17.9128977244      15.0000000000
6622 2      15.3907145063      20.0000000000
6623 2      18.8329406780      15.0000000000
6624 2      16.6439589660      16.0000000000
6625 2      16.2449802744      17.0000000000
6626 2      16.2172607064      18.0000000000
6627 2      15.8529962599      17.0000000000
6628 2      16.1357904537      19.0000000000
6629 2      11.9188325768      14.0000000000
6630 2      16.7629511040      15.0000000000
6631 2      13.8725823401      16.0000000000
6632 2      14.3796684767      16.0000000000
6633 2      19.3438264448      20.0000000000
6634 2      16.3051991522      18.0000000000
6635 2      17.1145637431      15.0000000000
6636 2      16.8953334974      19.0000000000
6637 2      17.9291822850      19.0000000000
6638 2      13.7985319522      14.0000000000
6639 2      16.5122493566      21.0000000000
6640 2      16.6661228676      16.0000000000
6641 2      18.3307827892      18.0000000000
6642 2      16.1588048346      24.0000000000
6643 2      17.3620511841      20.0000000000
6644 2      18.2034469763      16.0000000000
6645 2      16.7600187866      21.0000000000
6646 2      16.1757071519      18.0000000000
6647 2      16.8390987774      19.0000000000
6648 2      14.3889443303      18.0000000000
6649 2      18.5963729445      16.0000000000
6650 2      15.9068872000      20.0000000000
6651 2      17.1531407170      16.0000000000
6652 2      16.6929732028      17.0000000000
6653 2      16.8127295301      17.0000000000
6654 2      13.5735401278      14.0000000000
6655 2      14.5787240678      19.0000000000
6656 2      17.7720911994      20.0000000000
6657 2      15.8809179102      16.0000000000
6658 2      15.0178229875      19.0000000000
6659 2      23.8776850823      19.0000000000
6660 2      15.9022233483      22.0000000000
6661 2      13.3667137429      15.0000000000
6662 2      14.8550970690      18.0000000000
6663 2      12.9316058887      14.0000000000
6664 2      17.1394785658      20.0000000000
6665 2      18.8934512846      16.0000000000
6666 2      16.9491194912      21.0000000000
6667 2      18.4439871768      19.0000000000
6668 2      15.5374406109      19.0000000000
6669 2      14.0165910349      17.0000000000
6670 2      17.3122565630      20.0000000000
6671 2      13.4281406703      19.0000000000
6672 2      13.5764535501      17.0000000000
6673 2      14.7474584843      15.0000000000
6674 2      13.9524312565      17.0000000000
6675 2      12.7316737491      20.0000000000
6676 2      12.9059788465      15.0000000000
6677 2      16.4469569990      16.0000000000
6678 2      13.6944618331      18.0000000000
6679 2      19.2507057509      16.0000000000
6680 2      17.7302115975      15.0000000000
6681 2      13.3559631192      15.0000000000
6682 2      14.8962654690      15.0000000000
6683 2      19.1183406217      19.0000000000
6684 2      13.3205920272      14.0000000000
6685 2      15.0472463435      17.0000000000
6686 2      14.8803466560      15.0000000000
6687 2      18.2328367432      17.0000000000
6688 2      14.5643770005      17.0000000000
6689 2      16.7803515985      18.0000000000
6690 2      16.3896739380      16.0000000000
6691 2      16.4208425385      18.0000000000
6692 2      21.6858812533      19.0000000000
6693 2      14.0140092912      18.0000000000
6694 2      15.8920931997      19.0000000000
6695 2      16.6437244034      19.0000000000
6696 2      16.7765306813      18.0000000000
6697 2      16.2640742045      16.0000000000
6698 2      15.6561231482      18.0000000000
6699 2      14.6932021581      15.0000000000
6700 2      15.3547661962      19.0000000000
6701 2      18.1622796963      19.0000000000
6702 2      18.1659491332      17.0000000000
6703 2      17.0318715387      18.0000000000
6704 2      20.5611215851      23.0000000000
6705 2      13.3649702126      12.0000000000
6706 2      16.0905061545      20.0000000000
6707 2      17.4578511641      17.0000000000
6708 2      15.6008186909      15.0000000000
6709 2      16.1805778841      17.0000000000
6710 2      15.1214025781      13.0000000000
6711 2      14.7146679689      16.0000000000
6712 2      16.7229658932      20.0000000000
6713 2      16.6804016875      23.0000000000
6714 2      15.7342927958      18.0000000000
6715 2      14.6756420144      17.0000000000
6716 2      16.3963817917      19.0000000000
6717 2      16.0523313192      17.0000000000
6718 2      14.0454324161      19.0000000000
6719 2      14.0018628822      16.0000000000
6720 2      16.4515527379      19.0000000000
6721 2      18.6181992730      18.0000000000
6722 2      14.8469752294      15.0000000000
6723 2      16.2988671429      19.0000000000
6724 2      14.3817746103      15.0000000000
6725 2      14.5560225383      17.0000000000
6726 2      14.3489417943      14.0000000000
6727 2      12.7991178461      18.0000000000
6728 2      15.6954965474      18.0000000000
6729 2      15.0218348404      20.0000000000
6730 2      14.2815894888      14.0000000000
6731 2      15.0497858865      17.0000000000
6732 2      15.1261349510      16.0000000000
6733 2      20.3541038963      19.0000000000
6734 2      17.1725310060      16.0000000000
6735 2      15.6341614943      13.0000000000
6736 2      13.7519765531      15.0000000000
6737 2      17.1774478804      20.0000000000
6738 2      14.5289137318      20.0000000000
6739 2      15.4546018459      16.0000000000
6740 2      13.7961240130      16.0000000000
6741 2      16.3319612349      16.0000000000
6742 2      18.4991395518      21.0000000000
6743 2      17.1955905300      17.0000000000
6744 2      16.2479894936      19.0000000000
6745 2      16.0753687975      16.0000000000
6746 2      16.2658835288      16.0000000000
6747 2      15.0110277132      20.0000000000
6748 2      14.7479582824      16.0000000000
6749 2      16.5541371822      19.0000000000
6750 2      16.1897228645      20.0000000000
6751 2      15.3975707776      18.0000000000
6752 2      16.4555376481      22.0000000000
6753 2      15.0545248375      15.0000000000
6754 2      17.2017618030      21.0000000000
6755 2      17.1519854907      19.0000000000
6756 2      16.8288123014      18.0000000000
6757 2      15.2713808584      17.0000000000
6758 2      16.5311783641      18.0000000000
6759 2      16.5023617359      21.0000000000
6760 2      17.9151858312      18.0000000000
6761 2      14.9843538896      13.0000000000
6762 2      17.2275065265      17.0000000000
6763 2      13.2980846480      17.0000000000
6764 2      15.5820703883      21.0000000000
6765 2      16.9492172321      18.0000000000
6766 2      14.1192398647      20.0000000000
6767 2      16.7492272648      19.0000000000
6768 2      16.6714477415      20.0000000000
6769 2      14.6457361523      21.0000000000
6770 2      13.9333569796      16.0000000000
6771 2      16.0060396311      20.0000000000
6772 2      15.4760823367      20.0000000000
6773 2      14.9815561524      17.0000000000
6774 2      14.8213506078      16.0000000000
6775 2      14.2140180050      15.0000000000
6776 2      14.9663456860      16.0000000000
6777 2      14.4963653055      13.0000000000
6778 2      16.5299469200      18.0000000000
6779 2      14.7281137319      16.0000000000
6780 2      18.5841981838      21.0000000000
6781 2      14.6147168684      16.0000000000
6782 2      15.7880418534      16.0000000000
6783 2      18.5642094235      18.0000000000
6784 2      16.0117784330      23.0000000000
6785 2      14.6680200625      18.0000000000
6786 2      13.3185610939      16.0000000000
6787 2      13.1480826194      18.0000000000
6788 2      17.7086936029      17.0000000000
6789 2      17.6773455415      21.0000000000
6790 2      18.9407207241      14.0000000000
6791 2      15.3084133990      17.0000000000
6792 2      12.3119543698      14.0000000000
6793 2      17.9228749403      18.0000000000
6794 2      16.3498079235      19.0000000000
6795 2      13.6375598467      18.0000000000
6796 2      13.9762064605      16.0000000000
6797 2      17.5477694695      21.0000000000
6798 2      16.8231332740      22.0000000000
6799 2      15.2982078085      13.0000000000
6800 2      20.2137634454      16.0000000000
6801 2      16.4248611681      15.0000000000
6802 2      20.0677088425      14.0000000000
6803 2      13.8256599289      18.0000000000
6804 2      20.0709651676      20.0000000000
6805 2      15.2735394541      19.0000000000
6806 2      20.4833177897      20.0000000000
6807 2      16.7526647258      20.0000000000
6808 2      16.9931100389      22.0000000000
6809 2      13.6939375526      17.0000000000
6810 2      14.7947301340      20.0000000000
6811 2      14.5519223079      19.0000000000
6812 2      14.0509201486      15.0000000000
6813 2      15.2356564311      20.0000000000
6814 2      14.7905805416      18.0000000000
6815 2      17.2014504251      18.0000000000
6816 2      14.9422380982      18.0000000000
6817 2      13.7314520824      17.0000000000
6818 2      14.0090240773      21.0000000000
6819 2      15.8560213007      17.0000000000
6820 2      20.8990861827      22.0000000000
6821 2      16.8792892500      20.0000000000
6822 2      13.8936038481      16.0000000000
6823 2      15.0357224148      18.0000000000
6824 2      12.3417527332      14.0000000000
6825 2      15.3638951397      19.0000000000
6826 2      18.3092075213      16.0000000000
6827 2      15.7670603357      13.0000000000
6828 2      14.8025070894      15.0000000000
6829 2      14.2997563372      19.0000000000
6830 2      20.8543489235      20.0000000000
6831 2      23.9938439085      18.0000000000
6832 2      14.5699897509      20.0000000000
6833 2      12.3996001097      11.0000000000
6834 2      13.8500219601      14.0000000000
6835 2      17.5801691787      12.0000000000
6836 2      15.6676960083      15.0000000000
6837 2      15.5227451698      18.0000000000
6838 2      16.2821691748      17.0000000000
6839 2      15.2428957220      14.0000000000
6840 2      21.1177645317      17.0000000000
6841 2      13.8750067921      15.0000000000
6842 2      16.1086634645      16.0000000000
6843 2      15.6032286779      16.0000000000
6844 2      16.0842307659      16.0000000000
6845 2      13.9018105342      21.0000000000
6846 2      16.1254227935      16.0000000000
6847 2      15.5682166994      22.0000000000
6848 2      16.3489201491      16.0000000000
6849 2      14.0747727177      18.0000000000
6850 2      15.6556633125      18.0000000000
6851 2      16.2808597727      19.0000000000
6852 2      13.7531911038      15.0000000000
6853 2      14.6660541627      14.0000000000
6854 2      14.0870429103      14.0000000000
6855 2      17.0645423285      19.0000000000
6856 2      14.2738469886      20.0000000000
6857 2      15.4916115911      17.0000000000
6858 2      16.9827812633      20.0000000000
6859 2      13.8940042079      19.0000000000
6860 2      15.3446033812      19.0000000000
6861 2      15.9211109207      19.0000000000
6862 2      17.4010074208      20.0000000000
6863 2      14.2703840311      18.0000000000
6864 2      14.9486927114      16.0000000000
6865 2      13.1029392472      16.0000000000
6866 2      17.6901565118      22.0000000000
6867 2      15.9640006544      15.0000000000
6868 2      15.4393268239      17.0000000000
6869 2      14.6093097404      16.0000000000
6870 2      14.5768665720      16.0000000000
6871 2      15.9893411430      18.0000000000
6872 2      15.4942347768      16.0000000000
6873 2      17.6963973258      16.0000000000
6874 2      16.3160874480      18.0000000000
6875 2      15.6069641646      15.0000000000
6876 2      14.8839335505      16.0000000000
6877 2      13.8695376726      20.0000000000
6878 2      16.0035484538      24.0000000000
6879 2      16.2872065166      17.0000000000
6880 2      14.9503617708      17.0000000000
6881 2      14.2179603183      17.0000000000
6882 2      13.1902237061      14.0000000000
6883 2      16.2075949074      17.0000000000
6884 2      15.5515172234      19.0000000000
6885 2      15.0580780316      18.0000000000
6886 2      15.8612548753      14.0000000000
6887 2      12.5021559978      15.0000000000
6888 2      14.9743245787      17.0000000000
6889 2      15.6782355664      15.0000000000
6890 2      13.8346247942      17.0000000000
6891 2      17.0458077955      19.0000000000
6892 2      16.6762376323      18.0000000000
6893 2      14.3586857231      19.0000000000
6894 2      17.2131783564      20.0000000000
6895 2      13.4439352668      16.0000000000
6896 2      15.9513914109      17.0000000000
6897 2      14.3164919192      15.0000000000
6898 2      17.3283300215      16.0000000000
6899 2      17.0598482583      17.0000000000
6900 2      16.8389417255      19.0000000000
6901 2      14.5944766180      18.0000000000
6902 2      16.5567931164      17.0000000000
6903 2      14.8768557160      17.0000000000
6904 2      15.7010111402      18.0000000000
6905 2      17.7492037362      17.0000000000
6906 2      15.5544875799      18.0000000000
6907 2      15.6461995609      22.0000000000
6908 2      16.9891782813      20.0000000000
6909 2      14.5031367245      16.0000000000
6910 2      15.7192846553      19.0000000000
6911 2      14.0829883715      15.0000000000
6912 2      17.1127403027      19.0000000000
6913 2      17.0600365696      19.0000000000
6914 2      16.2107935523      21.0000000000
6915 2      13.9459636057      20.0000000000
6916 2      12.7120219425      19.0000000000
6917 2      13.9837817454      15.0000000000
6918 2      15.1156192075      18.0000000000
6919 2      17.2368176570      21.0000000000
6920 2      14.3108363464      15.0000000000
6921 2      13.5976550834      16.0000000000
6922 2      15.0822040745      16.0000000000
6923 2      15.2478699366      15.0000000000
6924 2      15.6892554987      20.0000000000
6925 2      16.3078884535      18.0000000000
6926 2      14.5922048836      21.0000000000
6927 2      12.3718399997      16.0000000000
6928 2      15.4649051397      20.0000000000
6929 2      16.9292001558      13.0000000000
6930 2      15.8384267269      18.0000000000
6931 2      15.8254979268      19.0000000000
6932 2      19.8065228495      26.0000000000
6933 2      14.1979068135      18.0000000000
6934 2      13.4644708039      18.0000000000
6935 2      16.1546200152      19.0000000000
6936 2      15.8432693158      18.0000000000
6937 2      16.5370624926      21.0000000000
6938 2      15.6399685568      20.0000000000
6939 2      19.4513731577      14.0000000000
6940 2      18.1835090669      17.0000000000
6941 2      16.2392285499      18.0000000000
6942 2      16.7272791760      15.0000000000
6943 2      15.1589641510      17.0000000000
6944 2      14.0799319452      18.0000000000
6945 2      15.1227894764      16.0000000000
6946 2      13.9086853102      17.0000000000
6947 2      17.1018069520      20.0000000000
6948 2      16.3396037437      19.0000000000
6949 2      16.3270629355      20.0000000000
6950 2      17.1984008133      17.0000000000
6951 2      16.1882498950      15.0000000000
6952 2      17.5077346876      15.0000000000
6953 2      16.4722848936      19.0000000000
6954 2      16.8426299298      17.0000000000
6955 2      24.2355185695      22.0000000000
6956 2      19.5492332831      18.0000000000
6957 2      14.5321742406      19.0000000000
6958 2      17.3489374987      19.0000000000
6959 2      16.4566150330      16.0000000000
6960 2      16.3775521780      18.0000000000
6961 2      13.6463258538      19.0000000000
6962 2      16.8776731833      18.0000000000
6963 2      18.0875550853      15.0000000000
6964 2      17.0843247001      19.0000000000
6965 2      14.9380147731      16.0000000000
6966 2      19.1140757120      14.0000000000
6967 2      17.2746733346      19.0000000000
6968 2      15.8699513556      17.0000000000
6969 2      14.1358512218      17.0000000000
6970 2      17.1882884689      20.0000000000
6971 2      15.3099955013      18.0000000000
6972 2      17.9161398807      18.0000000000
6973 2      15.4675794050      19.0000000000
6974 2      13.2744546771      16.0000000000
6975 2      17.3281554521      24.0000000000
6976 2      12.6433964432      14.0000000000
6977 2      19.1538020311      19.0000000000
6978 2      15.1818313747      17.0000000000
6979 2      16.1501650980      21.0000000000
6980 2      13.1686602213      15.0000000000
6981 2      15.5844973292      20.0000000000
6982 2      16.6109063009      19.0000000000
6983 2      14.7561035794      17.0000000000
6984 2      14.0545184484      17.0000000000
6985 2      16.9878218442      19.0000000000
6986 2      16.7353690233      16.0000000000
6987 2      17.3749996854      18.0000000000
6988 2      19.0311464697      18.0000000000
6989 2      16.5175444674      21.0000000000
6990 2      15.6776709468      17.0000000000
6991 2      17.5894236288      19.0000000000
6992 2      15.3724865894      19.0000000000
6993 2      15.1444749686      19.0000000000
6994 2      14.5964709786      20.0000000000
6995 2      15.6921275143      16.0000000000
6996 2      17.3400576915      15.0000000000
6997 2      15.9320312227      20.0000000000
6998 2      13.3900819525      20.0000000000
6999 2      17.0840120911      20.0000000000
7000 2      13.0252586830      16.0000000000
7001 2      16.0928598711      23.0000000000
7002 2      16.6239334759      20.0000000000
7003 2      14.2429562684      16.0000000000
7004 2      14.5803615525      16.0000000000
7005 2      16.9951617085      16.0000000000
7006 2      14.8004827108      17.0000000000
7007 2      13.9322067301      14.0000000000
7008 2      15.4539728324      16.0000000000
7009 2      14.4539938781      14.0000000000
7010 2      14.1873804241      19.0000000000
7011 2      17.2865604842      16.0000000000
7012 2      14.9361864599      18.0000000000
7013 2      17.0032690742      15.0000000000
7014 2      15.0894171768      16.0000000000
7015 2      15.1905189309      17.0000000000
7016 2      12.9187284733      16.0000000000
7017 2      14.9573109405      12.0000000000
7018 2      16.6160134939      17.0000000000
7019 2      15.9662713503      18.0000000000
7020 2      14.6138111731      18.0000000000
7021 2      15.1078911325      22.0000000000
7022 2      14.9479739222      18.0000000000
7023 2      14.7624187108      18.0000000000
7024 2      14.0244134213      18.0000000000
7025 2      13.4914853187      15.0000000000
7026 2      14.6218917861      17.0000000000
7027 2      15.6281386855      13.0000000000
7028 2      14.7835048507      17.0000000000
7029 2      15.1889196584      19.0000000000
7030 2      16.2016602280      19.0000000000
7031 2      14.6408558070      16.0000000000
7032 2      15.2344242595      15.0000000000
7033 2      13.1480010591      16.0000000000
7034 2      15.6144989418      17.0000000000
7035 2      16.2657926231      16.0000000000
7036 2      14.4501211812      15.0000000000
7037 2      18.2633698175      18.0000000000
7038 2      12.7334854439      16.0000000000
7039 2      15.8300815037      18.0000000000
7040 2      17.1504988600      20.0000000000
7041 2      14.0047026042      16.0000000000
7042 2      14.2023716532      17.0000000000
7043 2      18.1653538086      18.0000000000
7044 2      13.3205308083      15.0000000000
7045 2      14.9029028821      14.0000000000
7046 2      18.8563096343      18.0000000000
7047 2      13.8605944009      17.0000000000
7048 2      16.6715172750      15.0000000000
7049 2      15.1201545851      19.0000000000
7050 2      14.8064971990      15.0000000000
7051 2      17.0141139799      17.0000000000
7052 2      15.0474707960      21.0000000000
7053 2      18.1790975628      21.0000000000
7054 2      17.2403192763      17.0000000000
7055 2      13.7937446731      16.0000000000
7056 2      13.8391614866      12.0000000000
7057 2      22.5697891542      18.0000000000
7058 2      15.6484859042      18.0000000000
7059 2      18.0798971633      21.0000000000
7060 2      13.7232863853      14.0000000000
7061 2      15.1650041958      13.0000000000
7062 2      14.8247635619      17.0000000000
7063 2      14.5958858653      16.0000000000
7064 2      17.7485455073      18.0000000000
7065 2      17.1891017298      19.0000000000
7066 2      16.2802222581      20.0000000000
7067 2      19.0236639752      17.0000000000
7068 2      18.8804839338      16.0000000000
7069 2      15.5408431795      15.0000000000
7070 2      13.8756281069      16.0000000000
7071 2      20.3298829801      24.0000000000
7072 2      15.6684262541      18.0000000000
7073 2      14.4848057464      18.0000000000
7074 2      18.9674116509      17.0000000000
7075 2      16.1978385468      19.0000000000
7076 2      16.3776117735      19.0000000000
7077 2      15.3525562562      15.0000000000
7078 2      13.8708293166      18.0000000000
7079 2      16.8193617939      18.0000000000
7080 2      16.4957399354      18.0000000000
7081 2      17.5832398885      16.0000000000
7082 2      15.3211116301      19.0000000000
7083 2      15.1708803478      16.0000000000
7084 2      14.3818032986      16.0000000000
7085 2      17.6081751171      18.0000000000
7086 2      17.0400387140      15.0000000000
7087 2      17.8915254549      21.0000000000
7088 2      19.2987152151      22.0000000000
7089 2      15.9206159566      16.0000000000
7090 2      16.6722526128      19.0000000000
7091 2      19.4725085857      19.0000000000
7092 2      17.9014123266      20.0000000000
7093 2      13.2919284287      18.0000000000
7094 2      15.0485179932      13.0000000000
7095 2      17.2045734496      20.0000000000
7096 2      11.3334772924      12.0000000000
7097 2      14.3655998910      17.0000000000
7098 2      13.5679875185      15.0000000000
7099 2      12.8377327168      18.0000000000
7100 2      15.3197513273      16.0000000000
7101 2      15.0909831416      19.0000000000
7102 2      15.3702623399      20.0000000000
7103 2      15.0650172840      17.0000000000
7104 2      16.5535402074      22.0000000000
7105 2      16.7705295401      20.0000000000
7106 2      15.0224117302      18.0000000000
7107 2      14.8766093410      18.0000000000
7108 2      17.7424920619      13.0000000000
7109 2      13.9425674673      15.0000000000
7110 2      14.8664544043      14.0000000000
7111 2      14.7563896769      15.0000000000
7112 2      17.0215779874      21.0000000000
7113 2      14.5247490767      18.0000000000
7114 2      19.7130021142      15.0000000000
7115 2      17.4394566319      19.0000000000
7116 2      16.8904058053      16.0000000000
7117 2      15.7387524777      20.0000000000
7118 2      15.2333817337      20.0000000000
7119 2      13.7765314671      19.0000000000
7120 2      16.3186223887      15.0000000000
7121 2      16.1255039835      15.0000000000
7122 2      15.4312610713      18.0000000000
7123 2      16.6116876635      16.0000000000
7124 2      16.7332811759      18.0000000000
7125 2      19.6608659542      15.0000000000
7126 2      14.1550658254      22.0000000000
7127 2      13.6918035627      19.0000000000
7128 2      15.4975330013      16.0000000000
7129 2      16.3428032916      19.0000000000
7130 2      13.8206934898      16.0000000000
7131 2      14.0257890203      18.0000000000
7132 2      15.3567674299      16.0000000000
7133 2      14.8075513627      17.0000000000
7134 2      13.4963797708      14.0000000000
7135 2      15.7059496506      21.0000000000
7136 2      15.5830124592      20.0000000000
7137 2      16.9712487023      23.0000000000
7138 2      14.6837560964      18.0000000000
7139 2      14.3970578895      16.0000000000
7140 2      16.9441969404      20.0000000000
7141 2      14.0805578804      15.0000000000
7142 2      16.5484898466      15.0000000000
7143 2      16.5077643304      18.0000000000
7144 2      14.3999030425      17.0000000000
7145 2      14.0645377437      15.0000000000
7146 2      17.2442433769      20.0000000000
7147 2      15.3153636584      15.0000000000
7148 2      15.5477333237      12.0000000000
7149 2      15.6114197886      18.0000000000
7150 2      13.2960356256      19.0000000000
7151 2      15.0473933346      17.0000000000
7152 2      15.9638530075      21.0000000000
7153 2      12.5031108395      16.0000000000
7154 2      14.7762558056      19.0000000000
7155 2      14.1713681006      15.0000000000
7156 2      14.4945913427      16.0000000000
7157 2      16.1081706320      18.0000000000
7158 2      14.6590587983      12.0000000000
7159 2      16.9373422162      21.0000000000
7160 2      16.5785448839      20.0000000000
7161 2      16.2408660742      20.0000000000
7162 2      16.8096692946      18.0000000000
7163 2      16.0124767743      22.0000000000
7164 2      17.9860192854      20.0000000000
7165 2      16.9374568775      21.0000000000
7166 2      15.7941383257      20.0000000000
7167 2      14.5569943381      15.0000000000
7168 2      16.5982607299      19.0000000000
7169 2      15.7269383589      18.0000000000
7170 2      12.4463045589      15.0000000000
7171 2      15.9708187872      21.0000000000
7172 2      17.2310754601      14.0000000000
7173 2      14.2094200607      15.0000000000
7174 2      14.4964132289      17.0000000000
7175 2      14.5991705287      14.0000000000
7176 2      24.7845379958      18.0000000000
7177 2      19.6567563147      21.0000000000
7178 2      15.6272425033      19.0000000000
7179 2      12.8915795099      14.0000000000
7180 2      18.4131308944      19.0000000000
7181 2      13.9525195979      13.0000000000
7182 2      19.8016790286      21.0000000000
7183 2      15.3790975998      20.0000000000
7184 2      13.5034972289      16.0000000000
7185 2      16.0305002819      18.0000000000
7186 2      15.1573345591      17.0000000000
7187 2      17.7711629844      22.0000000000
7188 2      13.1134909949      19.0000000000
7189 2      19.0395523415      22.0000000000
7190 2      14.5490192016      20.0000000000
7191 2      17.5298870096      20.0000000000
7192 2      14.4244927054      19.0000000000
7193 2      16.0774109308      19.0000000000
7194 2      16.8968060837      20.0000000000
7195 2      21.7603538648      24.0000000000
7196 2      14.6110243132      16.0000000000
7197 2      15.0062313202      17.0000000000
7198 2      18.1970909958      22.0000000000
7199 2      19.0353486522      18.0000000000
7200 2      16.5317566203      22.0000000000
7201 2      18.0135888942      15.0000000000
7202 2      14.4987043689      14.0000000000
7203 2      15.6023220236      20.0000000000
7204 2      14.0809711288      20.0000000000
7205 2      15.4079607776      19.0000000000
7206 2      14.4725112949      14.0000000000
7207 2      16.0088283487      21.0000000000
7208 2      17.5721704491      20.0000000000
7209 2      16.5135127667      19.0000000000
7210 2      21.7719108466      20.0000000000
7211 2      15.4021348967      20.0000000000
7212 2      15.5479465250      19.0000000000
7213 2      15.9603617394      15.0000000000
7214 2      18.7450504505      23.0000000000
7215 2      18.1485849933      16.0000000000
7216 2      17.4052921146      19.0000000000
7217 2      16.9104136973      16.0000000000
7218 2      15.5562127681      21.0000000000
7219 2      17.0971265943      17.0000000000
7220 2      18.2605868402      20.0000000000
7221 2      15.9876070167      18.0000000000
7222 2      15.9823031753      20.0000000000
7223 2      15.3506413835      18.0000000000
7224 2      15.1514108487      15.0000000000
7225 2      16.9928046981      18.0000000000
7226 2      17.1911981261      21.0000000000
7227 2      18.9516644166      18.0000000000
7228 2      16.1667023540      17.0000000000
7229 2      16.6460656759      19.0000000000
7230 2      16.7648200286      21.0000000000
7231 2      16.0396484907      22.0000000000
7232 2      14.6700251054      17.0000000000
7233 2      18.8933108703      13.0000000000
7234 2      18.2500358691      20.0000000000
7235 2      18.4569614519      18.0000000000
7236 2      19.9293492211      19.0000000000
7237 2      16.7336292464      21.0000000000
7238 2      14.4838176358      17.0000000000
7239 2      15.9906054320      20.0000000000
7240 2      13.7283298322      15.0000000000
7241 2      16.2798410412      15.0000000000
7242 2      16.7433951447      17.0000000000
7243 2      17.3239186802      17.0000000000
7244 2      13.9271866463      19.0000000000
7245 2      16.0451824212      21.0000000000
7246 2      16.2181758297      23.0000000000
7247 2      16.2338713834      15.0000000000
7248 2      15.6223986075      18.0000000000
7249 2      15.4322366025      17.0000000000
7250 2      15.0967718636      17.0000000000
7251 2      20.2430481632      22.0000000000
7252 2      17.2054118449      23.0000000000
7253 2      12.7724580499      13.0000000000
7254 2      15.5036784207      15.0000000000
7255 2      15.5048379902      19.0000000000
7256 2      14.9687978062      17.0000000000
7257 2      20.7981355587      15.0000000000
7258 2      17.3221538852      17.0000000000
7259 2      16.2843959708      18.0000000000
7260 2      13.4554040072      19.0000000000
7261 2      23.1663044693      17.0000000000
7262 2      14.5189981651      19.0000000000
7263 2      13.7743068284      12.0000000000
7264 2      18.4417577528      20.0000000000
7265 2      16.6802513293      16.0000000000
7266 2      13.0808059235      17.0000000000
7267 2      14.9147297080      15.0000000000
7268 2      20.1527855324      19.0000000000
7269 2      15.3584408688      19.0000000000
7270 2      14.1389932526      16.0000000000
7271 2      17.0331967617      20.0000000000
7272 2      14.3270549115      19.0000000000
7273 2      16.4967271775      19.0000000000
7274 2      14.2420951372      17.0000000000
7275 2      12.0481160845      15.0000000000
7276 2      15.3192225188      16.0000000000
7277 2      16.7419249656      18.0000000000
7278 2      13.9218932785      16.0000000000
7279 2      19.8550909176      15.0000000000
7280 2      14.1468897378      16.0000000000
7281 2      15.0903639172      17.0000000000
7282 2      18.9294129564      17.0000000000
7283 2      16.1861449546      18.0000000000
7284 2      16.5029686660      21.0000000000
7285 2      18.1210983181      17.0000000000
7286 2      16.0461332858      14.0000000000
7287 2      16.8491331017      21.0000000000
7288 2      13.5277743649      18.0000000000
7289 2      13.5083038358      15.0000000000
7290 2      14.3278722373      16.0000000000
7291 2      16.9891969741      22.0000000000
7292 2      18.3942550013      21.0000000000
7293 2      14.4519370158      18.0000000000
7294 2      16.2054623588      20.0000000000
7295 2      17.5322195630      17.0000000000
7296 2      13.3574850519      14.0000000000
7297 2      15.1925031969      16.0000000000
7298 2      15.8341162641      16.0000000000
7299 2      12.6709276850      14.0000000000
7300 2      17.7655630286      18.0000000000
7301 2      12.9808933519      16.0000000000
7302 2      16.3421974459      15.0000000000
7303 2      15.1331873453      18.0000000000
7304 2      19.6746070134      17.0000000000
7305 2      14.8631147874      20.0000000000
7306 2      14.9511326779      17.0000000000
7307 2      15.3880253163      17.0000000000
7308 2      18.5039895273      19.0000000000
7309 2      15.4781272840      15.0000000000
7310 2      16.5372069034      15.0000000000
7311 2      13.2213106469      15.0000000000
7312 2      18.2082083849      18.0000000000
7313 2      14.9674455821      16.0000000000
7314 2      16.0254770775      19.0000000000
7315 2      16.1314292322      23.0000000000
7316 2      18.8535047346      18.0000000000
7317 2      16.9002684155      18.0000000000
7318 2      16.1503972969      17.0000000000
7319 2      13.2103733227      16.0000000000
7320 2      17.7072840144      22.0000000000
7321 2      15.0274689192      16.0000000000
7322 2      13.2722467670      16.0000000000
7323 2      18.0807832606      19.0000000000
7324 2      15.3834784137      19.0000000000
7325 2      13.2993867636      17.0000000000
7326 2      15.8104516132      22.0000000000
7327 2      13.4222849632      16.0000000000
7328 2      17.1285023958      14.0000000000
7329 2      15.3561936328      18.0000000000
7330 2      19.0072568831      20.0000000000
7331 2      15.5374547116      16.0000000000
7332 2      13.1354098617      17.0000000000
7333 2      16.8066929896      18.0000000000
7334 2      15.8257831007      19.0000000000
7335 2      17.3530903575      15.0000000000
7336 2      14.7345015386      19.0000000000
7337 2      13.2270104923      16.0000000000
7338 2      15.5960509557      19.0000000000
7339 2      15.6470787496      18.0000000000
7340 2      15.9051947893      15.0000000000
7341 2      16.2928672930      17.0000000000
7342 2      15.9299878338      16.0000000000
7343 2      14.5675664322      14.0000000000
7344 2      16.0558663334      18.0000000000
7345 2      15.1377934494      17.0000000000
7346 2      12.8179711713      16.0000000000
7347 2      14.4835813738      18.0000000000
7348 2      16.3231603448      21.0000000000
7349 2      16.4224667058      19.0000000000
7350 2      16.0737037678      18.0000000000
7351 2      14.8937858290      18.0000000000
7352 2      15.0844997849      16.0000000000
7353 2      14.5126500749      18.0000000000
7354 2      16.5926778749      17.0000000000
7355 2      14.6261868130      16.0000000000
7356 2      12.9588988390      14.0000000000
7357 2      15.6007022491      16.0000000000
7358 2      17.3583512579      20.0000000000
7359 2      13.3449993498      17.0000000000
7360 2      16.9573816054      16.0000000000
7361 2      12.6775772741      14.0000000000
7362 2      13.4700027050      16.0000000000
7363 2      20.4894476042      18.0000000000
7364 2      14.5604390812      15.0000000000
7365 2      14.7609733941      17.0000000000
7366 2      18.1671342208      18.0000000000
7367 2      16.8985973497      16.0000000000
7368 2      14.0501077071      15.0000000000
7369 2      15.9663510379      20.0000000000
7370 2      20.3436418809      18.0000000000
7371 2      14.0987384963      20.0000000000
7372 2      15.2124019471      19.0000000000
7373 2      16.0830233402      21.0000000000
7374 2      17.5118156779      18.0000000000
7375 2      16.5876196544      17.0000000000
7376 2      15.1534637118      16.0000000000
7377 2      16.3790850466      16.0000000000
7378 2      17.1824652206      20.0000000000
7379 2      15.1226675808      19.0000000000
7380 2      13.6260900015      18.0000000000
7381 2      13.9891607062      15.0000000000
7382 2      16.3133651587      18.0000000000
7383 2      15.0255819869      18.0000000000
7384 2      15.4243597373      18.0000000000
7385 2      15.9628896402      19.0000000000
7386 2      15.7516956477      16.0000000000
7387 2      15.2584325646      21.0000000000
7388 2      14.8453655922      15.0000000000
7389 2      14.7504851023      16.0000000000
7390 2      15.2752255628      16.0000000000
7391 2      19.1464319010      17.0000000000
7392 2      16.0101956446      17.0000000000
7393 2      16.4494903506      15.0000000000
7394 2      16.8194176758      18.0000000000
7395 2      14.7476383059      20.0000000000
7396 2      15.8416569456      20.0000000000
7397 2      15.3074999837      20.0000000000
7398 2      16.4805720815      16.0000000000
7399 2      17.2924518729      20.0000000000
7400 2      18.9250274916      21.0000000000
7401 2      16.2721504354      15.0000000000
7402 2      13.8393726625      21.0000000000
7403 2      20.2543882864      20.0000000000
7404 2      19.4411694488      19.0000000000
7405 2      12.5890376654      15.0000000000
7406 2      15.1906629407      20.0000000000
7407 2      13.3513835223      17.0000000000
7408 2      15.1826446643      15.0000000000
7409 2      15.6715208233      20.0000000000
7410 2      13.7756799251      20.0000000000
7411 2      15.8697903029      20.0000000000
7412 2      16.3660560073      14.0000000000
7413 2      17.1911018645      16.0000000000
7414 2      13.9674030293      14.0000000000
7415 2      14.4754956512      18.0000000000
7416 2      16.1180875380      18.0000000000
7417 2      17.1831813973      17.0000000000
7418 2      15.0432320021      16.0000000000
7419 2      15.5715840713      18.0000000000
7420 2      15.5918025994      18.0000000000
7421 2      14.0074362166      17.0000000000
7422 2      15.8330867886      16.0000000000
7423 2      14.8704118277      18.0000000000
7424 2      16.9458317069      15.0000000000
7425 2      26.0781399533      19.0000000000
7426 2      14.7738390545      17.0000000000
7427 2      17.2546676745      23.0000000000
7428 2      16.9547305185      16.0000000000
7429 2      15.3027021691      17.0000000000
7430 2      15.3263803025      17.0000000000
7431 2      16.9042231091      17.0000000000
7432 2      20.0844688601      21.0000000000
7433 2      15.3306497781      18.0000000000
7434 2      16.6446967279      20.0000000000
7435 2      17.3240816168      18.0000000000
7436 2      16.5307008420      18.0000000000
7437 2      14.3873433133      19.0000000000
7438 2      17.7303255748      17.0000000000
7439 2      17.7562235319      19.0000000000
7440 2      14.7766605662      18.0000000000
7441 2      13.7437446389      16.0000000000
7442 2      17.3986964187      17.0000000000
7443 2      12.9615690104      17.0000000000
7444 2      17.5597372326      16.0000000000
7445 2      14.3477753473      18.0000000000
7446 2      18.2053296939      22.0000000000
7447 2      14.9269706578      15.0000000000
7448 2      15.0002781900      17.0000000000
7449 2      14.9135377677      18.0000000000
7450 2      15.3414251724      19.0000000000
7451 2      14.7941046018      19.0000000000
7452 2      15.0753556672      17.0000000000
7453 2      13.8720276491      16.0000000000
7454 2      14.2419617237      17.0000000000
7455 2      13.8211388765      13.0000000000
7456 2      15.8228467722      20.0000000000
7457 2      18.4256473655      16.0000000000
7458 2      17.9314425890      18.0000000000
7459 2      16.6072717721      19.0000000000
7460 2      22.6173270330      24.0000000000
7461 2      14.7582957104      15.0000000000
7462 2      11.7093183787      16.0000000000
7463 2      16.2817727967      21.0000000000
7464 2      16.9518297033      19.0000000000
7465 2      15.7413978081      14.0000000000
7466 2      13.9223208579      14.0000000000
7467 2      15.4967583574      17.0000000000
7468 2      16.7779059444      22.0000000000
7469 2      17.2589693842      24.0000000000
7470 2      16.4523005754      17.0000000000
7471 2      14.9517915949      15.0000000000
7472 2      13.4251587475      18.0000000000
7473 2      15.1495144786      14.0000000000
7474 2      13.2552507336      16.0000000000
7475 2      14.9995631954      17.0000000000
7476 2      13.8646214592      17.0000000000
7477 2      14.8944998403      17.0000000000
7478 2      15.6082041754      19.0000000000
7479 2      13.6486469193      15.0000000000
7480 2      15.3987868352      15.0000000000
7481 2      15.9274339446      18.0000000000
7482 2      14.3701333116      15.0000000000
7483 2      14.1739080034      16.0000000000
7484 2      17.9070332289      15.0000000000
7485 2      15.8362023963      15.0000000000
7486 2      16.5554510685      17.0000000000
7487 2      16.1040665361      15.0000000000
7488 2      14.8336244282      21.0000000000
7489 2      16.2933583577      14.0000000000
7490 2      16.1704534228      20.0000000000
7491 2      15.9302559432      18.0000000000
7492 2      14.7475813193      19.0000000000
7493 2      15.0553577925      19.0000000000
7494 2      16.7191260797      22.0000000000
7495 2      13.7069091853      15.0000000000
7496 2      15.7714279348      19.0000000000
7497 2      15.2454510059      15.0000000000
7498 2      14.6458270391      19.0000000000
7499 2      14.7598255389      19.0000000000
7500 2      16.0250726069      17.0000000000
7501 2      13.7848956205      16.0000000000
7502 2      12.8496107272      15.0000000000
7503 2      15.2782853516      16.0000000000
7504 2      13.1506911019      15.0000000000
7505 2      15.5894295112      15.0000000000
7506 2      15.0018008955      15.0000000000
7507 2      14.6790447532      16.0000000000
7508 2      18.3516472922      19.0000000000
7509 2      17.1970624830      20.0000000000
7510 2      14.9154128486      19.0000000000
7511 2      14.4075834871      20.0000000000
7512 2      18.2617837457      15.0000000000
7513 2      15.4324101362      22.0000000000
7514 2      17.1519947413      23.0000000000
7515 2      13.8623344688      16.0000000000
7516 2      14.7724601653      15.0000000000
7517 2      15.4762347121      17.0000000000
7518 2      15.0773242297      15.0000000000
7519 2      18.1029366763      16.0000000000
7520 2      15.3098036927      17.0000000000
7521 2      14.2603079413      15.0000000000
7522 2      13.4770722228      18.0000000000
7523 2      14.8202485888      19.0000000000
7524 2      15.7805703642      22.0000000000
7525 2      16.3776736593      18.0000000000
7526 2      17.7389654672      23.0000000000
7527 2      13.7370434646      14.0000000000
7528 2      13.7503599767      16.0000000000
7529 2      14.9691912398      21.0000000000
7530 2      15.3783396040      16.0000000000
7531 2      13.6632932611      18.0000000000
7532 2      15.6761603291      19.0000000000
7533 2      14.3067789677      17.0000000000
7534 2      14.6459360495      17.0000000000
7535 2      14.1326743695      18.0000000000
7536 2      14.6493513968      19.0000000000
7537 2      17.0347550012      17.0000000000
7538 2      17.0147180700      20.0000000000
7539 2      16.0842866055      17.0000000000
7540 2      14.9396725382      17.0000000000
7541 2      18.8011961430      16.0000000000
7542 2      15.2778933097      17.0000000000
7543 2      16.9357265349      22.0000000000
7544 2      16.0293442891      19.0000000000
7545 2      18.0339466423      21.0000000000
7546 2      17.1137945196      17.0000000000
7547 2      17.1029478772      14.0000000000
7548 2      13.6575043526      19.0000000000
7549 2      17.1093028480      18.0000000000
7550 2      15.7193538478      20.0000000000
7551 2      15.9842697030      20.0000000000
7552 2      13.3465842319      16.0000000000
7553 2      16.5335153830      20.0000000000
7554 2      13.6993615975      14.0000000000
7555 2      13.2604246028      17.0000000000
7556 2      14.5062323476      16.0000000000
7557 2      13.0107835725      14.0000000000
7558 2      16.1857280032      14.0000000000
7559 2      12.9203442630      15.0000000000
7560 2      18.2906880109      22.0000000000
7561 2      15.7804402498      23.0000000000
7562 2      20.1668696517      15.0000000000
7563 2      14.9400264679      15.0000000000
7564 2      16.7148086400      17.0000000000
7565 2      16.9795418446      13.0000000000
7566 2      21.8096455152      18.0000000000
7567 2      16.4901361939      19.0000000000
7568 2      20.0050862314      17.0000000000
7569 2      15.5760839503      14.0000000000
7570 2      15.1055169387      17.0000000000
7571 2      17.1165792914      19.0000000000
7572 2      16.9800122687      16.0000000000
7573 2      16.2822220216      15.0000000000
7574 2      17.9741495040      16.0000000000
7575 2      15.4746390240      17.0000000000
7576 2      16.5757058709      16.0000000000
7577 2      17.8795433806      21.0000000000
7578 2      15.3799359779      15.0000000000
7579 2      17.7302354651      18.0000000000
7580 2      16.5162668117      21.0000000000
7581 2      17.9853063020      16.0000000000
7582 2      13.8001983826      16.0000000000
7583 2      14.5682342467      16.0000000000
7584 2      16.3504455143      15.0000000000
7585 2      16.8132113672      17.0000000000
7586 2      14.8548173739      14.0000000000
7587 2      14.7883346635      16.0000000000
7588 2      14.4241960643      20.0000000000
7589 2      12.7044255779      12.0000000000
7590 2      17.5070357312      17.0000000000
7591 2      14.3418979085      18.0000000000
7592 2      14.9656301497      18.0000000000
7593 2      15.6000545126      18.0000000000
7594 2      15.0447185281      11.0000000000
7595 2      16.4268213690      17.0000000000
7596 2      15.6658510420      16.0000000000
7597 2      13.7691179697      18.0000000000
7598 2      17.9606359594      21.0000000000
7599 2      16.9589724134      19.0000000000
7600 2      15.5102927304      12.0000000000
7601 2      15.0649191494      20.0000000000
7602 2      18.2317735867      23.0000000000
7603 2      13.6449386454      17.0000000000
7604 2      15.3200504569      15.0000000000
7605 2      15.0702387934      16.0000000000
7606 2      22.7791645156      19.0000000000
7607 2      16.4747961122      16.0000000000
7608 2      11.6248398586      16.0000000000
7609 2      16.0961788331      15.0000000000
7610 2      16.9311056076      17.0000000000
7611 2      15.3813261504      20.0000000000
7612 2      20.0102950951      24.0000000000
7613 2      16.1001817519      22.0000000000
7614 2      13.6338331788      16.0000000000
7615 2      16.1245303891      21.0000000000
7616 2      17.0113472773      18.0000000000
7617 2      17.7428800616      20.0000000000
7618 2      16.9592459435      14.0000000000
7619 2      14.7318013155      17.0000000000
7620 2      16.3810756960      21.0000000000
7621 2      16.3280691619      18.0000000000
7622 2      13.4621159048      16.0000000000
7623 2      16.0327075075      20.0000000000
7624 2      16.2846379263      23.0000000000
7625 2      14.1221657834      16.0000000000
7626 2      17.2696839376      21.0000000000
7627 2      14.9234649777      16.0000000000
7628 2      16.3813488092      21.0000000000
7629 2      16.6717343551      17.0000000000
7630 2      17.1639199315      16.0000000000
7631 2      14.5320411905      19.0000000000
7632 2      15.6802431081      18.0000000000
7633 2      16.5866396635      17.0000000000
7634 2      15.7741457814      15.0000000000
7635 2      14.2852128893      19.0000000000
7636 2      16.9129768864      18.0000000000
7637 2      18.3093120365      15.0000000000
7638 2      16.3911878581      16.0000000000
7639 2      17.0123926657      17.0000000000
7640 2      15.1072510590      17.0000000000
7641 2      16.5242124990      18.0000000000
7642 2      18.0057042944      19.0000000000
7643 2      12.9895663884      15.0000000000
7644 2      16.7507529537      21.0000000000
7645 2      14.6364791151      16.0000000000
7646 2      12.9282515810      16.0000000000
7647 2      15.4775595803      20.0000000000
7648 2      15.2026667717      19.0000000000
7649 2      21.3088374923      16.0000000000
7650 2      16.8713987107      20.0000000000
7651 2      16.4356980879      18.0000000000
7652 2      19.1734902786      21.0000000000
7653 2      14.3586773626      19.0000000000
7654 2      15.6642492085      21.0000000000
7655 2      13.9740466154      17.0000000000
7656 2      20.5278110416      16.0000000000
7657 2      13.4340358394      18.0000000000
7658 2      18.4917769481      15.0000000000
7659 2      17.8597273637      20.0000000000
7660 2      16.3443667551      17.0000000000
7661 2      14.0105976829      16.0000000000
7662 2      16.9205307410      19.0000000000
7663 2      13.8014629022      16.0000000000
7664 2      15.8613654340      16.0000000000
7665 2      16.2674254401      24.0000000000
7666 2      15.1888978468      13.0000000000
7667 2      16.0313486581      16.0000000000
7668 2      16.0741422549      16.0000000000
7669 2      15.7613752266      19.0000000000
7670 2      17.0465557776      17.0000000000
7671 2      14.3075811576      19.0000000000
7672 2      17.7303849204      17.0000000000
7673 2      14.9845221079      21.0000000000
7674 2      16.2374418781      18.0000000000
7675 2      18.2754044967      19.0000000000
7676 2      17.1414831275      18.0000000000
7677 2      14.4498747065      17.0000000000
7678 2      19.7229298217      19.0000000000
7679 2      15.5842110888      16.0000000000
7680 2      15.9416853073      16.0000000000
7681 2      12.5862573501      18.0000000000
7682 2      15.1055947912      17.0000000000
7683 2      16.4361430234      16.0000000000
7684 2      14.9530249942      17.0000000000
7685 2      14.4642617765      17.0000000000
7686 2      17.5755001331      19.0000000000
7687 2      17.8787891309      19.0000000000
7688 2      14.4935777019      17.0000000000
7689 2      17.1167587279      16.0000000000
7690 2      16.8740281220      18.0000000000
7691 2      15.1317778297      20.0000000000
7692 2      14.8694027643      19.0000000000
7693 2      15.5887159325      18.0000000000
7694 2      14.8702350541      19.0000000000
7695 2      14.9786324388      19.0000000000
7696 2      15.2142737387      17.0000000000
7697 2      15.8993452895      17.0000000000
7698 2      15.3544325007      14.0000000000
7699 2      15.4383668283      21.0000000000
7700 2      14.0582007187      17.0000000000
7701 2      15.0645000247      16.0000000000
7702 2      15.7687778533      20.0000000000
7703 2      15.8877827620      21.0000000000
7704 2      15.3516053740      18.0000000000
7705 2      14.0643416337      18.0000000000
7706 2      15.6272592810      20.0000000000
7707 2      17.6654579483      25.0000000000
7708 2      17.2315695124      23.0000000000
7709 2      14.4451710958      16.0000000000
7710 2      12.3944729475      14.0000000000
7711 2      14.4757000169      16.0000000000
7712 2      20.8225449939      21.0000000000
7713 2      16.2124808903      18.0000000000
7714 2      14.3318973449      20.0000000000
7715 2      17.0776048964      19.0000000000
7716 2      13.6242090601      19.0000000000
7717 2      14.0703247351      15.0000000000
7718 2      17.6625465646      19.0000000000
7719 2      18.5094270015      18.0000000000
7720 2      16.8185322548      18.0000000000
7721 2      14.3348464071      17.0000000000
7722 2      15.3477009503      18.0000000000
7723 2      15.1321303670      16.0000000000
7724 2      14.7458509571      15.0000000000
7725 2      19.1275707094      17.0000000000
7726 2      14.8032021975      20.0000000000
7727 2      16.7260796928      16.0000000000
7728 2      17.6087628007      15.0000000000
7729 2      16.2352289172      15.0000000000
7730 2      16.0287317748      15.0000000000
7731 2      12.2222682122      15.0000000000
7732 2      16.5928755091      23.0000000000
7733 2      14.6956468684      20.0000000000
7734 2      16.7240696572      17.0000000000
7735 2      13.9214641019      16.0000000000
7736 2      18.4166516594      15.0000000000
7737 2      12.2252539872      14.0000000000
7738 2      17.6500129931      21.0000000000
7739 2      15.0543025798      16.0000000000
7740 2      16.8043209860      18.0000000000
7741 2      14.8423606538      15.0000000000
7742 2      16.7011765110      15.0000000000
7743 2      15.3496465028      18.0000000000
7744 2      18.4706249413      19.0000000000
7745 2      18.1047556602      15.0000000000
7746 2      15.6471104865      18.0000000000
7747 2      17.2326751185      19.0000000000
7748 2      17.2950366196      19.0000000000
7749 2      15.3523235040      17.0000000000
7750 2      15.4529707320      18.0000000000
7751 2      16.6983017220      20.0000000000
7752 2      14.6667064477      21.0000000000
7753 2      13.7982615937      18.0000000000
7754 2      16.0374875615      17.0000000000
7755 2      13.9994839250      15.0000000000
7756 2      15.5005899839      14.0000000000
7757 2      14.2520252723      15.0000000000
7758 2      14.5158614623      15.0000000000
7759 2      14.9230015862      20.0000000000
7760 2      15.8060197932      16.0000000000
7761 2      16.2245314306      19.0000000000
7762 2      13.9868932761      17.0000000000
7763 2      15.6205590512      17.0000000000
7764 2      15.3025360176      23.0000000000
7765 2      15.5486751231      14.0000000000
7766 2      15.6668065385      18.0000000000
7767 2      14.3274613810      12.0000000000
7768 2      15.0504785892      18.0000000000
7769 2      15.5294604276      21.0000000000
7770 2      18.0482141980      18.0000000000
7771 2      16.4594373452      19.0000000000
7772 2      16.2866539216      22.0000000000
7773 2      15.0579150093      13.0000000000
7774 2      13.9956642928      15.0000000000
7775 2      16.5111182418      20.0000000000
7776 2      14.8360659062      16.0000000000
7777 2      19.0309794289      12.0000000000
7778 2      14.1642561272      13.0000000000
7779 2      13.7645082093      18.0000000000
7780 2      15.5857372786      16.0000000000
7781 2      18.5143707913      18.0000000000
7782 2      18.1604384119      18.0000000000
7783 2      13.3370046137      16.0000000000
7784 2      16.7495912594      16.0000000000
7785 2      21.8303902952      19.0000000000
7786 2      14.7715324338      19.0000000000
7787 2      16.5698696128      18.0000000000
7788 2      14.3711756040      19.0000000000
7789 2      17.2416376931      18.0000000000
7790 2      14.8412929534      21.0000000000
7791 2      15.1334258502      18.0000000000
7792 2      18.1938109366      17.0000000000
7793 2      13.9970622928      20.0000000000
7794 2      14.8639586631      15.0000000000
7795 2      16.6229459959      18.0000000000
7796 2      15.6353203732      18.0000000000
7797 2      13.4355037788      15.0000000000
7798 2      21.9971826876      20.0000000000
7799 2      19.0785308837      21.0000000000
7800 2      15.3216347322      17.0000000000
7801 2      14.9337337296      18.0000000000
7802 2      15.6432100092      17.0000000000
7803 2      15.1091895637      20.0000000000
7804 2      16.6368822202      17.0000000000
7805 2      16.3151488659      15.0000000000
7806 2      13.5704889335      17.0000000000
7807 2      13.9052646167      17.0000000000
7808 2      15.8074613924      16.0000000000
7809 2      15.3348197976      19.0000000000
7810 2      16.1786312703      18.0000000000
7811 2      17.7159629665      16.0000000000
7812 2      15.6491275881      19.0000000000
7813 2      18.7127292495      20.0000000000
7814 2      16.3050938961      20.0000000000
7815 2      15.5395979199      19.0000000000
7816 2      14.5456759270      17.0000000000
7817 2      19.0514688768      17.0000000000
7818 2      16.3363440941      16.0000000000
7819 2      14.5136834820      14.0000000000
7820 2      13.2770208882      17.0000000000
7821 2      15.8290777603      18.0000000000
7822 2      13.7318570816      19.0000000000
7823 2      13.0370461528      15.0000000000
7824 2      16.7954837327      20.0000000000
7825 2      18.3780540017      17.0000000000
7826 2      14.1605679622      17.0000000000
7827 2      14.6488186380      19.0000000000
7828 2      13.6387425981      14.0000000000
7829 2      15.6751989476      21.0000000000
7830 2      14.5775266030      17.0000000000
7831 2      16.3732206414      16.0000000000
7832 2      15.9317798772      16.0000000000
7833 2      19.6368312406      15.0000000000
7834 2      16.0860342292      19.0000000000
7835 2      15.1101278250      19.0000000000
7836 2      16.2023301930      21.0000000000
7837 2      18.2886592208      19.0000000000
7838 2      16.3233026905      20.0000000000
7839 2      17.1336035617      15.0000000000
7840 2      15.4942067081      20.0000000000
7841 2      15.5254684331      18.0000000000
7842 2      15.2042916290      17.0000000000
7843 2      15.5093605346      20.0000000000
7844 2      16.7351278943      16.0000000000
7845 2      17.6346151350      19.0000000000
7846 2      15.6083296603      16.0000000000
7847 2      14.9485101045      19.0000000000
7848 2      16.7322231036      17.0000000000
7849 2      14.1149710851      19.0000000000
7850 2      14.7990419165      14.0000000000
7851 2      14.9424650938      16.0000000000
7852 2      16.9499096614      20.0000000000
7853 2      14.3564102334      16.0000000000
7854 2      13.7494480913      17.0000000000
7855 2      14.0724720010      19.0000000000
7856 2      16.8132207682      18.0000000000
7857 2      18.5081681376      17.0000000000
7858 2      14.6690051153      14.0000000000
7859 2      12.5073645740      13.0000000000
7860 2      16.2108011450      18.0000000000
7861 2      15.2830718101      15.0000000000
7862 2      14.1995836967      19.0000000000
7863 2      15.4704899934      20.0000000000
7864 2      16.3983642595      19.0000000000
7865 2      18.6010184172      15.0000000000
7866 2      13.8095718877      20.0000000000
7867 2      16.0307544316      20.0000000000
7868 2      13.0826219832      16.0000000000
7869 2      16.6992997815      17.0000000000
7870 2      13.8944527799      17.0000000000
7871 2      14.7507012472      18.0000000000
7872 2      15.3672537679      12.0000000000
7873 2      17.2878619748      18.0000000000
7874 2      18.9694372900      19.0000000000
7875 2      19.9366452231      18.0000000000
7876 2      15.6168315456      15.0000000000
7877 2      15.6330687486      15.0000000000
7878 2      14.4513374403      17.0000000000
7879 2      12.9930945586      15.0000000000
7880 2      15.8926338269      19.0000000000
7881 2      15.9512825758      16.0000000000
7882 2      15.1840920857      15.0000000000
7883 2      17.1764457958      18.0000000000
7884 2      15.4178658511      20.0000000000
7885 2      15.8386843550      15.0000000000
7886 2      16.1035301567      16.0000000000
7887 2      12.7088413661      16.0000000000
7888 2      13.9296696815      18.0000000000
7889 2      16.7935509698      22.0000000000
7890 2      16.3114433456      17.0000000000
7891 2      16.9375490450      15.0000000000
7892 2      16.3961149525      15.0000000000
7893 2      16.6206051057      21.0000000000
7894 2      17.5659814599      21.0000000000
7895 2      14.9313751686      14.0000000000
7896 2      15.4919328739      21.0000000000
7897 2      15.6507557871      19.0000000000
7898 2      14.6013395120      20.0000000000
7899 2      14.0219242714      20.0000000000
7900 2      14.4016832887      17.0000000000
7901 2      14.8937142818      19.0000000000
7902 2      19.0251191518      20.0000000000
7903 2      13.3613430456      13.0000000000
7904 2      15.8529636341      17.0000000000
7905 2      15.1705513911      19.0000000000
7906 2      12.6132426892      14.0000000000
7907 2      15.6762095343      19.0000000000
7908 2      14.0276753613      19.0000000000
7909 2      15.8833438693      17.0000000000
7910 2      16.8081160915      22.0000000000
7911 2      17.3083572981      24.0000000000
7912 2      14.3636150744      19.0000000000
7913 2      17.7307099485      19.0000000000
7914 2      18.6229658456      22.0000000000
7915 2      14.1397772283      17.0000000000
7916 2      18.3011724846      19.0000000000
7917 2      16.4864736297      19.0000000000
7918 2      17.7010774261      19.0000000000
7919 2      15.1285443311      14.0000000000
7920 2      15.8898923369      18.0000000000
7921 2      15.3676879121      20.0000000000
7922 2      19.3561163804      18.0000000000
7923 2      13.3493760467      15.0000000000
7924 2      15.2723726194      15.0000000000
7925 2      18.0143465443      21.0000000000
7926 2      14.9831957877      19.0000000000
7927 2      17.5765415550      23.0000000000
7928 2      14.8653808295      17.0000000000
7929 2      15.6519497788      18.0000000000
7930 2      15.8736161687      18.0000000000
7931 2      15.4060670974      16.0000000000
7932 2      15.5032776685      16.0000000000
7933 2      16.7737346989      17.0000000000
7934 2      12.9427194123      11.0000000000
7935 2      14.7972680771      16.0000000000
7936 2      13.9713917364      18.0000000000
7937 2      16.0673456465      19.0000000000
7938 2      15.7151376994      15.0000000000
7939 2      12.8602308235      17.0000000000
7940 2      18.2452435637      20.0000000000
7941 2      16.1663942444      17.0000000000
7942 2      11.4186369604      15.0000000000
7943 2      14.5643745096      14.0000000000
7944 2      18.5399005488      23.0000000000
7945 2      16.1411460542      18.0000000000
7946 2      13.2700387352      14.0000000000
7947 2      19.3574531632      13.0000000000
7948 2      13.9920394225      18.0000000000
7949 2      18.9693360556      21.0000000000
7950 2      15.4487574075      15.0000000000
7951 2      17.0437878983      19.0000000000
7952 2      15.1885113261      18.0000000000
7953 2      16.4722735313      16.0000000000
7954 2      15.1967851322      15.0000000000
7955 2      15.4341121351      16.0000000000
7956 2      15.4304818360      18.0000000000
7957 2      14.8775628589      15.0000000000
7958 2      14.9377823108      19.0000000000
7959 2      15.0843410772      16.0000000000
7960 2      17.2733086471      11.0000000000
7961 2      15.6742547004      18.0000000000
7962 2      14.6925769834      19.0000000000
7963 2      17.0125356240      17.0000000000
7964 2      17.1613806527      16.0000000000
7965 2      15.9166279129      21.0000000000
7966 2      16.1682345066      17.0000000000
7967 2      15.1535277292      14.0000000000
7968 2      17.5702733174      19.0000000000
7969 2      16.2795780193      19.0000000000
7970 2      15.6864848665      15.0000000000
7971 2      15.1243854368      17.0000000000
7972 2      17.9834615985      19.0000000000
7973 2      15.7085544257      16.0000000000
7974 2      12.3271284885      18.0000000000
7975 2      14.6615322223      15.0000000000
7976 2      17.5389488758      20.0000000000
7977 2      12.9745863708      19.0000000000
7978 2      18.2484577624      22.0000000000
7979 2      15.1061318242      21.0000000000
7980 2      14.8631468383      14.0000000000
7981 2      18.2467409981      20.0000000000
7982 2      12.6738598444      14.0000000000
7983 2      14.1291495481      17.0000000000
7984 2      14.7167743796      14.0000000000
7985 2      15.0711030092      17.0000000000
7986 2      15.1535673249      18.0000000000
7987 2      15.2632627528      18.0000000000
7988 2      15.3524823326      19.0000000000
7989 2      17.0851489894      22.0000000000
7990 2      17.1493306518      18.0000000000
7991 2      15.9638794181      16.0000000000
7992 2      16.0392427677      15.0000000000
7993 2      16.6579061387      17.0000000000
7994 2      14.2922183945      15.0000000000
7995 2      14.4709515936      16.0000000000
7996 2      14.9400870666      16.0000000000
7997 2      15.0673054527      16.0000000000
7998 2      14.5873868161      17.0000000000
7999 2      17.2707675971      21.0000000000
8000 2      15.3656857739      18.0000000000
8001 2      15.2347033071      15.0000000000
8002 2      16.6037916026      15.0000000000
8003 2      15.0480169288      21.0000000000
8004 2      15.4871262141      17.0000000000
8005 2      14.9874518581      19.0000000000
8006 2      13.9613983559      17.0000000000
8007 2      17.1324645029      16.0000000000
8008 2      15.8145278965      17.0000000000
8009 2      16.9191188754      16.0000000000
8010 2      12.9970764545      19.0000000000
8011 2      16.3297955332      18.0000000000
8012 2      14.2086407217      16.0000000000
8013 2      13.1031149440      16.0000000000
8014 2      17.6909235201      17.0000000000
8015 2      14.1810068614      22.0000000000
8016 2      15.4007558784      18.0000000000
8017 2      13.1434015472      17.0000000000
8018 2      16.6791184292      14.0000000000
8019 2      15.1507841567      14.0000000000
8020 2      17.8676066324      15.0000000000
8021 2      16.1802962656      17.0000000000
8022 2      15.9423953984      18.0000000000
8023 2      17.0142795235      16.0000000000
8024 2      18.4816800674      16.0000000000
8025 2      17.6367529161      18.0000000000
8026 2      16.0474547640      18.0000000000
8027 2      13.3534944298      15.0000000000
8028 2      14.2746173299      16.0000000000
8029 2      15.0831533887      20.0000000000
8030 2      15.1229105960      18.0000000000
8031 2      15.9354506068      20.0000000000
8032 2      14.5070864194      12.0000000000
8033 2      14.8538535608      19.0000000000
8034 2      17.6644595257      16.0000000000
8035 2      19.4111009745      18.0000000000
8036 2      17.5543666704      14.0000000000
8037 2      14.2499189217      17.0000000000
8038 2      15.5210279433      20.0000000000
8039 2      15.8170576811      18.0000000000
8040 2      16.6474856992      17.0000000000
8041 2      14.2621482404      22.0000000000
8042 2      17.5430036065      17.0000000000
8043 2      14.4340412731      18.0000000000
8044 2      17.0975445222      17.0000000000
8045 2      16.2775710738      14.0000000000
8046 2      17.7054466984      15.0000000000
8047 2      15.4246820046      18.0000000000
8048 2      17.5054271361      19.0000000000
8049 2      16.6765582379      20.0000000000
8050 2      16.3609953642      18.0000000000
8051 2      15.0786815498      20.0000000000
8052 2      17.9316467583      17.0000000000
8053 2      13.9710434635      15.0000000000
8054 2      17.1156827558      17.0000000000
8055 2      15.7301995240      18.0000000000
8056 2      15.7528630450      17.0000000000
8057 2      15.6917751827      21.0000000000
8058 2      14.2271133100      20.0000000000
8059 2      17.4919990198      19.0000000000
8060 2      14.4038942102      18.0000000000
8061 2      16.2959997319      19.0000000000
8062 2      17.5775121911      17.0000000000
8063 2      14.3280214661      14.0000000000
8064 2      16.7558526891      17.0000000000
8065 2      13.7915153918      17.0000000000
8066 2      12.9060952658      17.0000000000
8067 2      16.1018505302      18.0000000000
8068 2      13.8389195065      17.0000000000
8069 2      17.2081975851      20.0000000000
8070 2      16.4799596448      16.0000000000
8071 2      23.0802493566      19.0000000000
8072 2      15.8180685038      18.0000000000
8073 2      18.4914466008      21.0000000000
8074 2      16.6256057246      21.0000000000
8075 2      18.4190530214      17.0000000000
8076 2      16.2810557214      18.0000000000
8077 2      16.3881984804      14.0000000000
8078 2      15.6945727674      15.0000000000
8079 2      16.5147722495      19.0000000000
8080 2      16.1844753550      19.0000000000
8081 2      15.7264797638      17.0000000000
8082 2      13.6866497135      19.0000000000
8083 2      14.8794563639      15.0000000000
8084 2      13.7720650383      19.0000000000
8085 2      13.3850767481      15.0000000000
8086 2      15.7747426469      15.0000000000
8087 2      15.4543417351      20.0000000000
8088 2      16.0711742031      21.0000000000
8089 2      14.3128903800      18.0000000000
8090 2      15.8006536728      19.0000000000
8091 2      14.6137523442      15.0000000000
8092 2      15.7415732190      15.0000000000
8093 2      17.0032232112      19.0000000000
8094 2      13.9689029451      19.0000000000
8095 2      17.3567041309      21.0000000000
8096 2      17.2123675028      22.0000000000
8097 2      13.6976899681      18.0000000000
8098 2      13.6455741045      14.0000000000
8099 2      15.0531594273      16.0000000000
8100 2      14.6883361869      19.0000000000
8101 2      13.1400630888      14.0000000000
8102 2      14.9610587273      19.0000000000
8103 2      20.2784761365      16.0000000000
8104 2      17.2428913594      19.0000000000
8105 2      20.2197050228      20.0000000000
8106 2      13.7210564962      16.0000000000
8107 2      17.5874496207      20.0000000000
8108 2      15.3946226718      17.0000000000
8109 2      15.1817814324      15.0000000000
8110 2      16.6235131774      19.0000000000
8111 2      15.4618179031      20.0000000000
8112 2      17.1153723389      18.0000000000
8113 2      16.2754278433      19.0000000000
8114 2      16.4740413136      18.0000000000
8115 2      15.0161980992      19.0000000000
8116 2      21.5218874654      22.0000000000
8117 2      18.0796835847      15.0000000000
8118 2      16.6902650970      19.0000000000
8119 2      14.6531204754      16.0000000000
8120 2      13.8985590350      17.0000000000
8121 2      15.5102429652      18.0000000000
8122 2      13.0771851937      17.0000000000
8123 2      15.5118619201      14.0000000000
8124 2      17.3961433516      17.0000000000
8125 2      14.5967111368      15.0000000000
8126 2      17.2028317391      18.0000000000
8127 2      13.3944182118      14.0000000000
8128 2      19.3895209848      19.0000000000
8129 2      13.3568541093      14.0000000000
8130 2      16.6272534409      18.0000000000
8131 2      13.7079962427      15.0000000000
8132 2      15.1269882184      18.0000000000
8133 2      14.1921929664      18.0000000000
8134 2      16.0629012587      15.0000000000
8135 2      14.7257223320      17.0000000000
8136 2      18.1468372081      20.0000000000
8137 2      15.4351701040      15.0000000000
8138 2      14.5399517490      18.0000000000
8139 2      14.7691452590      18.0000000000
8140 2      14.9826316009      18.0000000000
8141 2      15.4108848422      17.0000000000
8142 2      11.9657364289      15.0000000000
8143 2      14.8024200982      17.0000000000
8144 2      14.1062973701      19.0000000000
8145 2      16.1102351643      19.0000000000
8146 2      18.7113112064      17.0000000000
8147 2      12.8626539919      17.0000000000
8148 2      20.0206900642      18.0000000000
8149 2      15.1930231142      16.0000000000
8150 2      15.6752596989      16.0000000000
8151 2      14.8494359080      16.0000000000
8152 2      13.9680734113      15.0000000000
8153 2      13.2946743798      15.0000000000
8154 2      17.6151796256      21.0000000000
8155 2      17.1924767807      20.0000000000
8156 2      17.3917275085      21.0000000000
8157 2      12.9482155252      17.0000000000
8158 2      15.0165247166      17.0000000000
8159 2      16.1956548646      20.0000000000
8160 2      14.6717486980      17.0000000000
8161 2      15.8292731310      18.0000000000
8162 2      14.9528834841      17.0000000000
8163 2      15.4778240697      17.0000000000
8164 2      14.4875432071      16.0000000000
8165 2      14.3649474783      21.0000000000
8166 2      17.7534403876      16.0000000000
8167 2      14.6630194975      15.0000000000
8168 2      16.2811921960      22.0000000000
8169 2      14.5982190092      18.0000000000
8170 2      16.9428390948      19.0000000000
8171 2      14.0541252674      18.0000000000
8172 2      19.4994989957      18.0000000000
8173 2      16.5098400380      21.0000000000
8174 2      14.2372174231      16.0000000000
8175 2      13.9413053053      20.0000000000
8176 2      14.4028524076      14.0000000000
8177 2      13.6219431694      16.0000000000
8178 2      14.6330930957      17.0000000000
8179 2      16.3173019866      20.0000000000
8180 2      12.8028134054      16.0000000000
8181 2      19.5035865839      16.0000000000
8182 2      15.4329722021      16.0000000000
8183 2      13.7472220815      19.0000000000
8184 2      14.9537806736      16.0000000000
8185 2      17.7053839726      18.0000000000
8186 2      17.9682434741      23.0000000000
8187 2      16.9822417243      18.0000000000
8188 2      14.9639186334      16.0000000000
8189 2      15.9717712420      20.0000000000
8190 2      15.4690549081      19.0000000000
8191 2      14.8387927769      17.0000000000
8192 2      15.1675548436      22.0000000000
8193 2      15.7374766370      16.0000000000
8194 2      16.1442087589      19.0000000000
8195 2      17.2494385337      21.0000000000
8196 2      16.3225312321      17.0000000000
8197 2      15.0942943937      15.0000000000
8198 2      19.3310919565      19.0000000000
8199 2      14.9642503173      19.0000000000
8200 2      16.5846742758      14.0000000000
8201 2      18.4567840797      19.0000000000
8202 2      13.7258802638      18.0000000000
8203 2      15.1112127028      17.0000000000
8204 2      15.5774792209      22.0000000000
8205 2      15.9282130358      15.0000000000
8206 2      17.2136752792      19.0000000000
8207 2      16.3664499141      17.0000000000
8208 2      13.2277000378      18.0000000000
8209 2      15.0592667998      19.0000000000
8210 2      15.0765025578      21.0000000000
8211 2      15.4684265642      14.0000000000
8212 2      17.0761393888      19.0000000000
8213 2      15.2164810455      18.0000000000
8214 2      16.4881030363      19.0000000000
8215 2      16.3289828954      16.0000000000
8216 2      16.3362085629      13.0000000000
8217 2      15.2772818053      20.0000000000
8218 2      15.8053550954      18.0000000000
8219 2      12.2189442711      15.0000000000
8220 2      13.7029812931      14.0000000000
8221 2      14.1626984274      16.0000000000
8222 2      16.3139174418      17.0000000000
8223 2      14.7452424708      16.0000000000
8224 2      15.7520703007      18.0000000000
8225 2      13.9120712176      19.0000000000
8226 2      14.9679873514      17.0000000000
8227 2      13.2445170796      18.0000000000
8228 2      15.2349183594      15.0000000000
8229 2      17.2054669844      23.0000000000
8230 2      16.8330826286      19.0000000000
8231 2      15.0352261762      21.0000000000
8232 2      19.6925518378      25.0000000000
8233 2      17.1340975054      13.0000000000
8234 2      18.8407997575      20.0000000000
8235 2      13.8452278527      15.0000000000
8236 2      17.5116014547      20.0000000000
8237 2      15.6275248627      18.0000000000
8238 2      17.8786361598      23.0000000000
8239 2      14.5999395120      19.0000000000
8240 2      14.9413984705      18.0000000000
8241 2      14.8496464855      20.0000000000
8242 2      18.4925708881      16.0000000000
8243 2      13.3603042730      16.0000000000
8244 2      19.3775940492      17.0000000000
8245 2      13.0237101952      16.0000000000
8246 2      13.9548373799      20.0000000000
8247 2      17.4750897565      19.0000000000
8248 2      12.9045265606      14.0000000000
8249 2      16.4783382066      21.0000000000
8250 2      16.0997858537      19.0000000000
8251 2      14.3248431861      19.0000000000
8252 2      15.4262646372      17.0000000000
8253 2      14.5892398102      14.0000000000
8254 2      17.7169395391      21.0000000000
8255 2      16.6525475710      21.0000000000
8256 2      18.2773398482      20.0000000000
8257 2      16.0896743244      15.0000000000
8258 2      15.3660093914      16.0000000000
8259 2      15.1781712727      15.0000000000
8260 2      16.5881884310      20.0000000000
8261 2      16.2929842933      20.0000000000
8262 2      14.2543099887      16.0000000000
8263 2      16.7401617333      18.0000000000
8264 2      14.9809968284      18.0000000000
8265 2      14.4582372248      19.0000000000
8266 2      15.7970935332      18.0000000000
8267 2      14.4101554881      15.0000000000
8268 2      16.5811931464      17.0000000000
8269 2      15.6640046757      17.0000000000
8270 2      12.8868256623      14.0000000000
8271 2      14.5274350290      16.0000000000
8272 2      13.6001678990      18.0000000000
8273 2      16.3918674945      21.0000000000
8274 2      17.1526969760      16.0000000000
8275 2      16.5581694203      17.0000000000
8276 2      22.4042067946      20.0000000000
8277 2      14.7850136818      18.0000000000
8278 2      13.0560081108      15.0000000000
8279 2      24.1050305114      18.0000000000
8280 2      18.8110086082      15.0000000000
8281 2      13.4030743781      19.0000000000
8282 2      13.0471910314      16.0000000000
8283 2      13.3055964614      16.0000000000
8284 2      14.0076872099      16.0000000000
8285 2      15.9559791447      16.0000000000
8286 2      15.7169173322      19.0000000000
8287 2      13.5473861237      14.0000000000
8288 2      13.5336070063      18.0000000000
8289 2      16.9605993131      20.0000000000
8290 2      15.7703744244      20.0000000000
8291 2      15.1648486430      17.0000000000
8292 2      13.3190811101      15.0000000000
8293 2      14.4330909671      16.0000000000
8294 2      17.5555616593      19.0000000000
8295 2      16.5572462086      19.0000000000
8296 2      15.4450164836      16.0000000000
8297 2      17.5236308528      16.0000000000
8298 2      13.4650567927      15.0000000000
8299 2      14.9582459659      19.0000000000
8300 2      15.6938708704      16.0000000000
8301 2      13.2353387741      12.0000000000
8302 2      14.5330381184      17.0000000000
8303 2      15.6650836021      17.0000000000
8304 2      17.3999633491      19.0000000000
8305 2      17.8761994417      20.0000000000
8306 2      16.4666921660      17.0000000000
8307 2      16.1402689333      17.0000000000
8308 2      15.7943648364      17.0000000000
8309 2      15.8159147737      19.0000000000
8310 2      15.6935754318      23.0000000000
8311 2      13.8784992523      15.0000000000
8312 2      14.5205790225      21.0000000000
8313 2      15.0561552172      18.0000000000
8314 2      13.6192640127      14.0000000000
8315 2      14.3316412746      20.0000000000
8316 2      13.4073813642      20.0000000000
8317 2      16.3324513804      20.0000000000
8318 2      16.2552424617      16.0000000000
8319 2      15.1379274267      20.0000000000
8320 2      20.1542224789      20.0000000000
8321 2      17.8141395633      20.0000000000
8322 2      14.4918562492      15.0000000000
8323 2      18.7409837700      22.0000000000
8324 2      14.1553949677      15.0000000000
8325 2      15.8517288239      20.0000000000
8326 2      15.6634071369      23.0000000000
8327 2      16.9577996555      18.0000000000
8328 2      16.0911286202      18.0000000000
8329 2      22.1507792924      14.0000000000
8330 2      17.5915220112      22.0000000000
8331 2      15.9189264846      21.0000000000
8332 2      14.4750154807      18.0000000000
8333 2      14.6743775959      16.0000000000
8334 2      14.4914686940      16.0000000000
8335 2      16.5653348125      14.0000000000
8336 2      14.1074048358      17.0000000000
8337 2      18.4053742204      19.0000000000
8338 2      16.5186891077      21.0000000000
8339 2      16.7773003173      16.0000000000
8340 2      15.4488909757      15.0000000000
8341 2      18.0681758899      20.0000000000
8342 2      19.6579629828      18.0000000000
8343 2      16.7204086753      19.0000000000
8344 2      17.2618338143      24.0000000000
8345 2      16.9110803513      21.0000000000
8346 2      17.4177728366      21.0000000000
8347 2      15.7068549536      19.0000000000
8348 2      14.3272789844      17.0000000000
8349 2      15.5454864206      17.0000000000
8350 2      14.3807331163      16.0000000000
8351 2      15.2889918690      15.0000000000
8352 2      17.1331566856      19.0000000000
8353 2      14.7828549827      18.0000000000
8354 2      14.5861682616      18.0000000000
8355 2      13.2540907307      16.0000000000
8356 2      18.2265415965      17.0000000000
8357 2      17.2136047930      23.0000000000
8358 2      17.9275533425      19.0000000000
8359 2      18.3485693604      24.0000000000
8360 2      14.2228015107      15.0000000000
8361 2      14.7952367794      20.0000000000
8362 2      17.4514077804      20.0000000000
8363 2      13.9912433311      14.0000000000
8364 2      16.2712083225      19.0000000000
8365 2      13.6777376937      15.0000000000
8366 2      14.1642087990      16.0000000000
8367 2      15.9585273202      18.0000000000
8368 2      14.3414141957      18.0000000000
8369 2      16.4207388292      18.0000000000
8370 2      14.0540808459      16.0000000000
8371 2      18.4700419499      23.0000000000
8372 2      14.8938432945      17.0000000000
8373 2      15.1384514788      16.0000000000
8374 2      16.4371149256      22.0000000000
8375 2      17.1165387560      17.0000000000
8376 2      18.0447754212      18.0000000000
8377 2      16.1974038374      21.0000000000
8378 2      16.9179079391      19.0000000000
8379 2      16.9038619686      19.0000000000
8380 2      16.3193315485      18.0000000000
8381 2      14.1223554820      14.0000000000
8382 2      16.2981383910      18.0000000000
8383 2      12.9060294516      18.0000000000
8384 2      14.4584403396      20.0000000000
8385 2      14.1956934690      15.0000000000
8386 2      15.8805443049      20.0000000000
8387 2      15.8746293847      17.0000000000
8388 2      15.5245357371      18.0000000000
8389 2      15.7639934144      19.0000000000
8390 2      18.9952073680      15.0000000000
8391 2      13.2893432504      16.0000000000
8392 2      13.8306519244      19.0000000000
8393 2      16.4408772759      16.0000000000
8394 2      15.1587088792      18.0000000000
8395 2      16.3941705679      19.0000000000
8396 2      16.3613574087      14.0000000000
8397 2      16.7536230645      17.0000000000
8398 2      15.0335757449      22.0000000000
8399 2      16.2085656834      18.0000000000
8400 2      14.1198791028      17.0000000000
8401 2      17.2950579344      19.0000000000
8402 2      15.2360489284      15.0000000000
8403 2      17.0288303609      21.0000000000
8404 2      14.6388295410      16.0000000000
8405 2      14.5973041666      17.0000000000
8406 2      16.8754362053      18.0000000000
8407 2      17.2715863217      11.0000000000
8408 2      15.3492357656      20.0000000000
8409 2      16.3966403771      19.0000000000
8410 2      15.3638976349      15.0000000000
8411 2      14.0602900814      15.0000000000
8412 2      14.8727057868      17.0000000000
8413 2      16.0887203780      15.0000000000
8414 2      18.4098100368      20.0000000000
8415 2      20.5233496372      17.0000000000
8416 2      13.9363217821      17.0000000000
8417 2      15.3707021831      22.0000000000
8418 2      17.7118673250      18.0000000000
8419 2      13.9988220621      16.0000000000
8420 2      14.8123107012      15.0000000000
8421 2      15.7647444633      21.0000000000
8422 2      17.2477478782      17.0000000000
8423 2      16.3122472761      17.0000000000
8424 2      20.8639776727      17.0000000000
8425 2      16.1262649287      15.0000000000
8426 2      14.1672997822      19.0000000000
8427 2      14.6293181982      18.0000000000
8428 2      16.4686436664      17.0000000000
8429 2      17.9280022154      21.0000000000
8430 2      19.3300938471      19.0000000000
8431 2      14.8754022710      14.0000000000
8432 2      16.6615302809      20.0000000000
8433 2      17.9211257072      16.0000000000
8434 2      18.3892567589      20.0000000000
8435 2      15.8525800026      17.0000000000
8436 2      13.5737021358      16.0000000000
8437 2      18.5622299435      24.0000000000
8438 2      15.3654134248      14.0000000000
8439 2      13.0659560558      13.0000000000
8440 2      21.3789967486      17.0000000000
8441 2      13.8626823299      17.0000000000
8442 2      18.3561520688      23.0000000000
8443 2      15.4685257701      15.0000000000
8444 2      14.0947334439      19.0000000000
8445 2      18.9827943787      15.0000000000
8446 2      14.2855517659      16.0000000000
8447 2      16.4063254195      17.0000000000
8448 2      14.8284272009      17.0000000000
8449 2      15.9394279300      16.0000000000
8450 2      14.6878055285      19.0000000000
8451 2      16.9141057838      19.0000000000
8452 2      21.1776415153      18.0000000000
8453 2      15.2077192934      19.0000000000
8454 2      15.5424049757      21.0000000000
8455 2      14.5206639979      15.0000000000
8456 2      15.3362504172      18.0000000000
8457 2      17.9837164706      17.0000000000
8458 2      16.5339583579      20.0000000000
8459 2      14.7677377316      17.0000000000
8460 2      17.8606553370      19.0000000000
8461 2      14.7779013982      20.0000000000
8462 2      15.0566017152      19.0000000000
8463 2      15.5850001897      14.0000000000
8464 2      15.3745493140      22.0000000000
8465 2      15.5490827576      19.0000000000
8466 2      16.2180620959      19.0000000000
8467 2      15.6617203527      17.0000000000
8468 2      12.3621603890      14.0000000000
8469 2      14.7457335721      16.0000000000
8470 2      20.1505939662      17.0000000000
8471 2      15.1859229683      20.0000000000
8472 2      19.0265687669      18.0000000000
8473 2      14.4198066639      19.0000000000
8474 2      15.8705084561      17.0000000000
8475 2      15.7522659186      19.0000000000
8476 2      17.3757062505      19.0000000000
8477 2      17.9278865242      16.0000000000
8478 2      19.5022543992      22.0000000000
8479 2      16.9182952569      17.0000000000
8480 2      16.5389947489      16.0000000000
8481 2      12.6947641713      15.0000000000
8482 2      16.3533866986      19.0000000000
8483 2      14.4918392717      20.0000000000
8484 2      16.9866026677      15.0000000000
8485 2      14.4770349587      16.0000000000
8486 2      15.4550858453      19.0000000000
8487 2      14.3604800507      15.0000000000
8488 2      15.0895835332      18.0000000000
8489 2      18.3744654642      20.0000000000
8490 2      14.9385320436      18.0000000000
8491 2      18.6913324772      17.0000000000
8492 2      16.4770066510      17.0000000000
8493 2      12.9327866366      17.0000000000
8494 2      12.8197413944      18.0000000000
8495 2      17.7109489964      18.0000000000
8496 2      18.0394153176      15.0000000000
8497 2      14.3745761957      20.0000000000
8498 2      16.2778648372      18.0000000000
8499 2      15.4056381146      19.0000000000
8500 2      14.2870796595      15.0000000000
8501 2      15.6448390416      19.0000000000
8502 2      14.5130142991      16.0000000000
8503 2      14.8398751798      18.0000000000
8504 2      16.7168148530      18.0000000000
8505 2      15.3711909696      18.0000000000
8506 2      16.4204708286      20.0000000000
8507 2      13.7875813678      17.0000000000
8508 2      15.0808191146      16.0000000000
8509 2      13.8499900472      19.0000000000
8510 2      13.4275737218      15.0000000000
8511 2      15.7115194558      14.0000000000
8512 2      16.2941955742      16.0000000000
8513 2      15.4173562299      16.0000000000
8514 2      18.3576591003      18.0000000000
8515 2      18.2528702776      20.0000000000
8516 2      15.0469394396      18.0000000000
8517 2      18.5126553298      17.0000000000
8518 2      15.4764393020      16.0000000000
8519 2      13.4890693081      17.0000000000
8520 2      15.2636433274      18.0000000000
8521 2      16.6319390596      16.0000000000
8522 2      15.4194916234      20.0000000000
8523 2      19.7805517025      17.0000000000
8524 2      14.5902357470      18.0000000000
8525 2      15.1738228584      19.0000000000
8526 2      13.1732294972      16.0000000000
8527 2      20.1416579397      20.0000000000
8528 2      17.1495680592      19.0000000000
8529 2      21.3988099832      14.0000000000
8530 2      17.2239180496      18.0000000000
8531 2      15.1360520000      20.0000000000
8532 2      15.1491175034      15.0000000000
8533 2      13.4807781515      19.0000000000
8534 2      19.7617645784      16.0000000000
8535 2      18.9581365096      21.0000000000
8536 2      17.9152364204      15.0000000000
8537 2      12.8172103619      15.0000000000
8538 2      20.0204789823      17.0000000000
8539 2      12.9041754302      13.0000000000
8540 2      15.6195334657      16.0000000000
8541 2      16.2642979411      18.0000000000
8542 2      15.9724899345      18.0000000000
8543 2      17.0041596568      18.0000000000
8544 2      15.9464908995      21.0000000000
8545 2      17.3838938099      22.0000000000
8546 2      14.2848163346      15.0000000000
8547 2      17.4215310006      18.0000000000
8548 2      12.5106257882      15.0000000000
8549 2      15.6394940235      17.0000000000
8550 2      15.3060673447      18.0000000000
8551 2      16.9958832506      19.0000000000
8552 2      17.1294503805      18.0000000000
8553 2      16.3060647821      19.0000000000
8554 2      13.9992204773      14.0000000000
8555 2      16.0296268826      22.0000000000
8556 2      16.7726703678      14.0000000000
8557 2      15.9393866319      18.0000000000
8558 2      19.9006329772      23.0000000000
8559 2      16.0550210038      17.0000000000
8560 2      13.6952485447      15.0000000000
8561 2      16.1523202144      19.0000000000
8562 2      17.1064920873      18.0000000000
8563 2      14.1855982681      14.0000000000
8564 2      16.0085089668      16.0000000000
8565 2      14.4175712100      17.0000000000
8566 2      14.7725074216      17.0000000000
8567 2      16.6466462800      17.0000000000
8568 2      16.4044210061      19.0000000000
8569 2      15.5352260098      17.0000000000
8570 2      15.4955258705      16.0000000000
8571 2      14.2958308755      18.0000000000
8572 2      16.8100957877      21.0000000000
8573 2      18.0930678482      19.0000000000
8574 2      15.5967262446      18.0000000000
8575 2      15.8781685816      19.0000000000
8576 2      15.6369511055      17.0000000000
8577 2      15.1926165311      19.0000000000
8578 2      13.8743749774      16.0000000000
8579 2      15.9728430300      17.0000000000
8580 2      16.5096140200      16.0000000000
8581 2      13.2871610824      19.0000000000
8582 2      14.6673114711      16.0000000000
8583 2      13.8902937816      17.0000000000
8584 2      16.4146949495      17.0000000000
8585 2      15.7992154861      20.0000000000
8586 2      16.1957124998      20.0000000000
8587 2      17.9363000762      17.0000000000
8588 2      18.8661590576      15.0000000000
8589 2      14.9373123818      15.0000000000
8590 2      15.1872782009      21.0000000000
8591 2      18.3130327975      14.0000000000
8592 2      13.6817067986      18.0000000000
8593 2      14.8124284640      17.0000000000
8594 2      15.5620426511      19.0000000000
8595 2      17.5348631029      17.0000000000
8596 2      13.7884535106      15.0000000000
8597 2      13.2786913941      15.0000000000
8598 2      17.4337126891      19.0000000000
8599 2      19.2460073742      18.0000000000
8600 2      15.0861384334      16.0000000000
8601 2      14.8058673867      14.0000000000
8602 2      13.4024911337      14.0000000000
8603 2      13.3671554683      17.0000000000
8604 2      14.7022939149      18.0000000000
8605 2      15.6131199896      22.0000000000
8606 2      14.4956164481      15.0000000000
8607 2      13.0405270588      15.0000000000
8608 2      13.5909736993      16.0000000000
8609 2      19.3964879485      19.0000000000
8610 2      17.1845095380      18.0000000000
8611 2      18.5494740169      21.0000000000
8612 2      16.6471768188      18.0000000000
8613 2      20.3784308568      17.0000000000
8614 2      15.7124573807      20.0000000000
8615 2      17.4416252313      17.0000000000
8616 2      19.0139559991      22.0000000000
8617 2      11.6149999311      13.0000000000
8618 2      13.8008430256      14.0000000000
8619 2      16.4369416868      20.0000000000
8620 2      16.0681180387      21.0000000000
8621 2      14.2878916851      19.0000000000
8622 2      17.0209752201      14.0000000000
8623 2      17.8484278434      20.0000000000
8624 2      15.6160598110      20.0000000000
8625 2      15.6888094515      17.0000000000
8626 2      18.2783426584      14.0000000000
8627 2      14.1615568170      16.0000000000
8628 2      14.6059519893      18.0000000000
8629 2      14.0467579574      18.0000000000
8630 2      16.5864064499      17.0000000000
8631 2      14.9908016115      18.0000000000
8632 2      14.8973820983      14.0000000000
8633 2      14.9843992859      19.0000000000
8634 2      14.9109230958      14.0000000000
8635 2      16.1755550168      16.0000000000
8636 2      16.3022414237      20.0000000000
8637 2      13.6729250494      17.0000000000
8638 2      16.4338527801      18.0000000000
8639 2      14.1367293381      16.0000000000
8640 2      13.7759346989      18.0000000000
8641 2      21.4960040015      14.0000000000
8642 2      13.4681025478      16.0000000000
8643 2      18.0630645478      18.0000000000
8644 2      15.6777941004      16.0000000000
8645 2      16.3152950751      22.0000000000
8646 2      16.5506522133      18.0000000000
8647 2      12.5886934894      16.0000000000
8648 2      13.0636736168      17.0000000000
8649 2      13.4566385822      15.0000000000
8650 2      18.3560441983      17.0000000000
8651 2      17.7645661869      17.0000000000
8652 2      17.2758821855      16.0000000000
8653 2      14.6773753027      17.0000000000
8654 2      18.7387780973      20.0000000000
8655 2      15.1332364700      18.0000000000
8656 2      16.8651868682      21.0000000000
8657 2      19.2700741351      21.0000000000
8658 2      16.2848875256      19.0000000000
8659 2      16.9252192291      17.0000000000
8660 2      15.5009202015      19.0000000000
8661 2      14.6820281419      21.0000000000
8662 2      13.5773382698      14.0000000000
8663 2      18.5864430917      16.0000000000
8664 2      15.3100352123      18.0000000000
8665 2      14.7443660583      16.0000000000
8666 2      19.7108530410      19.0000000000
8667 2      12.9132620938      15.0000000000
8668 2      14.3055159881      14.0000000000
8669 2      15.9669170155      22.0000000000
8670 2      14.3557160377      15.0000000000
8671 2      13.9305937125      18.0000000000
8672 2      15.4250583308      15.0000000000
8673 2      14.6598483964      16.0000000000
8674 2      13.1023208064      15.0000000000
8675 2      17.9917762682      23.0000000000
8676 2      16.4687775995      17.0000000000
8677 2      17.5849733558      19.0000000000
8678 2      15.3928693479      19.0000000000
8679 2      14.1478441679      17.0000000000
8680 2      13.7883493076      16.0000000000
8681 2      17.1550125607      18.0000000000
8682 2      16.3671321254      14.0000000000
8683 2      14.7194392557      17.0000000000
8684 2      15.7610981245      13.0000000000
8685 2      17.6688378769      19.0000000000
8686 2      17.0330327942      15.0000000000
8687 2      15.9172169087      20.0000000000
8688 2      15.3577450436      18.0000000000
8689 2      21.7488699456      16.0000000000
8690 2      19.0594969667      15.0000000000
8691 2      12.6438960113      16.0000000000
8692 2      17.3880037057      19.0000000000
8693 2      16.7086520274      20.0000000000
8694 2      17.9589410045      16.0000000000
8695 2      16.7586581688      16.0000000000
8696 2      13.3455637615      19.0000000000
8697 2      13.6010636924      18.0000000000
8698 2      16.5609297552      19.0000000000
8699 2      19.5795514417      15.0000000000
8700 2      13.4540987098      16.0000000000
8701 2      15.1438825653      19.0000000000
8702 2      16.0301469390      14.0000000000
8703 2      18.3450728854      22.0000000000
8704 2      14.6832310579      18.0000000000
8705 2      15.5619035616      17.0000000000
8706 2      15.6024378774      17.0000000000
8707 2      18.8877641740      15.0000000000
8708 2      14.1348250196      17.0000000000
8709 2      14.2862033639      18.0000000000
8710 2      17.2563050675      15.0000000000
8711 2      14.2823539254      19.0000000000
8712 2      15.9710074142      18.0000000000
8713 2      14.6972638989      16.0000000000
8714 2      14.8672551491      19.0000000000
8715 2      13.7964826590      15.0000000000
8716 2      16.7957260675      21.0000000000
8717 2      15.2193300451      16.0000000000
8718 2      22.9376553464      18.0000000000
8719 2      12.6016380725      16.0000000000
8720 2      19.2709485534      19.0000000000
8721 2      15.0214283963      17.0000000000
8722 2      14.1399502464      19.0000000000
8723 2      12.9727791833      14.0000000000
8724 2      13.2783167954      18.0000000000
8725 2      18.2061909562      22.0000000000
8726 2      16.9410023918      16.0000000000
8727 2      16.0657953933      16.0000000000
8728 2      16.0510028313      20.0000000000
8729 2      14.5174673286      19.0000000000
8730 2      13.6066302464      16.0000000000
8731 2      13.5032531215      17.0000000000
8732 2      14.9045470586      19.0000000000
8733 2      16.4218074348      15.0000000000
8734 2      13.8993967907      16.0000000000
8735 2      14.3534230865      16.0000000000
8736 2      17.9738728689      17.0000000000
8737 2      14.9884011760      18.0000000000
8738 2      14.5378849706      17.0000000000
8739 2      14.5098677778      18.0000000000
8740 2      14.9790796443      19.0000000000
8741 2      17.6517667996      22.0000000000
8742 2      15.4571150867      17.0000000000
8743 2      14.2041201400      19.0000000000
8744 2      15.3838337390      17.0000000000
8745 2      15.1704612389      18.0000000000
8746 2      14.3802640886      19.0000000000
8747 2      14.9224052201      18.0000000000
8748 2      15.7930712346      23.0000000000
8749 2      15.5781992865      20.0000000000
8750 2      12.4065990788      15.0000000000
8751 2      15.9368924877      18.0000000000
8752 2      14.4871468810      18.0000000000
8753 2      11.8471481468      15.0000000000
8754 2      17.8030653667      18.0000000000
8755 2      18.9052784577      14.0000000000
8756 2      17.8970209968      16.0000000000
8757 2      15.5425569672      16.0000000000
8758 2      15.8145783278      17.0000000000
8759 2      18.4387110032      17.0000000000
8760 2      14.3120530295      17.0000000000
8761 2      13.0478779178      14.0000000000
8762 2      16.9951657809      15.0000000000
8763 2      13.9650643937      17.0000000000
8764 2      13.8616235051      14.0000000000
8765 2      17.8403055420      17.0000000000
8766 2      18.3294335295      14.0000000000
8767 2      15.1389594995      19.0000000000
8768 2      14.7467267914      14.0000000000
8769 2      14.0229697105      19.0000000000
8770 2      15.6135516335      16.0000000000
8771 2      16.3405841207      19.0000000000
8772 2      14.3088863659      16.0000000000
8773 2      18.6442986808      20.0000000000
8774 2      15.7306702565      13.0000000000
8775 2      16.0309552260      17.0000000000
8776 2      22.6729170673      16.0000000000
8777 2      13.4416471481      19.0000000000
8778 2      15.5654796831      19.0000000000
8779 2      17.7165906524      18.0000000000
8780 2      14.5173166015      19.0000000000
8781 2      16.6765630559      20.0000000000
8782 2      15.1877139430      22.0000000000
8783 2      16.8450241907      21.0000000000
8784 2      15.1838030830      16.0000000000
8785 2      18.3614287372      21.0000000000
8786 2      14.8099473737      17.0000000000
8787 2      14.0630310423      16.0000000000
8788 2      14.2737881971      15.0000000000
8789 2      16.8881995467      16.0000000000
8790 2      15.9317078645      19.0000000000
8791 2      16.0786604130      17.0000000000
8792 2      17.5645900294      19.0000000000
8793 2      16.5005872209      17.0000000000
8794 2      15.7088925258      14.0000000000
8795 2      16.4440354097      15.0000000000
8796 2      14.9042979570      19.0000000000
8797 2      17.1217796448      16.0000000000
8798 2      13.4055627208      11.0000000000
8799 2      15.2603730647      18.0000000000
8800 2      12.5687447138      15.0000000000
8801 2      18.2655631503      19.0000000000
8802 2      15.7570624472      18.0000000000
8803 2      15.0838765675      16.0000000000
8804 2      16.4143711773      18.0000000000
8805 2      15.0647283634      15.0000000000
8806 2      18.9759697567      17.0000000000
8807 2      13.8370268661      15.0000000000
8808 2      18.6001338743      22.0000000000
8809 2      20.1034714630      21.0000000000
8810 2      14.9274546965      17.0000000000
8811 2      17.0223435539      15.0000000000
8812 2      15.0939898130      14.0000000000
8813 2      13.5466383797      15.0000000000
8814 2      14.3655480831      21.0000000000
8815 2      18.6970317185      15.0000000000
8816 2      16.4270746053      16.0000000000
8817 2      17.0697663276      17.0000000000
8818 2      16.2454034370      18.0000000000
8819 2      14.7823131850      17.0000000000
8820 2      13.3522671322      14.0000000000
8821 2      14.8606837752      21.0000000000
8822 2      13.2320685290      14.0000000000
8823 2      16.6250904803      20.0000000000
8824 2      14.5729913851      17.0000000000
8825 2      13.6975977841      16.0000000000
8826 2      16.7803070634      21.0000000000
8827 2      15.3768858639      12.0000000000
8828 2      13.9146448534      17.0000000000
8829 2      16.1879862257      18.0000000000
8830 2      14.1306992646      17.0000000000
8831 2      14.2380396963      17.0000000000
8832 2      14.5774771690      21.0000000000
8833 2      15.3532947655      13.0000000000
8834 2      15.6277641162      18.0000000000
8835 2      13.3776303392      13.0000000000
8836 2      13.4619638277      17.0000000000
8837 2      16.5203313709      19.0000000000
8838 2      13.6322350783      17.0000000000
8839 2      15.0751672006      16.0000000000
8840 2      20.8995194875      22.0000000000
8841 2      16.1614732001      19.0000000000
8842 2      15.4808676870      20.0000000000
8843 2      19.7096956491      21.0000000000
8844 2      15.5341804784      19.0000000000
8845 2      16.7436022968      18.0000000000
8846 2      19.7753985174      20.0000000000
8847 2      15.8458724042      19.0000000000
8848 2      18.7317305823      18.0000000000
8849 2      17.0637291933      18.0000000000
8850 2      15.5758207424      14.0000000000
8851 2      15.2863843133      18.0000000000
8852 2      14.5254209396      16.0000000000
8853 2      16.5180571325      21.0000000000
8854 2      18.6320156684      22.0000000000
8855 2      14.9118459601      17.0000000000
8856 2      14.8324562483      15.0000000000
8857 2      14.5158360215      18.0000000000
8858 2      15.4463124720      21.0000000000
8859 2      17.5827752336      20.0000000000
8860 2      13.6893968879      19.0000000000
8861 2      15.5303988653      16.0000000000
8862 2      16.2521996225      18.0000000000
8863 2      13.8762014132      19.0000000000
8864 2      17.7658390131      21.0000000000
8865 2      19.5724114395      19.0000000000
8866 2      12.5097182348      18.0000000000
8867 2      14.3197320551      13.0000000000
8868 2      14.9427529980      19.0000000000
8869 2      15.0297614704      23.0000000000
8870 2      14.5659279417      18.0000000000
8871 2      15.5237473360      18.0000000000
8872 2      14.3005150553      17.0000000000
8873 2      17.2487426868      14.0000000000
8874 2      18.6349068642      18.0000000000
8875 2      18.1998622716      16.0000000000
8876 2      18.0798844142      17.0000000000
8877 2      12.9753460755      17.0000000000
8878 2      17.3019792862      18.0000000000
8879 2      19.0563926772      20.0000000000
8880 2      17.7780306624      17.0000000000
8881 2      23.1287725936      21.0000000000
8882 2      17.0971428378      18.0000000000
8883 2      14.0589733921      18.0000000000
8884 2      19.0287023902      15.0000000000
8885 2      16.4185248015      18.0000000000
8886 2      16.3810270863      19.0000000000
8887 2      15.3337531932      15.0000000000
8888 2      14.8183925498      16.0000000000
8889 2      19.0098995743      20.0000000000
8890 2      18.0883517265      15.0000000000
8891 2      12.6300174062      15.0000000000
8892 2      17.8629060284      22.0000000000
8893 2      15.4650528679      16.0000000000
8894 2      12.4440325344      14.0000000000
8895 2      17.6676401286      17.0000000000
8896 2      16.9842914472      20.0000000000
8897 2      17.3286221154      15.0000000000
8898 2      15.1582197530      21.0000000000
8899 2      14.2286939168      17.0000000000
8900 2      14.3415032631      19.0000000000
8901 2      18.5460900124      15.0000000000
8902 2      15.5080761759      14.0000000000
8903 2      19.9367359061      17.0000000000
8904 2      16.8660233937      19.0000000000
8905 2      14.2430597575      17.0000000000
8906 2      14.0041823823      17.0000000000
8907 2      16.3117355558      17.0000000000
8908 2      16.8227961904      19.0000000000
8909 2      16.1032568508      18.0000000000
8910 2      16.0693762825      18.0000000000
8911 2      11.7849375466      17.0000000000
8912 2      17.0806845991      20.0000000000
8913 2      16.2519080846      21.0000000000
8914 2      16.5640965598      15.0000000000
8915 2      16.7253078761      17.0000000000
8916 2      14.6909651292      17.0000000000
8917 2      21.5662714440      21.0000000000
8918 2      18.5724438908      16.0000000000
8919 2      16.1129465007      17.0000000000
8920 2      14.5493627914      17.0000000000
8921 2      17.4049898877      19.0000000000
8922 2      15.0195858374      17.0000000000
8923 2      14.4132852536      19.0000000000
8924 2      15.3487020350      15.0000000000
8925 2      16.0661666963      17.0000000000
8926 2      15.9391091705      17.0000000000
8927 2      14.6223732810      17.0000000000
8928 2      18.4264016574      20.0000000000
8929 2      14.5714919994      16.0000000000
8930 2      17.0669430789      22.0000000000
8931 2      18.5516421721      20.0000000000
8932 2      15.5745046510      18.0000000000
8933 2      15.8543017833      16.0000000000
8934 2      14.4204698272      17.0000000000
8935 2      15.7697564792      15.0000000000
8936 2      16.9108041281      16.0000000000
8937 2      14.7621936099      18.0000000000
8938 2      15.3879092579      19.0000000000
8939 2      14.6215546215      20.0000000000
8940 2      19.8897189146      16.0000000000
8941 2      12.9438627245      16.0000000000
8942 2      16.6277355728      20.0000000000
8943 2      14.5970229866      20.0000000000
8944 2      15.9349922591      20.0000000000
8945 2      16.2407653991      15.0000000000
8946 2      15.1756005028      16.0000000000
8947 2      16.6131687852      20.0000000000
8948 2      14.9693017187      17.0000000000
8949 2      17.8347853628      16.0000000000
8950 2      16.5333716194      21.0000000000
8951 2      15.4510194112      18.0000000000
8952 2      18.6694930926      22.0000000000
8953 2      18.0451012003      19.0000000000
8954 2      17.9022464112      24.0000000000
8955 2      15.0249873812      19.0000000000
8956 2      16.9356680488      17.0000000000
8957 2      16.9042696021      17.0000000000
8958 2      16.4251308575      21.0000000000
8959 2      16.5300755001      17.0000000000
8960 2      16.4840223457      19.0000000000
8961 2      16.1439984810      21.0000000000
8962 2      14.1833027731      14.0000000000
8963 2      14.5029489287      20.0000000000
8964 2      19.1331316274      17.0000000000
8965 2      16.1225687486      19.0000000000
8966 2      16.7978531598      18.0000000000
8967 2      14.4535395720      16.0000000000
8968 2      19.2698564268      14.0000000000
8969 2      15.5699524326      18.0000000000
8970 2      17.8147311837      19.0000000000
8971 2      13.4823125569      17.0000000000
8972 2      15.6001909489      17.0000000000
8973 2      14.0926198055      12.0000000000
8974 2      16.3497198374      18.0000000000
8975 2      16.5338735157      22.0000000000
8976 2      14.9347888130      18.0000000000
8977 2      16.5929203718      16.0000000000
8978 2      17.2284863709      16.0000000000
8979 2      17.6057539281      19.0000000000
8980 2      14.3927509021      17.0000000000
8981 2      14.4029486233      20.0000000000
8982 2      19.5014861051      16.0000000000
8983 2      14.8210557578      17.0000000000
8984 2      14.0878728685      15.0000000000
8985 2      16.2581320135      17.0000000000
8986 2      13.0194527250      16.0000000000
8987 2      14.4868418248      16.0000000000
8988 2      14.6260574378      17.0000000000
8989 2      16.2515472221      17.0000000000
8990 2      15.1558227704      15.0000000000
8991 2      15.0389097304      19.0000000000
8992 2      13.9004201906      15.0000000000
8993 2      18.6884979313      18.0000000000
8994 2      16.7515877444      20.0000000000
8995 2      14.8455549864      18.0000000000
8996 2      16.2437763915      15.0000000000
8997 2      15.4505095144      20.0000000000
8998 2      15.1045624107      18.0000000000
8999 2      15.7538320924      14.0000000000
9000 2      16.9396009774      18.0000000000
9001 2      16.9870898110      17.0000000000
9002 2      15.1982448485      18.0000000000
9003 2      15.4692580343      17.0000000000
9004 2      19.9856249270      17.0000000000
9005 2      14.7222726792      17.0000000000
9006 2      18.3223909878      19.0000000000
9007 2      14.6997499571      17.0000000000
9008 2      16.5345628949      19.0000000000
9009 2      15.5635589394      15.0000000000
9010 2      13.8501528636      15.0000000000
9011 2      14.3078981934      12.0000000000
9012 2      15.7862565663      19.0000000000
9013 2      16.9086124350      21.0000000000
9014 2      13.8403232343      14.0000000000
9015 2      14.6145890037      19.0000000000
9016 2      16.3138158975      21.0000000000
9017 2      13.3721458476      15.0000000000
9018 2      18.6401546527      20.0000000000
9019 2      14.3817432107      17.0000000000
9020 2      15.1908773744      17.0000000000
9021 2      14.7584302330      20.0000000000
9022 2      15.2735261946      16.0000000000
9023 2      14.2548644082      17.0000000000
9024 2      17.7736908233      15.0000000000
9025 2      13.7811857129      14.0000000000
9026 2      13.7847964084      17.0000000000
9027 2      15.2563972233      20.0000000000
9028 2      16.2872297574      17.0000000000
9029 2      18.0182469404      21.0000000000
9030 2      15.0667843545      20.0000000000
9031 2      16.3115193349      15.0000000000
9032 2      16.3696594382      21.0000000000
9033 2      18.7453433751      16.0000000000
9034 2      15.5805359980      22.0000000000
9035 2      14.4956887732      15.0000000000
9036 2      15.0054105637      20.0000000000
9037 2      17.2986443772      19.0000000000
9038 2      17.3856697701      19.0000000000
9039 2      14.8562568059      20.0000000000
9040 2      15.1670794758      19.0000000000
9041 2      13.9739166373      18.0000000000
9042 2      15.4284747303      21.0000000000
9043 2      16.3231455587      20.0000000000
9044 2      14.5602984353      17.0000000000
9045 2      15.7023926882      20.0000000000
9046 2      18.3591142160      17.0000000000
9047 2      17.1897067948      26.0000000000
9048 2      15.6952682073      19.0000000000
9049 2      11.7816962335      15.0000000000
9050 2      15.2113768346      20.0000000000
9051 2      15.5799415313      18.0000000000
9052 2      14.9830983871      14.0000000000
9053 2      15.0252223939      19.0000000000
9054 2      14.9027305278      19.0000000000
9055 2      15.8829068875      19.0000000000
9056 2      17.2252811626      18.0000000000
9057 2      14.4216615455      17.0000000000
9058 2      13.1608169396      13.0000000000
9059 2      17.1771460399      18.0000000000
9060 2      15.7841788042      19.0000000000
9061 2      14.3812924113      15.0000000000
9062 2      14.6350013049      20.0000000000
9063 2      15.9415972059      16.0000000000
9064 2      17.2159437261      20.0000000000
9065 2      16.1921817210      23.0000000000
9066 2      13.9889551672      14.0000000000
9067 2      15.8781857479      16.0000000000
9068 2      17.4660416782      18.0000000000
9069 2      13.6303685912      18.0000000000
9070 2      18.4957776507      20.0000000000
9071 2      16.2089874579      17.0000000000
9072 2      15.0129497904      20.0000000000
9073 2      16.5367064165      18.0000000000
9074 2      15.3808372863      15.0000000000
9075 2      15.6559562984      17.0000000000
9076 2      15.7443930466      15.0000000000
9077 2      13.0334530641      12.0000000000
9078 2      16.1729251710      20.0000000000
9079 2      16.5527962958      16.0000000000
9080 2      15.1694701029      14.0000000000
9081 2      15.1111396821      16.0000000000
9082 2      16.1324566664      19.0000000000
9083 2      15.8079092727      15.0000000000
9084 2      14.6265976052      17.0000000000
9085 2      13.6177982683      20.0000000000
9086 2      19.6828499545      19.0000000000
9087 2      18.4024125860      16.0000000000
9088 2      15.6474004389      18.0000000000
9089 2      14.5335443247      14.0000000000
9090 2      20.6976466539      19.0000000000
9091 2      17.4368877528      24.0000000000
9092 2      14.0936243615      18.0000000000
9093 2      14.9036116422      12.0000000000
9094 2      16.5668122919      16.0000000000
9095 2      15.2748755406      18.0000000000
9096 2      16.7303867727      21.0000000000
9097 2      17.5958473381      20.0000000000
9098 2      15.8015292177      19.0000000000
9099 2      14.3924689544      18.0000000000
9100 2      18.8041259533      17.0000000000
9101 2      13.6198395906      16.0000000000
9102 2      13.6992776521      17.0000000000
9103 2      17.2886080150      20.0000000000
9104 2      15.5269505476      16.0000000000
9105 2      14.8992968475      21.0000000000
9106 2      14.5033120058      16.0000000000
9107 2      17.7132284914      19.0000000000
9108 2      17.9559572299      17.0000000000
9109 2      19.3202644509      19.0000000000
9110 2      17.1310612031      19.0000000000
9111 2      15.0320256101      21.0000000000
9112 2      16.3692173259      18.0000000000
9113 2      14.3714414782      18.0000000000
9114 2      15.8488005260      18.0000000000
9115 2      15.4631828631      16.0000000000
9116 2      15.0113120411      12.0000000000
9117 2      13.0838446004      17.0000000000
9118 2      14.5817215831      17.0000000000
9119 2      17.2404497960      19.0000000000
9120 2      18.9442567414      22.0000000000
9121 2      18.7021900789      19.0000000000
9122 2      13.9764479243      18.0000000000
9123 2      13.4003349950      17.0000000000
9124 2      11.8805710056      14.0000000000
9125 2      18.8677101761      15.0000000000
9126 2      18.6709111899      15.0000000000
9127 2      19.5963182327      20.0000000000
9128 2      18.9348885164      16.0000000000
9129 2      15.4105759572      18.0000000000
9130 2      21.6230422650      14.0000000000
9131 2      18.0637718054      18.0000000000
9132 2      14.3484487425      19.0000000000
9133 2      15.1806758857      16.0000000000
9134 2      15.5212584561      17.0000000000
9135 2      15.0414023010      19.0000000000
9136 2      16.3220335975      16.0000000000
9137 2      11.9780818047      16.0000000000
9138 2      13.6721138703      14.0000000000
9139 2      13.0680261528      16.0000000000
9140 2      14.1667600380      17.0000000000
9141 2      16.9624035199      20.0000000000
9142 2      15.3736108086      16.0000000000
9143 2      15.0336257443      19.0000000000
9144 2      13.9056415793      14.0000000000
9145 2      15.4329755086      17.0000000000
9146 2      17.6238224974      21.0000000000
9147 2      14.7600735405      17.0000000000
9148 2      13.5765132763      16.0000000000
9149 2      14.5505644993      17.0000000000
9150 2      16.6544535523      20.0000000000
9151 2      15.5772551520      15.0000000000
9152 2      17.9244861460      17.0000000000
9153 2      16.1016989200      15.0000000000
9154 2      14.1617036692      17.0000000000
9155 2      16.0258018812      20.0000000000
9156 2      19.3040019950      19.0000000000
9157 2      16.6621273767      19.0000000000
9158 2      18.6741175773      18.0000000000
9159 2      20.2132924377      16.0000000000
9160 2      14.4536332834      16.0000000000
9161 2      13.6213187075      15.0000000000
9162 2      16.3353347840      24.0000000000
9163 2      15.6445978256      22.0000000000
9164 2      16.7684174832      21.0000000000
9165 2      14.7199413631      17.0000000000
9166 2      14.6686610357      20.0000000000
9167 2      13.7399588390      15.0000000000
9168 2      13.8764619873      15.0000000000
9169 2      14.8205219015      16.0000000000
9170 2      16.5201953422      21.0000000000
9171 2      14.4115327027      16.0000000000
9172 2      15.9098137047      18.0000000000
9173 2      21.5194168568      21.0000000000
9174 2      17.4896008102      13.0000000000
9175 2      13.6670360126      13.0000000000
9176 2      14.2648212236      19.0000000000
9177 2      17.6183477246      18.0000000000
9178 2      18.5436359150      18.0000000000
9179 2      15.4565609331      18.0000000000
9180 2      17.2881035222      18.0000000000
9181 2      21.1504455046      17.0000000000
9182 2      17.7259309124      18.0000000000
9183 2      18.2763636735      22.0000000000
9184 2      21.3356709083      18.0000000000
9185 2      13.7101855794      16.0000000000
9186 2      14.9466899765      21.0000000000
9187 2      17.0331073106      18.0000000000
9188 2      13.4093046993      20.0000000000
9189 2      14.2004269161      16.0000000000
9190 2      15.0257741888      17.0000000000
9191 2      14.9775133527      19.0000000000
9192 2      15.0709367854      15.0000000000
9193 2      17.8625221620      19.0000000000
9194 2      16.8144164101      17.0000000000
9195 2      15.2223182096      18.0000000000
9196 2      16.6481323110      20.0000000000
9197 2      18.0292757608      15.0000000000
9198 2      15.1072981921      15.0000000000
9199 2      14.3121245093      19.0000000000
9200 2      13.1826601043      19.0000000000
9201 2      19.1862667459      16.0000000000
9202 2      15.3702326612      20.0000000000
9203 2      16.3259699507      14.0000000000
9204 2      14.9172510229      16.0000000000
9205 2      13.8790174238      15.0000000000
9206 2      14.0370593200      13.0000000000
9207 2      13.6123076239      16.0000000000
9208 2      15.2325979929      20.0000000000
9209 2      15.5654893063      17.0000000000
9210 2      15.0633285619      18.0000000000
9211 2      13.9404109943      16.0000000000
9212 2      15.0264375516      16.0000000000
9213 2      16.4566042512      22.0000000000
9214 2      15.0132546737      22.0000000000
9215 2      17.3741878232      18.0000000000
9216 2      15.4014959198      18.0000000000
9217 2      17.2863586582      19.0000000000
9218 2      14.1796505926      20.0000000000
9219 2      20.4251070911      17.0000000000
9220 2      13.0195357479      14.0000000000
9221 2      19.9784848142      18.0000000000
9222 2      16.7159889804      18.0000000000
9223 2      13.9396887586      17.0000000000
9224 2      16.6089687493      21.0000000000
9225 2      12.1352949461      14.0000000000
9226 2      15.7310938234      20.0000000000
9227 2      16.4480533352      20.0000000000
9228 2      15.8282707996      22.0000000000
9229 2      16.2054682760      15.0000000000
9230 2      13.1330758378      15.0000000000
9231 2      17.8684282142      19.0000000000
9232 2      16.1843720386      16.0000000000
9233 2      16.5527211430      21.0000000000
9234 2      20.4000350645      22.0000000000
9235 2      15.2439922685      20.0000000000
9236 2      14.8434070134      17.0000000000
9237 2      18.0545748375      27.0000000000
9238 2      16.1443834114      20.0000000000
9239 2      17.5488534288      18.0000000000
9240 2      16.4702235704      20.0000000000
9241 2      16.9743714999      15.0000000000
9242 2      17.3629369980      16.0000000000
9243 2      14.7792366906      18.0000000000
9244 2      17.0346880373      20.0000000000
9245 2      16.0180924128      22.0000000000
9246 2      19.2395879211      21.0000000000
9247 2      15.4522416878      17.0000000000
9248 2      13.3686579737      17.0000000000
9249 2      15.2504047564      17.0000000000
9250 2      14.0739733015      21.0000000000
9251 2      17.1343226881      20.0000000000
9252 2      17.3374735076      17.0000000000
9253 2      13.0334304080      19.0000000000
9254 2      16.5444121508      18.0000000000
9255 2      15.5666431687      16.0000000000
9256 2      17.0677100391      17.0000000000
9257 2      13.9973709100      18.0000000000
9258 2      16.3931008561      14.0000000000
9259 2      19.5540913026      16.0000000000
9260 2      16.1263450815      19.0000000000
9261 2      14.4927110944      19.0000000000
9262 2      15.7080800091      15.0000000000
9263 2      19.3310235689      18.0000000000
9264 2      14.7073448484      13.0000000000
9265 2      18.5764069906      18.0000000000
9266 2      15.5563672140      17.0000000000
9267 2      17.2344491251      19.0000000000
9268 2      18.1284865408      23.0000000000
9269 2      14.5065406421      17.0000000000
9270 2      17.2691687118      19.0000000000
9271 2      18.7494655026      19.0000000000
9272 2      18.7268794666      20.0000000000
9273 2      16.2261285928      15.0000000000
9274 2      13.2715751367      14.0000000000
9275 2      16.0463606762      20.0000000000
9276 2      16.0486061489      19.0000000000
9277 2      19.5626705047      19.0000000000
9278 2      13.9241531096      18.0000000000
9279 2      14.6916329878      19.0000000000
9280 2      13.2403063345      18.0000000000
9281 2      14.9975205810      21.0000000000
9282 2      13.2748382990      18.0000000000
9283 2      14.0070713097      19.0000000000
9284 2      18.1507521455      22.0000000000
9285 2      16.6860729786      20.0000000000
9286 2      15.4439370256      23.0000000000
9287 2      14.9130495739      19.0000000000
9288 2      14.8385075744      15.0000000000
9289 2      19.6826208002      17.0000000000
9290 2      18.4995534625      19.0000000000
9291 2      14.5001496689      15.0000000000
9292 2      16.3185626767      17.0000000000
9293 2      14.4285911469      17.0000000000
9294 2      23.4447693262      18.0000000000
9295 2      14.7374303608      18.0000000000
9296 2      24.4235694177      20.0000000000
9297 2      17.9415685857      16.0000000000
9298 2      17.5862992575      20.0000000000
9299 2      13.7826308123      18.0000000000
9300 2      17.7284156987      16.0000000000
9301 2      15.5716177583      17.0000000000
9302 2      14.2760936389      14.0000000000
9303 2      17.0827486363      15.0000000000
9304 2      16.9970270575      17.0000000000
9305 2      16.4039721172      20.0000000000
9306 2      16.5367744486      17.0000000000
9307 2      14.0009045915      14.0000000000
9308 2      17.1829115054      18.0000000000
9309 2      14.8527638436      16.0000000000
9310 2      18.3195367251      22.0000000000
9311 2      14.3021013103      16.0000000000
9312 2      13.5649702403      17.0000000000
9313 2      13.6911951641      15.0000000000
9314 2      14.7230298226      18.0000000000
9315 2      15.5896942686      16.0000000000
9316 2      13.9146642249      16.0000000000
9317 2      16.9372696831      21.0000000000
9318 2      15.4762680304      18.0000000000
9319 2      16.2684407353      19.0000000000
9320 2      15.9538887738      15.0000000000
9321 2      14.6710369288      16.0000000000
9322 2      14.9113054139      20.0000000000
9323 2      15.0393718434      19.0000000000
9324 2      15.0916438496      13.0000000000
9325 2      15.6839260615      17.0000000000
9326 2      14.1981981913      22.0000000000
9327 2      15.9341126484      22.0000000000
9328 2      15.4355118058      18.0000000000
9329 2      14.3575093044      18.0000000000
9330 2      15.7309962378      21.0000000000
9331 2      19.1049986644      18.0000000000
9332 2      19.4250184726      19.0000000000
9333 2      15.8061983301      15.0000000000
9334 2      15.0050079097      14.0000000000
9335 2      17.2726027637      22.0000000000
9336 2      15.5302260455      17.0000000000
9337 2      15.6291243775      16.0000000000
9338 2      15.9597974205      20.0000000000
9339 2      13.1321348572      17.0000000000
9340 2      14.6679718389      16.0000000000
9341 2      14.9436649491      22.0000000000
9342 2      14.6783387038      16.0000000000
9343 2      16.6286045355      15.0000000000
9344 2      14.3200509373      16.0000000000
9345 2      17.5762380305      17.0000000000
9346 2      15.5990569588      17.0000000000
9347 2      14.0637666394      16.0000000000
9348 2      18.2874890824      16.0000000000
9349 2      15.4479390734      17.0000000000
9350 2      15.5221496631      13.0000000000
9351 2      14.5617740830      16.0000000000
9352 2      16.3164468953      19.0000000000
9353 2      14.4153953158      16.0000000000
9354 2      15.6861285348      21.0000000000
9355 2      18.7808461088      14.0000000000
9356 2      14.7694349438      17.0000000000
9357 2      16.1475156968      17.0000000000
9358 2      17.9806448241      14.0000000000
9359 2      17.6455408957      21.0000000000
9360 2      16.3998231300      17.0000000000
9361 2      14.1300276191      17.0000000000
9362 2      16.1436628978      19.0000000000
9363 2      12.6757022484      17.0000000000
9364 2      15.1903387289      15.0000000000
9365 2      15.4325385934      14.0000000000
9366 2      13.4436664337      16.0000000000
9367 2      14.7714339842      13.0000000000
9368 2      14.4339032073      17.0000000000
9369 2      15.8318252641      16.0000000000
9370 2      16.5796561490      18.0000000000
9371 2      15.4442045637      16.0000000000
9372 2      20.5657739034      17.0000000000
9373 2      16.9955896480      21.0000000000
9374 2      14.0161811328      17.0000000000
9375 2      16.9430505103      22.0000000000
9376 2      18.0894679823      19.0000000000
9377 2      17.9044332493      21.0000000000
9378 2      18.4649093767      17.0000000000
9379 2      18.5112792116      18.0000000000
9380 2      16.4648085476      15.0000000000
9381 2      20.5227298643      18.0000000000
9382 2      15.6733810225      19.0000000000
9383 2      14.9816027822      18.0000000000
9384 2      20.5058844775      18.0000000000
9385 2      17.9181461783      15.0000000000
9386 2      19.0904766038      15.0000000000
9387 2      15.4529585151      15.0000000000
9388 2      16.0164353007      19.0000000000
9389 2      12.4866998729      13.0000000000
9390 2      20.7672489420      21.0000000000
9391 2      15.0822597836      19.0000000000
9392 2      16.1137652889      16.0000000000
9393 2      13.6312787774      17.0000000000
9394 2      14.9128875673      18.0000000000
9395 2      15.8035723699      17.0000000000
9396 2      13.8251647208      17.0000000000
9397 2      16.3586423130      21.0000000000
9398 2      18.4847002190      18.0000000000
9399 2      15.7069801949      15.0000000000
9400 2      20.6815444151      17.0000000000
9401 2      17.5352143684      19.0000000000
9402 2      12.5488667630      18.0000000000
9403 2      15.4817449893      19.0000000000
9404 2      16.0214678941      22.0000000000
9405 2      15.0478549357      16.0000000000
9406 2      19.8947444516      18.0000000000
9407 2      17.9541145638      17.0000000000
9408 2      14.8638477793      18.0000000000
9409 2      18.8402461410      19.0000000000
9410 2      17.0383353934      20.0000000000
9411 2      16.0972297135      15.0000000000
9412 2      20.2974829584      20.0000000000
9413 2      14.4673640847      16.0000000000
9414 2      14.2158587495      19.0000000000
9415 2      18.4005880995      20.0000000000
9416 2      13.5816642307      13.0000000000
9417 2      13.3110643341      16.0000000000
9418 2      16.1458727318      17.0000000000
9419 2      15.8571008542      17.0000000000
9420 2      15.3549613922      17.0000000000
9421 2      14.8172084371      15.0000000000
9422 2      17.5730932572      15.0000000000
9423 2      15.2133964878      14.0000000000
9424 2      22.4320923723      22.0000000000
9425 2      15.6752286562      16.0000000000
9426 2      16.7778805942      17.0000000000
9427 2      12.6703203272      14.0000000000
9428 2      17.4329345799      18.0000000000
9429 2      14.8536525083      16.0000000000
9430 2      16.1642206640      20.0000000000
9431 2      16.4334003912      13.0000000000
9432 2      15.3619298049      15.0000000000
9433 2      15.8668684516      17.0000000000
9434 2      15.9000055757      17.0000000000
9435 2      15.6782215670      19.0000000000
9436 2      14.1058913483      20.0000000000
9437 2      15.8357400248      15.0000000000
9438 2      14.7818060932      14.0000000000
9439 2      15.9941171466      17.0000000000
9440 2      17.4453705473      19.0000000000
9441 2      17.5808761220      19.0000000000
9442 2      14.7882826382      22.0000000000
9443 2      13.3052416637      13.0000000000
9444 2      15.5035305919      17.0000000000
9445 2      13.9615390898      13.0000000000
9446 2      16.4056178086      18.0000000000
9447 2      14.8489925844      16.0000000000
9448 2      16.2752569696      18.0000000000
9449 2      16.4813791213      16.0000000000
9450 2      14.8775901983      16.0000000000
9451 2      15.1488991012      18.0000000000
9452 2      17.3848694199      20.0000000000
9453 2      15.1377615274      16.0000000000
9454 2      17.5470090606      18.0000000000
9455 2      16.1936568531      17.0000000000
9456 2      14.0859624468      15.0000000000
9457 2      14.7603610038      18.0000000000
9458 2      19.6348425456      21.0000000000
9459 2      16.4624731903      17.0000000000
9460 2      14.7192167864      17.0000000000
9461 2      16.6535115335      18.0000000000
9462 2      16.5244505242      19.0000000000
9463 2      15.0552025980      17.0000000000
9464 2      15.1044335958      21.0000000000
9465 2      18.1635159970      20.0000000000
9466 2      18.4974154032      16.0000000000
9467 2      14.3105165358      20.0000000000
9468 2      19.1859413620      16.0000000000
9469 2      15.6737201215      17.0000000000
9470 2      16.6268889361      18.0000000000
9471 2      13.5558898051      15.0000000000
9472 2      15.3373167471      17.0000000000
9473 2      14.0597647208      17.0000000000
9474 2      13.9681552453      19.0000000000
9475 2      14.0975766375      19.0000000000
9476 2      15.2225594780      13.0000000000
9477 2      16.3249540492      18.0000000000
9478 2      13.9669740087      15.0000000000
9479 2      16.3049573165      16.0000000000
9480 2      15.4227465090      18.0000000000
9481 2      13.8828838015      14.0000000000
9482 2      15.2039615658      16.0000000000
9483 2      13.6899808117      19.0000000000
9484 2      20.7557272206      18.0000000000
9485 2      15.9032085228      18.0000000000
9486 2      16.3052966286      19.0000000000
9487 2      12.6487157711      13.0000000000
9488 2      15.1895430575      18.0000000000
9489 2      13.7039309361      13.0000000000
9490 2      15.3968093865      16.0000000000
9491 2      12.3760741670      15.0000000000
9492 2      15.4254256961      15.0000000000
9493 2      15.6323864709      14.0000000000
9494 2      16.5955771658      26.0000000000
9495 2      16.3022441878      17.0000000000
9496 2      14.8317423426      16.0000000000
9497 2      17.4028620851      21.0000000000
9498 2      15.8893286581      18.0000000000
9499 2      15.8123910534      17.0000000000
9500 2      17.2540866979      15.0000000000
9501 2      15.4020451195      18.0000000000
9502 2      15.2322175530      20.0000000000
9503 2      18.5462208200      19.0000000000
9504 2      17.9279554594      23.0000000000
9505 2      13.1119069346      16.0000000000
9506 2      16.7287833553      21.0000000000
9507 2      17.1180993523      17.0000000000
9508 2      19.8492760427      18.0000000000
9509 2      16.3219445444      17.0000000000
9510 2      15.1443928834      20.0000000000
9511 2      17.2289420714      19.0000000000
9512 2      13.8126921712      16.0000000000
9513 2      13.2850355600      17.0000000000
9514 2      16.2196788003      20.0000000000
9515 2      13.0218070213      14.0000000000
9516 2      17.9794700779      17.0000000000
9517 2      15.4317780434      14.0000000000
9518 2      15.0315116900      17.0000000000
9519 2      14.9396962723      15.0000000000
9520 2      13.9228583453      15.0000000000
9521 2      14.4944401254      17.0000000000
9522 2      20.4981950467      18.0000000000
9523 2      17.3461040483      14.0000000000
9524 2      14.4401673604      21.0000000000
9525 2      15.9980817199      19.0000000000
9526 2      16.3600680838      16.0000000000
9527 2      16.9652360145      20.0000000000
9528 2      13.8152573757      16.0000000000
9529 2      15.8176691862      20.0000000000
9530 2      15.9464809316      19.0000000000
9531 2      15.6504836723      16.0000000000
9532 2      13.4665998233      19.0000000000
9533 2      15.4170653231      16.0000000000
9534 2      15.0124612857      18.0000000000
9535 2      13.2460098442      15.0000000000
9536 2      16.0659808669      17.0000000000
9537 2      15.0348488058      14.0000000000
9538 2      13.1117171098      14.0000000000
9539 2      14.8525573921      18.0000000000
9540 2      13.8211353256      16.0000000000
9541 2      16.5965800133      20.0000000000
9542 2      15.1214648656      16.0000000000
9543 2      13.0614895672      15.0000000000
9544 2      15.5665827903      17.0000000000
9545 2      15.3631779964      20.0000000000
9546 2      15.4221164603      19.0000000000
9547 2      13.8768955582      16.0000000000
9548 2      14.7399803283      19.0000000000
9549 2      16.1276981874      19.0000000000
9550 2      18.9852671827      21.0000000000
9551 2      18.6175183741      21.0000000000
9552 2      15.2415973517      15.0000000000
9553 2      14.2018486209      17.0000000000
9554 2      17.0763921945      20.0000000000
9555 2      17.5577550982      19.0000000000
9556 2      15.2835978964      17.0000000000
9557 2      16.9511191723      17.0000000000
9558 2      13.9952544401      16.0000000000
9559 2      14.6666519609      16.0000000000
9560 2      16.3083728417      16.0000000000
9561 2      15.9050817632      15.0000000000
9562 2      13.1983217129      17.0000000000
9563 2      16.3691057157      19.0000000000
9564 2      16.6485682919      14.0000000000
9565 2      14.9856299479      17.0000000000
9566 2      14.1884175892      18.0000000000
9567 2      13.9794754230      17.0000000000
9568 2      14.8837522935      14.0000000000
9569 2      12.2273240998      15.0000000000
9570 2      16.0349172338      15.0000000000
9571 2      14.2462202482      18.0000000000
9572 2      13.8317121590      16.0000000000
9573 2      17.6806117359      21.0000000000
9574 2      17.5621267197      17.0000000000
9575 2      14.3292052163      16.0000000000
9576 2      13.9403641381      17.0000000000
9577 2      14.5658843392      18.0000000000
9578 2      15.7342080706      16.0000000000
9579 2      14.3830970449      19.0000000000
9580 2      15.0683103521      20.0000000000
9581 2      19.3185727694      19.0000000000
9582 2      15.5488175348      18.0000000000
9583 2      15.3539442274      18.0000000000
9584 2      16.5546338357      20.0000000000
9585 2      14.1225697541      20.0000000000
9586 2      14.9188271608      19.0000000000
9587 2      15.5797961229      17.0000000000
9588 2      13.7236376617      20.0000000000
9589 2      18.4328311691      18.0000000000
9590 2      16.6750350760      18.0000000000
9591 2      17.1806712522      16.0000000000
9592 2      18.3028921177      17.0000000000
9593 2      13.5726538491      13.0000000000
9594 2      12.8833135607      12.0000000000
9595 2      16.6295311391      18.0000000000
9596 2      16.1427487639      17.0000000000
9597 2      15.6171486458      21.0000000000
9598 2      14.5030453053      23.0000000000
9599 2      14.5754920868      18.0000000000
9600 2      12.2973652022      14.0000000000
9601 2      16.3464504965      14.0000000000
9602 2      14.3769453562      16.0000000000
9603 2      17.2917888144      20.0000000000
9604 2      15.5936297152      19.0000000000
9605 2      14.0957682352      19.0000000000
9606 2      18.9680596081      17.0000000000
9607 2      17.7767438464      23.0000000000
9608 2      16.9281003468      22.0000000000
9609 2      14.1346864802      20.0000000000
9610 2      17.7196557719      20.0000000000
9611 2      13.0151803165      17.0000000000
9612 2      14.9562415064      16.0000000000
9613 2      13.9079592228      14.0000000000
9614 2      13.8599379057      16.0000000000
9615 2      15.5608938581      18.0000000000
9616 2      13.8649203078      15.0000000000
9617 2      16.1128924216      22.0000000000
9618 2      16.5828317605      13.0000000000
9619 2      13.9935369388      14.0000000000
9620 2      15.9157939739      19.0000000000
9621 2      18.1975754354      16.0000000000
9622 2      16.6429743640      16.0000000000
9623 2      17.0372770760      18.0000000000
9624 2      14.3011803994      16.0000000000
9625 2      18.2026929824      18.0000000000
9626 2      15.3754406398      17.0000000000
9627 2      17.3216090687      23.0000000000
9628 2      14.0810380443      20.0000000000
9629 2      14.4009628376      18.0000000000
9630 2      15.5891688628      19.0000000000
9631 2      16.8898662642      20.0000000000
9632 2      16.3825618883      23.0000000000
9633 2      17.8114062130      19.0000000000
9634 2      16.5202720167      19.0000000000
9635 2      13.5125152760      18.0000000000
9636 2      17.4336610170      21.0000000000
9637 2      15.3690268576      20.0000000000
9638 2      13.6798162324      18.0000000000
9639 2      14.8161429290      16.0000000000
9640 2      15.9451170782      19.0000000000
9641 2      16.3088015740      16.0000000000
9642 2      17.4336149370      19.0000000000
9643 2      15.9515734841      19.0000000000
9644 2      13.4579516448      16.0000000000
9645 2      13.9049602217      13.0000000000
9646 2      14.3374047585      16.0000000000
9647 2      16.0549947382      17.0000000000
9648 2      15.5877200999      17.0000000000
9649 2      17.8033288733      13.0000000000
9650 2      19.8744569960      23.0000000000
9651 2      15.5267676460      20.0000000000
9652 2      19.4479364504      17.0000000000
9653 2      14.9021112131      19.0000000000
9654 2      12.6385308150      18.0000000000
9655 2      17.2265169814      16.0000000000
9656 2      16.2582124091      18.0000000000
9657 2      18.4797653517      23.0000000000
9658 2      13.9540010475      16.0000000000
9659 2      18.8538345658      25.0000000000
9660 2      14.3695129541      18.0000000000
9661 2      14.6600503738      17.0000000000
9662 2      15.3817874955      21.0000000000
9663 2      17.2706748821      16.0000000000
9664 2      18.6280068348      15.0000000000
9665 2      15.1162184810      18.0000000000
9666 2      15.7930600156      17.0000000000
9667 2      15.1816952243      17.0000000000
9668 2      16.0022259968      20.0000000000
9669 2      16.9346155204      18.0000000000
9670 2      15.3223130590      18.0000000000
9671 2      13.8166510676      15.0000000000
9672 2      15.4037388867      18.0000000000
9673 2      15.2634020101      17.0000000000
9674 2      17.9183654372      21.0000000000
9675 2      15.4785949973      23.0000000000
9676 2      17.1305111876      16.0000000000
9677 2      13.0274875537      18.0000000000
9678 2      13.6621312587      21.0000000000
9679 2      18.7929553342      20.0000000000
9680 2      13.9294731727      14.0000000000
9681 2      10.9725836748      13.0000000000
9682 2      16.1008772328      17.0000000000
9683 2      12.5438876659      14.0000000000
9684 2      14.0866748557      17.0000000000
9685 2      16.2385051339      18.0000000000
9686 2      16.8667522591      20.0000000000
9687 2      16.1441677876      16.0000000000
9688 2      15.3222107789      16.0000000000
9689 2      16.5295722370      19.0000000000
9690 2      15.5387746740      16.0000000000
9691 2      14.2263460005      16.0000000000
9692 2      15.7832481093      19.0000000000
9693 2      13.7847623885      16.0000000000
9694 2      13.5797595419      16.0000000000
9695 2      18.0910725179      19.0000000000
9696 2      17.9352330627      15.0000000000
9697 2      14.3123902101      15.0000000000
9698 2      14.1477837880      15.0000000000
9699 2      15.4258451285      17.0000000000
9700 2      15.3672679400      23.0000000000
9701 2      15.9214358030      14.0000000000
9702 2      16.4725244574      20.0000000000
9703 2      15.3958629482      20.0000000000
9704 2      13.7368706152      15.0000000000
9705 2      15.0274806324      16.0000000000
9706 2      18.5011644472      15.0000000000
9707 2      16.6017719951      20.0000000000
9708 2      14.1373315756      14.0000000000
9709 2      17.0741186622      21.0000000000
9710 2      17.8588460894      22.0000000000
9711 2      14.0615762855      17.0000000000
9712 2      15.9223504026      18.0000000000
9713 2      15.1515895916      16.0000000000
9714 2      15.9100548933      20.0000000000
9715 2      15.9086496466      20.0000000000
9716 2      19.8848013136      18.0000000000
9717 2      19.4612056744      16.0000000000
9718 2      16.9160659606      16.0000000000
9719 2      13.8683180997      18.0000000000
9720 2      16.2091881076      17.0000000000
9721 2      12.3697834073      15.0000000000
9722 2      17.6212149677      16.0000000000
9723 2      18.8889163951      21.0000000000
9724 2      16.2804650007      22.0000000000
9725 2      14.9721901561      15.0000000000
9726 2      14.7058421314      18.0000000000
9727 2      16.4101463868      14.0000000000
9728 2      17.1966091149      20.0000000000
9729 2      12.7907358814      16.0000000000
9730 2      16.6732975903      19.0000000000
9731 2      18.1970806000      16.0000000000
9732 2      15.2650742425      18.0000000000
9733 2      15.0778527162      16.0000000000
9734 2      15.6286478922      21.0000000000
9735 2      17.7111862906      15.0000000000
9736 2      16.3907255822      20.0000000000
9737 2      19.2621258376      15.0000000000
9738 2      17.3003665540      19.0000000000
9739 2      18.2595403046      19.0000000000
9740 2      15.9872334111      18.0000000000
9741 2      16.0878529694      21.0000000000
9742 2      15.1073220813      17.0000000000
9743 2      14.7705205941      21.0000000000
9744 2      17.8070946836      14.0000000000
9745 2      14.8283262863      15.0000000000
9746 2      16.1571609274      21.0000000000
9747 2      15.3335216094      17.0000000000
9748 2      14.9500847584      15.0000000000
9749 2      15.3817769285      16.0000000000
9750 2      17.6599626399      15.0000000000
9751 2      13.5866072679      15.0000000000
9752 2      18.0296255390      17.0000000000
9753 2      15.2045016605      18.0000000000
9754 2      12.3467543179      16.0000000000
9755 2      16.1327014299      20.0000000000
9756 2      16.3874494783      17.0000000000
9757 2      16.3104750371      16.0000000000
9758 2      13.1547045009      20.0000000000
9759 2      16.5409847527      21.0000000000
9760 2      16.1724206208      18.0000000000
9761 2      19.9458231255      21.0000000000
9762 2      13.8256621707      16.0000000000
9763 2      17.4608829301      20.0000000000
9764 2      13.7970130499      14.0000000000
9765 2      17.9010834904      21.0000000000
9766 2      16.3313708095      15.0000000000
9767 2      14.5159511092      19.0000000000
9768 2      18.0175038565      21.0000000000
9769 2      16.2088971416      17.0000000000
9770 2      15.5384490405      24.0000000000
9771 2      18.3842134336      19.0000000000
9772 2      12.5818754952      16.0000000000
9773 2      13.3989441877      18.0000000000
9774 2      18.5052657471      20.0000000000
9775 2      19.9153578037      17.0000000000
9776 2      14.2291673757      18.0000000000
9777 2      16.2766010167      15.0000000000
9778 2      16.3326198619      21.0000000000
9779 2      14.1404170082      18.0000000000
9780 2      15.3783020275      14.0000000000
9781 2      15.3833184879      14.0000000000
9782 2      15.8685516502      19.0000000000
9783 2      15.3803711751      16.0000000000
9784 2      16.3810970687      15.0000000000
9785 2      15.7947301392      16.0000000000
9786 2      15.5735864597      19.0000000000
9787 2      12.9474396309      18.0000000000
9788 2      16.0792285584      20.0000000000
9789 2      15.8336389677      18.0000000000
9790 2      14.3246447656      20.0000000000
9791 2      14.8001471831      14.0000000000
9792 2      16.3668452365      14.0000000000
9793 2      17.7972791910      25.0000000000
9794 2      16.2425078352      18.0000000000
9795 2      18.4267875470      16.0000000000
9796 2      14.4819007001      17.0000000000
9797 2      14.7597484410      18.0000000000
9798 2      14.8707404616      18.0000000000
9799 2      13.2572466191      16.0000000000
9800 2      15.8709952830      21.0000000000
9801 2      16.5751346165      16.0000000000
9802 2      12.7972463798      18.0000000000
9803 2      18.1115188060      16.0000000000
9804 2      15.8210279844      17.0000000000
9805 2      14.2777746395      18.0000000000
9806 2      14.7134082524      19.0000000000
9807 2      20.6140787888      20.0000000000
9808 2      18.9482872112      18.0000000000
9809 2      17.5564320824      19.0000000000
9810 2      17.5614526083      15.0000000000
9811 2      17.0436792155      17.0000000000
9812 2      16.0986458123      17.0000000000
9813 2      15.7801201603      16.0000000000
9814 2      18.5850333275      15.0000000000
9815 2      13.5915264602      22.0000000000
9816 2      15.6700851710      15.0000000000
9817 2      12.6499055239      13.0000000000
9818 2      17.3118288548      19.0000000000
9819 2      17.1793513804      17.0000000000
9820 2      16.2272741123      19.0000000000
9821 2      14.3587883079      14.0000000000
9822 2      16.7065478649      18.0000000000
9823 2      20.2873400638      13.0000000000
9824 2      16.6000740977      19.0000000000
9825 2      17.3884839835      18.0000000000
9826 2      14.8486336598      16.0000000000
9827 2      13.4178163414      14.0000000000
9828 2      17.1907525889      18.0000000000
9829 2      15.3121714263      17.0000000000
9830 2      13.3825288599      15.0000000000
9831 2      15.0426421001      19.0000000000
9832 2      13.3590893492      20.0000000000
9833 2      15.1133425815      20.0000000000
9834 2      14.4415469215      18.0000000000
9835 2      13.2838280843      15.0000000000
9836 2      12.8315246341      16.0000000000
9837 2      14.0197421384      17.0000000000
9838 2      16.1816991932      17.0000000000
9839 2      14.9048167263      14.0000000000
9840 2      14.7009074719      16.0000000000
9841 2      16.9119091777      15.0000000000
9842 2      16.8294196203      21.0000000000
9843 2      15.2782895616      15.0000000000
9844 2      14.9985202585      17.0000000000
9845 2      14.2153832465      15.0000000000
9846 2      17.4252629694      17.0000000000
9847 2      14.3835164840      20.0000000000
9848 2      16.8022036953      21.0000000000
9849 2      18.0538433343      14.0000000000
9850 2      21.1171100880      19.0000000000
9851 2      19.5377331473      21.0000000000
9852 2      15.0238382658      16.0000000000
9853 2      15.7681913313      16.0000000000
9854 2      13.7759137781      16.0000000000
9855 2      15.2141441517      17.0000000000
9856 2      13.1608899208      17.0000000000
9857 2      14.7307217658      18.0000000000
9858 2      14.9874870760      16.0000000000
9859 2      16.1574985798      16.0000000000
9860 2      17.2865927922      20.0000000000
9861 2      13.0420328525      17.0000000000
9862 2      13.3721207692      15.0000000000
9863 2      17.7264768724      16.0000000000
9864 2      12.6052683661      17.0000000000
9865 2      14.8997400875      16.0000000000
9866 2      17.3461631555      24.0000000000
9867 2      18.7590322785      19.0000000000
9868 2      15.1086684287      18.0000000000
9869 2      16.2920426673      20.0000000000
9870 2      17.8549047853      16.0000000000
9871 2      18.9649398141      23.0000000000
9872 2      18.0449631022      20.0000000000
9873 2      15.1867381969      18.0000000000
9874 2      15.8229746681      15.0000000000
9875 2      15.5686877800      19.0000000000
9876 2      13.3689337119      17.0000000000
9877 2      14.2252674452      16.0000000000
9878 2      15.3192562301      18.0000000000
9879 2      15.0045129017      20.0000000000
9880 2      11.8188824916      14.0000000000
9881 2      14.5721494080      19.0000000000
9882 2      18.0450342836      21.0000000000
9883 2      14.3402989339      19.0000000000
9884 2      15.8407576043      18.0000000000
9885 2      17.9539438083      18.0000000000
9886 2      16.3630359961      16.0000000000
9887 2      16.7473957742      21.0000000000
9888 2      14.1903034797      15.0000000000
9889 2      14.5030037801      15.0000000000
9890 2      14.9489696461      21.0000000000
9891 2      16.0697422103      20.0000000000
9892 2      14.8047152177      15.0000000000
9893 2      14.9879501212      16.0000000000
9894 2      18.1412077466      17.0000000000
9895 2      14.9950968001      16.0000000000
9896 2      18.6848284003      19.0000000000
9897 2      15.7296473018      17.0000000000
9898 2      15.0095727295      20.0000000000
9899 2      14.6440075750      16.0000000000
9900 2      14.2616349821      18.0000000000
9901 2      12.8312494721      17.0000000000
9902 2      13.4426282591      17.0000000000
9903 2      17.2217046131      18.0000000000
9904 2      15.0439543883      19.0000000000
9905 2      15.0531821905      18.0000000000
9906 2      15.0037805105      20.0000000000
9907 2      16.5287793955      18.0000000000
9908 2      18.1507005813      19.0000000000
9909 2      14.8916504577      20.0000000000
9910 2      16.7626884186      19.0000000000
9911 2      16.2720814683      18.0000000000
9912 2      16.9999424656      22.0000000000
9913 2      14.1231383359      15.0000000000
9914 2      16.8873894359      16.0000000000
9915 2      16.4866038602      14.0000000000
9916 2      15.5651665200      18.0000000000
9917 2      16.3235189712      15.0000000000
9918 2      16.5160481652      17.0000000000
9919 2      16.3912034293      18.0000000000
9920 2      14.8836108262      12.0000000000
9921 2      16.6978856506      24.0000000000
9922 2      14.1939518868      18.0000000000
9923 2      14.1019588564      16.0000000000
9924 2      15.0426852365      17.0000000000
9925 2      16.0466912751      17.0000000000
9926 2      14.9823372647      19.0000000000
9927 2      13.3280745761      19.0000000000
9928 2      14.8885543532      15.0000000000
9929 2      15.7175026481      17.0000000000
9930 2      17.9088279827      18.0000000000
9931 2      14.6954897883      18.0000000000
9932 2      15.5738785937      13.0000000000
9933 2      16.3077282773      16.0000000000
9934 2      13.8112969791      15.0000000000
9935 2      13.6129846400      14.0000000000
9936 2      15.5275616042      14.0000000000
9937 2      14.0577924566      18.0000000000
9938 2      14.1692117031      14.0000000000
9939 2      17.7384575402      20.0000000000
9940 2      15.6912778798      20.0000000000
9941 2      14.4939934394      16.0000000000
9942 2      18.5027640943      15.0000000000
9943 2      13.3426272669      14.0000000000
9944 2      13.2943102231      17.0000000000
9945 2      16.9893638852      17.0000000000
9946 2      14.2514722791      13.0000000000
9947 2      16.5091223431      19.0000000000
9948 2      16.0708878941      19.0000000000
9949 2      16.6283723557      22.0000000000
9950 2      16.6593572790      16.0000000000
9951 2      16.5770986544      16.0000000000
9952 2      16.2269460108      19.0000000000
9953 2      15.5849233175      18.0000000000
9954 2      17.4055040511      17.0000000000
9955 2      19.6544065644      21.0000000000
9956 2      13.8125485044      17.0000000000
9957 2      18.6624078035      19.0000000000
9958 2      15.1260945584      15.0000000000
9959 2      18.2141931524      24.0000000000
9960 2      15.5622268693      18.0000000000
9961 2      12.7631073414      13.0000000000
9962 2      13.4874670956      19.0000000000
9963 2      14.9941094893      18.0000000000
9964 2      16.0227594759      19.0000000000
9965 2      13.7535345420      20.0000000000
9966 2      16.4556325790      17.0000000000
9967 2      12.6943220499      15.0000000000
9968 2      15.6847913762      18.0000000000
9969 2      15.6092672315      20.0000000000
9970 2      13.8158380867      16.0000000000
9971 2      16.4689752676      14.0000000000
9972 2      17.0225898926      18.0000000000
9973 2      14.7004709812      18.0000000000
9974 2      18.3230597813      18.0000000000
9975 2      18.8254646199      16.0000000000
9976 2      18.0458715025      16.0000000000
9977 2      18.0702496122      21.0000000000
9978 2      15.8700720038      14.0000000000
9979 2      15.1187144781      16.0000000000
9980 2      14.3470516861      16.0000000000
9981 2      13.7824582519      19.0000000000
9982 2      16.3125802880      20.0000000000
9983 2      16.1633984958      22.0000000000
9984 2      17.5003755551      21.0000000000
9985 2      14.9410594866      17.0000000000
9986 2      11.8817688833      12.0000000000
9987 2      15.4331192447      16.0000000000
9988 2      15.7951307267      18.0000000000
9989 2      18.4495596678      16.0000000000
9990 2      13.1568828840      17.0000000000
9991 2      15.2066814855      16.0000000000
9992 2      15.4291336946      20.0000000000
9993 2      14.5441222132      12.0000000000
9994 2      16.1960001184      21.0000000000
9995 2      17.9377022965      14.0000000000
9996 2      17.6374311402      19.0000000000
9997 2      18.7730310845      16.0000000000
9998 2      15.0223048694      17.0000000000
9999 2      13.6334460864      18.0000000000
10000 2      13.6678937566      18.0000000000
10001 2      15.7269273730      15.0000000000
10002 2      13.8794340540      15.0000000000
10003 2      14.5795305832      15.0000000000
10004 2      16.9606726280      15.0000000000
10005 2      15.3953102861      17.0000000000
10006 2      18.2016635356      20.0000000000
10007 2      14.8078140997      20.0000000000
10008 2      16.5186441259      17.0000000000
10009 2      18.0277341620      20.0000000000
10010 2      13.8558000395      17.0000000000
10011 2      17.1821858736      19.0000000000
10012 2      14.4297979291      18.0000000000
10013 2      15.5569072527      17.0000000000
10014 2      18.1138191830      25.0000000000
10015 2      13.7662849066      13.0000000000
10016 2      15.0333968939      21.0000000000
10017 2      14.5958737216      16.0000000000
10018 2      14.3027135208      18.0000000000
10019 2      15.5802417409      18.0000000000
10020 2      13.3083490179      13.0000000000
10021 2      15.1605325220      15.0000000000
10022 2      12.4829014016      15.0000000000
10023 2      13.8279236788      16.0000000000
10024 2      16.6248151990      13.0000000000
10025 2      14.5616273368      17.0000000000
10026 2      16.7119942302      20.0000000000
10027 2      17.3431744129      21.0000000000
10028 2      17.9097674393      17.0000000000
10029 2      14.1426905653      14.0000000000
10030 2      15.7231539895      16.0000000000
10031 2      15.4826109023      17.0000000000
10032 2      14.4113347105      15.0000000000
10033 2      18.3070363338      19.0000000000
10034 2      14.2932028221      18.0000000000
10035 2      16.1378547732      16.0000000000
10036 2      14.9321073036      16.0000000000
10037 2      13.8680187553      18.0000000000
10038 2      16.1562030673      25.0000000000
10039 2      18.0797795541      21.0000000000
10040 2      13.3323509577      14.0000000000
10041 2      12.3309135390      15.0000000000
10042 2      15.2319372456      16.0000000000
10043 2      14.7294473589      13.0000000000
10044 2      16.7650144130      18.0000000000
10045 2      17.1396785619      12.0000000000
10046 2      15.6275878309      21.0000000000
10047 2      18.1894720605      20.0000000000
10048 2      15.1041622663      18.0000000000
10049 2      14.8182760426      15.0000000000
10050 2      13.0051344142      18.0000000000
10051 2      15.3670789089      17.0000000000
10052 2      14.4361086701      18.0000000000
10053 2      15.2293617621      17.0000000000
10054 2      14.8713546352      17.0000000000
10055 2      16.2945312123      19.0000000000
10056 2      17.8968019564      21.0000000000
10057 2      16.1656098591      20.0000000000
10058 2      15.2366754794      16.0000000000
10059 2      14.9343439404      18.0000000000
10060 2      13.2919653881      16.0000000000
10061 2      15.1368077904      19.0000000000
10062 2      17.2431145137      16.0000000000
10063 2      14.0197751675      18.0000000000
10064 2      14.5349438894      17.0000000000
10065 2      13.9954289033      17.0000000000
10066 2      14.8602589676      12.0000000000
10067 2      17.5548328976      19.0000000000
10068 2      13.8907525004      16.0000000000
10069 2      12.6928800798      13.0000000000
10070 2      16.1682191023      20.0000000000
10071 2      13.6136528721      15.0000000000
10072 2      15.2916726126      18.0000000000
10073 2      15.8551043932      20.0000000000
10074 2      13.7446009228      14.0000000000
10075 2      15.5547759418      17.0000000000
10076 2      17.1154659939      20.0000000000
10077 2      13.2934278421      18.0000000000
10078 2      13.0132784692      17.0000000000
10079 2      12.9827718047      18.0000000000
10080 2      12.9127324322      13.0000000000
10081 2      13.6227802599      20.0000000000
10082 2      17.1756566343      21.0000000000
10083 2      14.0826358442      18.0000000000
10084 2      13.4842412924      17.0000000000
10085 2      15.7314938876      14.0000000000
10086 2      12.2064246753      16.0000000000
10087 2      14.1155112157      18.0000000000
10088 2      13.1294265609      15.0000000000
10089 2      15.3842019946      15.0000000000
10090 2      13.9820969210      14.0000000000
10091 2      15.9778671068      18.0000000000
10092 2      16.3635876304      21.0000000000
10093 2      15.2434193567      20.0000000000
10094 2      18.9410486692      17.0000000000
10095 2      14.5979835448      17.0000000000
10096 2      14.6294420997      15.0000000000
10097 2      12.2596525062      16.0000000000
10098 2      15.5107579518      18.0000000000
10099 2      17.2425576423      20.0000000000
10100 2      13.3748251825      18.0000000000
10101 2      15.8869630195      20.0000000000
10102 2      13.6622325720      19.0000000000
10103 2      16.8472046437      22.0000000000
10104 2      17.3595963284      17.0000000000
10105 2      15.9937377434      18.0000000000
10106 2      17.5537136465      14.0000000000
10107 2      14.6631245794      18.0000000000
10108 2      15.8659738714      19.0000000000
10109 2      12.9127894756      16.0000000000
10110 2      16.5199105341      18.0000000000
10111 2      14.4826703916      18.0000000000
10112 2      17.0475101861      12.0000000000
10113 2      16.1465215202      18.0000000000
10114 2      15.1142856986      19.0000000000
10115 2      15.1641677610      16.0000000000
10116 2      15.8959378971      15.0000000000
10117 2      15.0128013780      16.0000000000
10118 2      15.3453702029      18.0000000000
10119 2      14.0287216669      16.0000000000
10120 2      16.8771686231      18.0000000000
10121 2      17.7080644780      20.0000000000
10122 2      16.5692870796      17.0000000000
10123 2      14.8343899532      14.0000000000
10124 2      13.5724779135      18.0000000000
10125 2      15.3876664531      19.0000000000
10126 2      16.3234286698      18.0000000000
10127 2      17.8533727501      19.0000000000
10128 2      16.7525632931      20.0000000000
10129 2      12.4150402633      15.0000000000
10130 2      17.0370872604      20.0000000000
10131 2      13.1490607731      16.0000000000
10132 2      16.1345367635      23.0000000000
10133 2      14.0117678642      16.0000000000
10134 2      14.2241701655      18.0000000000
10135 2      13.0527191498      15.0000000000
10136 2      14.6992446720      15.0000000000
10137 2      15.6431848595      19.0000000000
10138 2      17.9038381397      18.0000000000
10139 2      14.7332732307      18.0000000000
10140 2      16.3321588529      18.0000000000
10141 2      16.2904917078      19.0000000000
10142 2      17.8169296817      20.0000000000
10143 2      16.6093732808      21.0000000000
10144 2      17.1773291291      19.0000000000
10145 2      16.0734659330      20.0000000000
10146 2      13.3562668833      17.0000000000
10147 2      14.2943702945      18.0000000000
10148 2      15.8311354245      18.0000000000
10149 2      16.8601313515      17.0000000000
10150 2      15.2696834618      17.0000000000
10151 2      15.3656746410      18.0000000000
10152 2      14.8568071422      19.0000000000
10153 2      17.1669042052      19.0000000000
10154 2      17.9981149304      20.0000000000
10155 2      13.6967872322      18.0000000000
10156 2      17.4073894907      18.0000000000
10157 2      17.6888922788      13.0000000000
10158 2      15.6648685137      17.0000000000
10159 2      14.0340954304      20.0000000000
10160 2      15.6543441024      20.0000000000
10161 2      16.2719088054      21.0000000000
10162 2      15.8956568770      17.0000000000
10163 2      16.1843295032      17.0000000000
10164 2      12.0040595988      17.0000000000
10165 2      16.9727034077      20.0000000000
10166 2      16.0364131210      17.0000000000
10167 2      19.6335385019      18.0000000000
10168 2      13.7074066743      19.0000000000
10169 2      14.2803061371      16.0000000000
10170 2      16.6022977629      17.0000000000
10171 2      13.9877295892      18.0000000000
10172 2      14.5634081481      22.0000000000
10173 2      14.1667458781      15.0000000000
10174 2      12.2397344236      13.0000000000
10175 2      18.1818454908      19.0000000000
10176 2      14.2300195790      17.0000000000
10177 2      14.7594318241      13.0000000000
10178 2      15.0023384388      17.0000000000
10179 2      13.6465433357      19.0000000000
10180 2      16.9742834337      17.0000000000
10181 2      16.7422957522      21.0000000000
10182 2      16.4536291473      17.0000000000
10183 2      14.3957509176      14.0000000000
10184 2      14.4311027407      19.0000000000
10185 2      14.8826579857      18.0000000000
10186 2      12.5163298320      16.0000000000
10187 2      17.7547270071      19.0000000000
10188 2      16.3292352001      18.0000000000
10189 2      14.7776785384      16.0000000000
10190 2      15.4995984787      16.0000000000
10191 2      15.3299413063      16.0000000000
10192 2      12.6022482048      17.0000000000
10193 2      17.7256277958      19.0000000000
10194 2      15.2585487291      15.0000000000
10195 2      15.8126291670      14.0000000000
10196 2      15.0847448352      15.0000000000
10197 2      17.4508644949      15.0000000000
10198 2      12.9488639692      19.0000000000
10199 2      17.0667875357      19.0000000000
10200 2      14.5258090252      17.0000000000
10201 2      16.3199007291      17.0000000000
10202 2      14.2695487150      18.0000000000
10203 2      15.1194349271      16.0000000000
10204 2      14.0122541879      19.0000000000
10205 2      17.9912071737      17.0000000000
10206 2      14.5147286614      22.0000000000
10207 2      15.4002286836      16.0000000000
10208 2      13.6397437697      17.0000000000
10209 2      14.5302878340      18.0000000000
10210 2      14.8831243523      18.0000000000
10211 2      13.6910927415      19.0000000000
10212 2      12.8875773944      19.0000000000
10213 2      17.1924762080      16.0000000000
10214 2      16.2487832964      20.0000000000
10215 2      16.0549653905      14.0000000000
10216 2      16.3551427256      17.0000000000
10217 2      14.9000555671      19.0000000000
10218 2      16.3021481660      13.0000000000
10219 2      13.3908890220      20.0000000000
10220 2      17.2730575611      16.0000000000
10221 2      15.8471176977      16.0000000000
10222 2      15.0800571580      17.0000000000
10223 2      16.0617367148      19.0000000000
10224 2      17.3704819249      18.0000000000
10225 2      14.5159386756      16.0000000000
10226 2      15.1355793896      18.0000000000
10227 2      15.4660900728      20.0000000000
10228 2      19.7382101698      20.0000000000
10229 2      16.0761647477      17.0000000000
10230 2      12.8357696895      14.0000000000
10231 2      15.1469946742      19.0000000000
10232 2      14.9824865527      16.0000000000
10233 2      13.3968642558      17.0000000000
10234 2      16.4156235995      22.0000000000
10235 2      13.3263511252      16.0000000000
10236 2      14.5551400438      17.0000000000
10237 2      18.6470500301      19.0000000000
10238 2      14.6769510699      17.0000000000
10239 2      14.3279259320      17.0000000000
10240 2      15.6158239469      15.0000000000
10241 2      17.3706298514      16.0000000000
10242 2      14.4227267175      18.0000000000
10243 2      15.1150727617      17.0000000000
10244 2      16.7082586073      15.0000000000
10245 2      14.5463261235      17.0000000000
10246 2      15.7740893730      21.0000000000
10247 2      13.5911861483      17.0000000000
10248 2      14.1336786454      16.0000000000
10249 2      20.3311250263      25.0000000000
10250 2      17.3553363538      21.0000000000
10251 2      17.5530623114      24.0000000000
10252 2      16.0568766504      17.0000000000
10253 2      15.7070386698      18.0000000000
10254 2      18.5174554286      18.0000000000
10255 2      15.6869601847      17.0000000000
10256 2      16.4272162109      17.0000000000
10257 2      16.2578741030      16.0000000000
10258 2      13.0752769218      18.0000000000
10259 2      16.6785723551      17.0000000000
10260 2      16.7267738266      20.0000000000
10261 2      13.7346243779      15.0000000000
10262 2      18.2416504627      21.0000000000
10263 2      13.5321118417      20.0000000000
10264 2      15.6406318931      17.0000000000
10265 2      19.7260963414      25.0000000000
10266 2      17.2245029912      17.0000000000
10267 2      20.4523537984      19.0000000000
10268 2      15.5189487574      17.0000000000
10269 2      14.4988846838      18.0000000000
10270 2      13.7831709787      14.0000000000
10271 2      16.6806125213      17.0000000000
10272 2      15.6721423204      19.0000000000
10273 2      14.6702844960      20.0000000000
10274 2      18.5429369299      19.0000000000
10275 2      20.2205953140      17.0000000000
10276 2      16.3469926970      19.0000000000
10277 2      18.9400081860      24.0000000000
10278 2      18.9858899741      14.0000000000
10279 2      19.7776325162      17.0000000000
10280 2      16.0361010783      20.0000000000
10281 2      20.4298170651      23.0000000000
10282 2      13.5597450671      18.0000000000
10283 2      18.4760368993      22.0000000000
10284 2      16.0496799510      16.0000000000
10285 2      19.7004460894      19.0000000000
10286 2      16.5766201593      21.0000000000
10287 2      20.4255580452      18.0000000000
10288 2      16.2121612661      15.0000000000
10289 2      15.8470356784      18.0000000000
10290 2      14.6404081636      16.0000000000
10291 2      16.5201620455      19.0000000000
10292 2      14.7854195023      15.0000000000
10293 2      19.8613188723      21.0000000000
10294 2      17.0952637552      15.0000000000
10295 2      15.9509000178      14.0000000000
10296 2      14.4982959521      18.0000000000
10297 2      12.9384970171      14.0000000000
10298 2      14.3306132781      17.0000000000
10299 2      14.5586707912      19.0000000000
10300 2      14.4697817717      18.0000000000
10301 2      16.7415308841      20.0000000000
10302 2      24.0582838329      23.0000000000
10303 2      13.3542667455      15.0000000000
10304 2      17.0379264901      18.0000000000
10305 2      15.5205855954      18.0000000000
10306 2      15.3449569893      20.0000000000
10307 2      16.3354044948      17.0000000000
10308 2      16.1739019951      19.0000000000
10309 2      18.5161103887      19.0000000000
10310 2      16.5446614664      18.0000000000
10311 2      14.7930322067      17.0000000000
10312 2      15.7177921047      22.0000000000
10313 2      13.1930490466      15.0000000000
10314 2      14.5570356920      16.0000000000
10315 2      16.0474561096      19.0000000000
10316 2      19.5616428673      20.0000000000
10317 2      15.1425197639      19.0000000000
10318 2      13.9618843296      14.0000000000
10319 2      16.1875373012      17.0000000000
10320 2      16.1682689732      18.0000000000
10321 2      14.9641964276      16.0000000000
10322 2      13.7874449096      19.0000000000
10323 2      15.1045435323      17.0000000000
10324 2      19.1914902598      18.0000000000
10325 2      16.9939598930      15.0000000000
10326 2      14.8878946240      17.0000000000
10327 2      16.3953053999      19.0000000000
10328 2      15.0356764720      20.0000000000
10329 2      17.0466029845      15.0000000000
10330 2      14.9024564400      16.0000000000
10331 2      14.6336177499      19.0000000000
10332 2      14.0183850547      18.0000000000
10333 2      14.9341234463      13.0000000000
10334 2      15.2720142857      19.0000000000
10335 2      20.0654498037      17.0000000000
10336 2      15.4202403584      20.0000000000
10337 2      15.2176108644      18.0000000000
10338 2      14.3101984394      17.0000000000
10339 2      18.0680854066      14.0000000000
10340 2      18.3450551381      21.0000000000
10341 2      15.8617002156      23.0000000000
10342 2      13.8263699329      18.0000000000
10343 2      16.4167221926      17.0000000000
10344 2      18.5385383759      18.0000000000
10345 2      13.2221781212      16.0000000000
10346 2      15.4950553832      19.0000000000
10347 2      13.6227627930      17.0000000000
10348 2      15.3503859124      19.0000000000
10349 2      15.0599573884      19.0000000000
10350 2      19.3665666342      19.0000000000
10351 2      13.6881924955      13.0000000000
10352 2      13.8225217498      16.0000000000
10353 2      15.8982989910      14.0000000000
10354 2      19.8628257743      19.0000000000
10355 2      18.5018663727      19.0000000000
10356 2      17.7843122872      19.0000000000
10357 2      16.5199029020      21.0000000000
10358 2      16.1604479568      17.0000000000
10359 2      16.9334160140      18.0000000000
10360 2      14.7048483604      18.0000000000
10361 2      18.7066322406      20.0000000000
10362 2      19.9727325132      16.0000000000
10363 2      16.8385259992      23.0000000000
10364 2      18.7268158681      22.0000000000
10365 2      15.5645684849      17.0000000000
10366 2      20.7461244832      19.0000000000
10367 2      14.5474256865      17.0000000000
10368 2      13.2780174194      17.0000000000
10369 2      15.0514410780      21.0000000000
10370 2      17.2561988494      16.0000000000
10371 2      17.8985887238      21.0000000000
10372 2      15.1013645250      16.0000000000
10373 2      16.3642171801      19.0000000000
10374 2      13.3287819422      16.0000000000
10375 2      15.3425734185      21.0000000000
10376 2      15.5031930419      15.0000000000
10377 2      14.5428222598      19.0000000000
10378 2      13.6282801680      17.0000000000
10379 2      17.8208339227      19.0000000000
10380 2      19.0590057568      20.0000000000
10381 2      14.2081680768      14.0000000000
10382 2      16.8140144613      17.0000000000
10383 2      14.2454108840      19.0000000000
10384 2      15.4216170417      18.0000000000
10385 2      19.8703312997      16.0000000000
10386 2      16.1212504346      16.0000000000
10387 2      14.3731675622      13.0000000000
10388 2      19.7715895166      16.0000000000
10389 2      15.8520491577      20.0000000000
10390 2      18.8504193100      18.0000000000
10391 2      15.0324528914      13.0000000000
10392 2      16.9251112979      23.0000000000
10393 2      16.6978817574      21.0000000000
10394 2      17.7971444990      19.0000000000
10395 2      14.2522100365      20.0000000000
10396 2      16.7485946181      17.0000000000
10397 2      12.6775644991      13.0000000000
10398 2      17.9519628918      22.0000000000
10399 2      15.5049143712      18.0000000000
10400 2      13.4835099727      17.0000000000
10401 2      16.7351277067      18.0000000000
10402 2      14.4632907886      16.0000000000
10403 2      13.0480110810      17.0000000000
10404 2      15.2429285916      20.0000000000
10405 2      14.4211423594      14.0000000000
10406 2      16.0818898660      21.0000000000
10407 2      16.4038557994      18.0000000000
10408 2      22.1218061774      16.0000000000
10409 2      14.2069192641      16.0000000000
10410 2      13.4243925269      18.0000000000
10411 2      13.6331114551      14.0000000000
10412 2      18.6445095441      15.0000000000
10413 2      17.0807125590      14.0000000000
10414 2      16.4831776143      17.0000000000
10415 2      16.4509798425      17.0000000000
10416 2      15.6554612533      20.0000000000
10417 2      18.1094500163      19.0000000000
10418 2      15.5604029751      17.0000000000
10419 2      14.9940691838      18.0000000000
10420 2      17.1191656173      17.0000000000
10421 2      17.6729213771      20.0000000000
10422 2      15.3320189584      17.0000000000
10423 2      15.9541266729      17.0000000000
10424 2      15.0371703414      18.0000000000
10425 2      17.2949230071      13.0000000000
10426 2      15.0622929736      17.0000000000
10427 2      13.0364950044      15.0000000000
10428 2      15.2317863044      17.0000000000
10429 2      12.7557557063      13.0000000000
10430 2      17.6146977730      19.0000000000
10431 2      15.7006087038      15.0000000000
10432 2      12.2099441092      16.0000000000
10433 2      14.9746406156      21.0000000000
10434 2      15.7577751524      19.0000000000
10435 2      14.6036584350      18.0000000000
10436 2      16.4925200866      12.0000000000
10437 2      13.6512230623      15.0000000000
10438 2      15.1362429828      19.0000000000
10439 2      19.8405764964      18.0000000000
10440 2      16.0676774928      17.0000000000
10441 2      14.0027267662      18.0000000000
10442 2      15.7091041445      19.0000000000
10443 2      15.6788628480      20.0000000000
10444 2      16.8020853197      16.0000000000
10445 2      17.5115046599      19.0000000000
10446 2      17.5032461314      18.0000000000
10447 2      14.8493435889      15.0000000000
10448 2      15.9123128360      15.0000000000
10449 2      16.1976687338      21.0000000000
10450 2      15.4311293239      18.0000000000
10451 2      14.5868470519      18.0000000000
10452 2      17.9904282698      16.0000000000
10453 2      14.6526776834      14.0000000000
10454 2      15.4982138655      21.0000000000
10455 2      14.7021962785      19.0000000000
10456 2      13.9249852269      16.0000000000
10457 2      16.1292119617      15.0000000000
10458 2      13.5525355391      14.0000000000
10459 2      12.7328800034      19.0000000000
10460 2      13.6612392304      19.0000000000
10461 2      13.0242569548      16.0000000000
10462 2      14.4512714140      15.0000000000
10463 2      15.6794072396      20.0000000000
10464 2      17.8020881737      23.0000000000
10465 2      14.6821262475      17.0000000000
10466 2      18.2667472644      19.0000000000
10467 2      15.9771729730      14.0000000000
10468 2      12.4930220910      14.0000000000
10469 2      14.6473709971      19.0000000000
10470 2      14.8900596247      16.0000000000
10471 2      16.2881085383      18.0000000000
10472 2      15.4019311238      20.0000000000
10473 2      15.9095854144      17.0000000000
10474 2      15.3873897917      17.0000000000
10475 2      14.6587619467      18.0000000000
10476 2      13.2894201717      16.0000000000
10477 2      13.6358389577      17.0000000000
10478 2      16.8313253023      15.0000000000
10479 2      17.6038826513      18.0000000000
10480 2      16.6729786984      14.0000000000
10481 2      16.5565590587      17.0000000000
10482 2      14.6560347934      15.0000000000
10483 2      17.0262828602      14.0000000000
10484 2      14.1521537847      18.0000000000
10485 2      15.9557970820      20.0000000000
10486 2      13.6085891625      14.0000000000
10487 2      16.3307952615      18.0000000000
10488 2      16.6366336678      17.0000000000
10489 2      16.8289208741      22.0000000000
10490 2      17.8565113445      14.0000000000
10491 2      16.3766143140      16.0000000000
10492 2      17.2282429080      18.0000000000
10493 2      16.1951329084      19.0000000000
10494 2      18.9799833724      18.0000000000
10495 2      15.5856694146      17.0000000000
10496 2      18.2501942633      22.0000000000
10497 2      15.3357500288      20.0000000000
10498 2      14.5354577416      18.0000000000
10499 2      15.7733714178      14.0000000000
10500 2      14.4322060024      14.0000000000
10501 2      15.5008566174      18.0000000000
10502 2      14.8042841522      17.0000000000
10503 2      18.2853453491      20.0000000000
10504 2      16.1725462240      20.0000000000
10505 2      15.1346202020      15.0000000000
10506 2      14.7620648256      14.0000000000
10507 2      15.0432075329      16.0000000000
10508 2      15.9231329914      17.0000000000
10509 2      17.7713330923      20.0000000000
10510 2      15.7817470444      15.0000000000
10511 2      14.3044449020      19.0000000000
10512 2      12.8500649611      16.0000000000
10513 2      14.4487316022      18.0000000000
10514 2      13.8762036862      16.0000000000
10515 2      21.3868015949      16.0000000000
10516 2      15.6551679590      19.0000000000
10517 2      16.6028786634      17.0000000000
10518 2      13.2474956474      15.0000000000
10519 2      15.5102201341      19.0000000000
10520 2      17.6235920100      16.0000000000
10521 2      22.4986048403      16.0000000000
10522 2      16.0543721074      16.0000000000
10523 2      14.3097862126      14.0000000000
10524 2      15.6896878025      18.0000000000
10525 2      14.9039088369      17.0000000000
10526 2      15.0405502040      16.0000000000
10527 2      16.8356486446      17.0000000000
10528 2      14.4327149149      15.0000000000
10529 2      20.1569740813      19.0000000000
10530 2      18.4895362198      21.0000000000
10531 2      15.3058074958      20.0000000000
10532 2      15.7173574610      16.0000000000
10533 2      12.7772960797      15.0000000000
10534 2      12.8433818276      14.0000000000
10535 2      16.5591282399      18.0000000000
10536 2      17.3348502126      18.0000000000
10537 2      17.0450708141      14.0000000000
10538 2      14.4362721754      14.0000000000
10539 2      13.1262097699      19.0000000000
10540 2      17.1914446532      16.0000000000
10541 2      13.5427117879      13.0000000000
10542 2      15.0184020911      17.0000000000
10543 2      16.1881419064      17.0000000000
10544 2      14.7508913863      16.0000000000
10545 2      15.3763596864      17.0000000000
10546 2      21.3019361953      13.0000000000
10547 2      18.3584099160      20.0000000000
10548 2      13.8953512475      17.0000000000
10549 2      16.7784910794      16.0000000000
10550 2      16.8348222264      21.0000000000
10551 2      16.5544841218      18.0000000000
10552 2      17.2961285076      19.0000000000
10553 2      17.5578556637      22.0000000000
10554 2      15.0846592802      20.0000000000
10555 2      13.9838304885      15.0000000000
10556 2      17.9622333770      15.0000000000
10557 2      15.4936566483      17.0000000000
10558 2      17.1266895077      23.0000000000
10559 2      13.9517183633      15.0000000000
10560 2      15.4591126447      17.0000000000
10561 2      15.0492006867      19.0000000000
10562 2      13.0103410213      15.0000000000
10563 2      17.0780933618      15.0000000000
10564 2      16.5086394913      21.0000000000
10565 2      15.2346835849      20.0000000000
10566 2      13.6233942463      15.0000000000
10567 2      17.4578194828      18.0000000000
10568 2      16.9982673267      20.0000000000
10569 2      17.9073721311      16.0000000000
10570 2      19.0865286325      17.0000000000
10571 2      14.9477038533      23.0000000000
10572 2      19.2601768774      20.0000000000
10573 2      14.8898788513      20.0000000000
10574 2      15.1863332299      18.0000000000
10575 2      18.5858829023      21.0000000000
10576 2      16.7605195946      15.0000000000
10577 2      17.0055301809      20.0000000000
10578 2      13.3861600166      16.0000000000
10579 2      15.9972952878      16.0000000000
10580 2      14.6014879107      15.0000000000
10581 2      15.3210687458      16.0000000000
10582 2      14.3887824557      16.0000000000
10583 2      13.7505333615      17.0000000000
10584 2      14.0466498959      18.0000000000
10585 2      15.6572412974      19.0000000000
10586 2      14.2725242641      17.0000000000
10587 2      20.6327450721      15.0000000000
10588 2      17.7214769745      17.0000000000
10589 2      14.2893023310      16.0000000000
10590 2      15.1009700325      18.0000000000
10591 2      17.5286497777      20.0000000000
10592 2      14.1044115249      17.0000000000
10593 2      16.6362322101      18.0000000000
10594 2      20.0398295207      17.0000000000
10595 2      14.4093542703      17.0000000000
10596 2      15.2608418979      14.0000000000
10597 2      17.8401328062      16.0000000000
10598 2      14.0555223131      13.0000000000
10599 2      15.1710632469      20.0000000000
10600 2      14.9303384099      18.0000000000
10601 2      17.4107906629      17.0000000000
10602 2      15.1550714176      15.0000000000
10603 2      13.4545787991      18.0000000000
10604 2      14.5659016388      16.0000000000
10605 2      13.1496731380      12.0000000000
10606 2      18.1826056213      18.0000000000
10607 2      16.8487397892      17.0000000000
10608 2      20.4264468547      17.0000000000
10609 2      15.8466562632      21.0000000000
10610 2      14.5626454234      16.0000000000
10611 2      15.3415697961      15.0000000000
10612 2      14.9422180436      19.0000000000
10613 2      15.0887021608      21.0000000000
10614 2      16.9593809522      20.0000000000
10615 2      15.5064695767      20.0000000000
10616 2      13.4091089620      17.0000000000
10617 2      16.1379004120      22.0000000000
10618 2      17.1024950152      21.0000000000
10619 2      15.4281959095      18.0000000000
10620 2      12.9891916721      17.0000000000
10621 2      18.3635738043      22.0000000000
10622 2      15.0753592949      17.0000000000
10623 2      17.5862601887      23.0000000000
10624 2      16.2710021284      13.0000000000
10625 2      13.4697345658      16.0000000000
10626 2      15.4127997708      15.0000000000
10627 2      13.1343894384      18.0000000000
10628 2      14.9785169191      16.0000000000
10629 2      12.1142236187      16.0000000000
10630 2      16.5864327558      24.0000000000
10631 2      15.5492774650      20.0000000000
10632 2      15.8759708265      16.0000000000
10633 2      17.5261871802      19.0000000000
10634 2      15.7289102503      18.0000000000
10635 2      14.4004829870      15.0000000000
10636 2      13.4793214345      17.0000000000
10637 2      16.9536101497      20.0000000000
10638 2      13.3830938475      14.0000000000
10639 2      13.4614759414      13.0000000000
10640 2      16.5910843155      23.0000000000
10641 2      15.6612601811      19.0000000000
10642 2      14.3748234115      15.0000000000
10643 2      17.8717778498      15.0000000000
10644 2      16.0330626619      20.0000000000
10645 2      17.0256083668      24.0000000000
10646 2      14.6367640849      17.0000000000
10647 2      13.2545441718      16.0000000000
10648 2      14.2851113005      16.0000000000
10649 2      14.0758743451      15.0000000000
10650 2      13.4569441272      14.0000000000
10651 2      14.4233923701      14.0000000000
10652 2      15.9851135640      18.0000000000
10653 2      21.2898271439      15.0000000000
10654 2      16.5280946600      19.0000000000
10655 2      15.9726060668      21.0000000000
10656 2      15.6399470811      15.0000000000
10657 2      14.2994993820      17.0000000000
10658 2      18.0206704996      22.0000000000
10659 2      15.8028919194      14.0000000000
10660 2      16.3829585321      18.0000000000
10661 2      15.8863067519      18.0000000000
10662 2      13.1035655501      14.0000000000
10663 2      15.8706280447      22.0000000000
10664 2      17.1142497514      18.0000000000
10665 2      13.3187345617      15.0000000000
10666 2      17.7436650646      20.0000000000
10667 2      16.2772202864      17.0000000000
10668 2      15.4694233670      18.0000000000
10669 2      15.3854562335      17.0000000000
10670 2      14.5563995374      18.0000000000
10671 2      15.2874976302      19.0000000000
10672 2      14.9229121231      16.0000000000
10673 2      14.6587548746      17.0000000000
10674 2      15.7826810642      20.0000000000
10675 2      17.6887068601      17.0000000000
10676 2      15.5547061086      18.0000000000
10677 2      17.9600528490      20.0000000000
10678 2      14.2032316903      16.0000000000
10679 2      15.4010264565      19.0000000000
10680 2      15.6145803840      20.0000000000
10681 2      17.0802073474      20.0000000000
10682 2      15.8423888281      20.0000000000
10683 2      13.7080579175      13.0000000000
10684 2      14.5421991781      19.0000000000
10685 2      14.5019129324      17.0000000000
10686 2      15.4024008666      15.0000000000
10687 2      19.2601233597      21.0000000000
10688 2      15.4685515379      20.0000000000
10689 2      13.9661974647      20.0000000000
10690 2      13.7908528575      18.0000000000
10691 2      16.3062277859      16.0000000000
10692 2      13.3231660355      18.0000000000
10693 2      14.7490069823      17.0000000000
10694 2      17.0271907251      15.0000000000
10695 2      16.7710043251      16.0000000000
10696 2      17.0954033299      16.0000000000
10697 2      16.9085090951      14.0000000000
10698 2      19.8985990740      25.0000000000
10699 2      15.6538540592      17.0000000000
10700 2      15.6502346294      18.0000000000
10701 2      18.2227665028      15.0000000000
10702 2      15.7359601327      16.0000000000
10703 2      17.0243212759      18.0000000000
10704 2      16.0045421257      18.0000000000
10705 2      13.8748912326      15.0000000000
10706 2      15.0281880509      15.0000000000
10707 2      14.5563923015      14.0000000000
10708 2      13.5705322629      19.0000000000
10709 2      16.9365279497      17.0000000000
10710 2      16.1249901254      21.0000000000
10711 2      16.8684233464      20.0000000000
10712 2      14.7395393682      16.0000000000
10713 2      20.1874027817      22.0000000000
10714 2      15.7152752701      17.0000000000
10715 2      17.9972460506      14.0000000000
10716 2      15.3130648116      16.0000000000
10717 2      14.5026801934      17.0000000000
10718 2      19.8900945867      22.0000000000
10719 2      19.5191805344      21.0000000000
10720 2      18.3145433149      17.0000000000
10721 2      14.9104101927      19.0000000000
10722 2      14.6842650749      19.0000000000
10723 2      16.7766877427      17.0000000000
10724 2      20.4863248541      19.0000000000
10725 2      18.2580998927      18.0000000000
10726 2      16.7940214155      18.0000000000
10727 2      13.9212470904      12.0000000000
10728 2      15.2384645749      18.0000000000
10729 2      17.1474366275      14.0000000000
10730 2      14.9446731646      18.0000000000
10731 2      13.7924576943      18.0000000000
10732 2      15.7669620409      15.0000000000
10733 2      16.0944883738      18.0000000000
10734 2      16.0678610862      18.0000000000
10735 2      14.5585746350      17.0000000000
10736 2      14.6481193798      17.0000000000
10737 2      16.0001674613      19.0000000000
10738 2      14.2052685797      18.0000000000
10739 2      17.3648575527      19.0000000000
10740 2      15.6833353139      17.0000000000
10741 2      18.2282048031      17.0000000000
10742 2      16.6511177503      21.0000000000
10743 2      16.9042982620      19.0000000000
10744 2      17.6375408045      21.0000000000
10745 2      16.4189047100      20.0000000000
10746 2      16.5413031962      18.0000000000
10747 2      15.5224832234      20.0000000000
10748 2      14.3699631600      16.0000000000
10749 2      16.1194952476      18.0000000000
10750 2      13.9239592475      17.0000000000
10751 2      14.5918524591      21.0000000000
10752 2      15.6953739147      18.0000000000
10753 2      16.3546119600      20.0000000000
10754 2      18.4762752800      22.0000000000
10755 2      15.2882337103      15.0000000000
10756 2      15.6140846838      21.0000000000
10757 2      17.6645271412      19.0000000000
10758 2      18.7925428848      17.0000000000
10759 2      16.2715898352      15.0000000000
10760 2      12.4905931586      14.0000000000
10761 2      18.0310248627      19.0000000000
10762 2      14.9135636114      18.0000000000
10763 2      18.2639095757      20.0000000000
10764 2      12.7140889965      17.0000000000
10765 2      12.7059695517      13.0000000000
10766 2      17.9874212603      18.0000000000
10767 2      15.4921168541      19.0000000000
10768 2      19.2917836650      15.0000000000
10769 2      14.6480133407      16.0000000000
10770 2      14.4568998703      15.0000000000
10771 2      18.2741337863      15.0000000000
10772 2      15.9403700795      18.0000000000
10773 2      16.1010850500      22.0000000000
10774 2      13.8799503871      17.0000000000
10775 2      18.1403563595      19.0000000000
10776 2      15.9147244771      16.0000000000
10777 2      15.8289356941      20.0000000000
10778 2      15.0506888224      16.0000000000
10779 2      16.9012212836      16.0000000000
10780 2      12.3653226882      17.0000000000
10781 2      15.3695522269      18.0000000000
10782 2      13.7847981140      15.0000000000
10783 2      14.0709832170      18.0000000000
10784 2      16.4741507479      14.0000000000
10785 2      14.4407073880      21.0000000000
10786 2      17.6162464048      19.0000000000
10787 2      13.9365122629      13.0000000000
10788 2      15.3138482595      19.0000000000
10789 2      16.5378470934      17.0000000000
10790 2      13.5698978668      17.0000000000
10791 2      17.4022507295      17.0000000000
10792 2      17.6772144764      21.0000000000
10793 2      15.8484726706      20.0000000000
10794 2      15.3165464911      22.0000000000
10795 2      15.2391692104      16.0000000000
10796 2      19.0868636756      22.0000000000
10797 2      17.2102238304      13.0000000000
10798 2      17.2895791105      16.0000000000
10799 2      14.0933749499      16.0000000000
10800 2      17.3357882561      16.0000000000
10801 2      13.0127932437      15.0000000000
10802 2      14.4533913455      17.0000000000
10803 2      13.7259527384      19.0000000000
10804 2      15.5303350022      20.0000000000
10805 2      17.0351798812      19.0000000000
10806 2      14.9152419941      17.0000000000
10807 2      17.0749125717      23.0000000000
10808 2      16.3270411581      18.0000000000
10809 2      15.4508786981      16.0000000000
10810 2      15.7213384247      21.0000000000
10811 2      15.1443859057      21.0000000000
10812 2      16.6057292480      18.0000000000
10813 2      14.7847673755      17.0000000000
10814 2      15.1136431101      21.0000000000
10815 2      16.1576135845      19.0000000000
10816 2      14.6065188223      19.0000000000
10817 2      21.4404187083      18.0000000000
10818 2      14.8666184460      19.0000000000
10819 2      15.1586491784      22.0000000000
10820 2      19.0703833650      21.0000000000
10821 2      18.1707084544      14.0000000000
10822 2      18.1347889011      16.0000000000
10823 2      17.9182080065      22.0000000000
10824 2      15.3278770145      17.0000000000
10825 2      17.1003681982      22.0000000000
10826 2      16.0182143743      18.0000000000
10827 2      13.9389186730      15.0000000000
10828 2      20.5702190647      18.0000000000
10829 2      18.0061402918      20.0000000000
10830 2      14.8516356735      19.0000000000
10831 2      18.4201652684      22.0000000000
10832 2      13.9553763785      16.0000000000
10833 2      20.0010911498      20.0000000000
10834 2      15.4459142365      16.0000000000
10835 2      17.2203176876      18.0000000000
10836 2      19.7779554505      21.0000000000
10837 2      17.6045381392      16.0000000000
10838 2      12.9099272223      17.0000000000
10839 2      14.6001215778      21.0000000000
10840 2      15.4077212990      18.0000000000
10841 2      16.6402274164      18.0000000000
10842 2      16.4287884668      18.0000000000
10843 2      14.1499399249      18.0000000000
10844 2      14.8329862896      16.0000000000
10845 2      15.7472060716      17.0000000000
10846 2      15.2077025272      21.0000000000
10847 2      17.8773885125      15.0000000000
10848 2      13.4396140931      14.0000000000
10849 2      17.4045700863      17.0000000000
10850 2      14.3134618619      19.0000000000
10851 2      13.8597576898      19.0000000000
10852 2      14.3408907302      15.0000000000
10853 2      17.2830523694      20.0000000000
10854 2      14.9063312862      21.0000000000
10855 2      17.2218706662      18.0000000000
10856 2      19.1670755694      18.0000000000
10857 2      16.9594651702      19.0000000000
10858 2      13.8818982633      16.0000000000
10859 2      13.9548306493      15.0000000000
10860 2      18.6453115508      20.0000000000
10861 2      14.8410308599      15.0000000000
10862 2      15.0938204115      17.0000000000
10863 2      12.1356397055      13.0000000000
10864 2      16.4476530139      20.0000000000
10865 2      16.5856935193      18.0000000000
10866 2      18.3236442880      19.0000000000
10867 2      13.9001256241      19.0000000000
10868 2      16.0636603025      18.0000000000
10869 2      15.5271267893      15.0000000000
10870 2      17.1562096502      17.0000000000
10871 2      20.7891286497      20.0000000000
10872 2      15.5274857136      13.0000000000
10873 2      15.5990248982      16.0000000000
10874 2      16.0511024921      16.0000000000
10875 2      14.7622316099      19.0000000000
10876 2      14.9604112513      19.0000000000
10877 2      15.6033087944      18.0000000000
10878 2      14.9413528827      20.0000000000
10879 2      17.5958950570      20.0000000000
10880 2      17.7967382060      22.0000000000
10881 2      16.9258015755      18.0000000000
10882 2      19.7167398065      18.0000000000
10883 2      16.2766594682      15.0000000000
10884 2      15.2205281807      16.0000000000
10885 2      18.3982686134      23.0000000000
10886 2      15.3201756412      16.0000000000
10887 2      16.0099500952      14.0000000000
10888 2      18.0007751988      16.0000000000
10889 2      14.0217677419      14.0000000000
10890 2      17.8364347973      22.0000000000
10891 2      14.8472024950      17.0000000000
10892 2      16.4623843486      18.0000000000
10893 2      15.8758578792      16.0000000000
10894 2      15.3647399546      14.0000000000
10895 2      15.1060641828      18.0000000000
10896 2      14.0169852277      18.0000000000
10897 2      15.1491812382      14.0000000000
10898 2      13.6581726520      15.0000000000
10899 2      11.5785401355      15.0000000000
10900 2      13.8841987603      19.0000000000
10901 2      13.8866300371      16.0000000000
10902 2      12.4481609798      14.0000000000
10903 2      13.5338410372      15.0000000000
10904 2      15.5597577273      19.0000000000
10905 2      14.6688980406      20.0000000000
10906 2      13.6883755876      15.0000000000
10907 2      14.2937904130      16.0000000000
10908 2      16.4603359352      18.0000000000
10909 2      12.5341158725      16.0000000000
10910 2      14.4701926547      17.0000000000
10911 2      16.6002599564      18.0000000000
10912 2      12.6617187846      16.0000000000
10913 2      16.9926127850      22.0000000000
10914 2      23.2239507154      19.0000000000
10915 2      16.9745791497      14.0000000000
10916 2      18.6162942569      20.0000000000
10917 2      15.2828822623      15.0000000000
10918 2      13.7993792696      18.0000000000
10919 2      13.1534761768      13.0000000000
10920 2      15.8622279487      22.0000000000
10921 2      16.8030428333      16.0000000000
10922 2      13.6024114514      11.0000000000
10923 2      12.2911328268      17.0000000000
10924 2      17.5368810120      17.0000000000
10925 2      16.1879510901      16.0000000000
10926 2      15.4500178692      20.0000000000
10927 2      13.7710000899      15.0000000000
10928 2      18.7738360273      18.0000000000
10929 2      17.5482153291      20.0000000000
10930 2      13.3752642985      15.0000000000
10931 2      14.1843016638      17.0000000000
10932 2      16.2608722201      19.0000000000
10933 2      15.2603210859      21.0000000000
10934 2      16.3952674628      18.0000000000
10935 2      17.6510774935      22.0000000000
10936 2      13.7861331629      19.0000000000
10937 2      17.4432178535      21.0000000000
10938 2      16.2857876069      15.0000000000
10939 2      16.3938948176      15.0000000000
10940 2      14.2982981563      19.0000000000
10941 2      15.5122938001      18.0000000000
10942 2      14.6983357352      20.0000000000
10943 2      16.1072196506      17.0000000000
10944 2      15.6118654785      19.0000000000
10945 2      15.3001288242      19.0000000000
10946 2      15.3289704799      20.0000000000
10947 2      16.7228312768      20.0000000000
10948 2      16.3727663731      17.0000000000
10949 2      14.3774322826      16.0000000000
10950 2      14.9533624784      18.0000000000
10951 2      14.5305294124      20.0000000000
10952 2      16.6713631786      15.0000000000
10953 2      15.8652287920      18.0000000000
10954 2      17.1486863204      21.0000000000
10955 2      13.3639721685      16.0000000000
10956 2      16.6852520058      21.0000000000
10957 2      16.5843086928      14.0000000000
10958 2      15.5531240882      16.0000000000
10959 2      16.1209881257      19.0000000000
10960 2      16.5414523297      15.0000000000
10961 2      16.0096495188      20.0000000000
10962 2      14.6132834510      22.0000000000
10963 2      19.5705262072      17.0000000000
10964 2      19.3056197994      23.0000000000
10965 2      13.5431081742      16.0000000000
10966 2      15.8855157168      16.0000000000
10967 2      14.0420556229      19.0000000000
10968 2      14.9014438531      18.0000000000
10969 2      16.7698872522      18.0000000000
10970 2      16.3156672392      16.0000000000
10971 2      14.6211522307      12.0000000000
10972 2      20.0435232063      22.0000000000
10973 2      15.8975664552      20.0000000000
10974 2      18.7910019176      21.0000000000
10975 2      13.0708068046      18.0000000000
10976 2      14.7581365052      18.0000000000
10977 2      17.0094721606      19.0000000000
10978 2      16.4936667803      16.0000000000
10979 2      17.3732643699      20.0000000000
10980 2      15.9527538447      19.0000000000
10981 2      19.3167840794      16.0000000000
10982 2      17.8369797105      15.0000000000
10983 2      13.6029495549      17.0000000000
10984 2      17.0311127454      20.0000000000
10985 2      14.4611317379      20.0000000000
10986 2      16.6822502489      16.0000000000
10987 2      14.8395328229      19.0000000000
10988 2      16.6812554224      17.0000000000
10989 2      18.8002687975      20.0000000000
10990 2      15.2345972194      20.0000000000
10991 2      14.5134892789      17.0000000000
10992 2      19.9416999587      22.0000000000
10993 2      15.0978412537      19.0000000000
10994 2      15.5093112505      17.0000000000
10995 2      15.2841727741      19.0000000000
10996 2      18.5160724049      22.0000000000
10997 2      14.5685873590      19.0000000000
10998 2      15.7651035114      20.0000000000
10999 2      18.3273065123      15.0000000000
11000 2      13.6806850353      17.0000000000
11001 2      18.3769582425      21.0000000000
11002 2      16.5074079371      20.0000000000
11003 2      18.0252375537      17.0000000000
11004 2      17.4575318667      17.0000000000
11005 2      17.8901823358      18.0000000000
11006 2      12.9317392517      14.0000000000
11007 2      14.9271458723      17.0000000000
11008 2      17.6442867061      17.0000000000
11009 2      16.4795617604      17.0000000000
11010 2      20.0614883966      19.0000000000
11011 2      14.9401141036      17.0000000000
11012 2      16.8130738167      17.0000000000
11013 2      14.6025833009      20.0000000000
11014 2      16.4911637619      16.0000000000
11015 2      18.7270975235      19.0000000000
11016 2      16.9143117526      19.0000000000
11017 2      16.5898534126      20.0000000000
11018 2      17.0383037282      13.0000000000
11019 2      14.6918376351      19.0000000000
11020 2      18.7825317909      17.0000000000
11021 2      15.3253634387      17.0000000000
11022 2      14.0421537906      15.0000000000
11023 2      18.7033632737      16.0000000000
11024 2      13.5406964107      19.0000000000
11025 2      17.2551790112      21.0000000000
11026 2      16.9001284107      16.0000000000
11027 2      20.6158854880      17.0000000000
11028 2      14.7624512221      14.0000000000
11029 2      14.8860549941      16.0000000000
11030 2      13.8593797346      17.0000000000
11031 2      15.4574103286      20.0000000000
11032 2      15.3481996237      19.0000000000
11033 2      16.4593789845      18.0000000000
11034 2      14.1384284837      17.0000000000
11035 2      18.2106191355      18.0000000000
11036 2      14.5306985360      15.0000000000
11037 2      15.7901100159      17.0000000000
11038 2      21.1258109833      19.0000000000
11039 2      15.5207926669      15.0000000000
11040 2      14.6960013361      18.0000000000
11041 2      16.4317090349      16.0000000000
11042 2      16.8041098013      19.0000000000
11043 2      15.1013078902      19.0000000000
11044 2      15.4871145631      15.0000000000
11045 2      16.5827034299      18.0000000000
11046 2      14.8328522974      18.0000000000
11047 2      15.5768685134      20.0000000000
11048 2      14.3833950060      14.0000000000
11049 2      18.0113771500      20.0000000000
11050 2      14.3386443469      18.0000000000
11051 2      16.6998867987      15.0000000000
11052 2      15.7000814852      18.0000000000
11053 2      14.1767624504      19.0000000000
11054 2      14.2187063426      18.0000000000
11055 2      15.6418874041      18.0000000000
11056 2      13.7228648685      19.0000000000
11057 2      15.0422994785      18.0000000000
11058 2      13.3144428379      14.0000000000
11059 2      16.9090017936      19.0000000000
11060 2      17.3032826926      21.0000000000
11061 2      14.8732312359      19.0000000000
11062 2      15.5274668730      17.0000000000
11063 2      17.3703639200      16.0000000000
11064 2      14.7310769695      17.0000000000
11065 2      16.6183112654      23.0000000000
11066 2      15.7326850739      17.0000000000
11067 2      19.2613820528      15.0000000000
11068 2      15.6660512327      20.0000000000
11069 2      15.1918267344      17.0000000000
11070 2      18.9313515824      17.0000000000
11071 2      16.3230537825      21.0000000000
11072 2      16.6745845940      19.0000000000
11073 2      16.6176905999      15.0000000000
11074 2      15.7452715162      18.0000000000
11075 2      16.8679721531      16.0000000000
11076 2      14.4168918118      13.0000000000
11077 2      16.1042870258      22.0000000000
11078 2      15.2460490148      21.0000000000
11079 2      13.3444144240      18.0000000000
11080 2      16.7038313300      18.0000000000
11081 2      17.2863009350      18.0000000000
11082 2      14.2835915878      16.0000000000
11083 2      18.7412825057      16.0000000000
11084 2      16.5970346322      18.0000000000
11085 2      15.1038926394      17.0000000000
11086 2      16.5820064248      14.0000000000
11087 2      14.5677893931      19.0000000000
11088 2      14.2284860241      17.0000000000
11089 2      14.0289584624      14.0000000000
11090 2      16.2286676302      14.0000000000
11091 2      14.0555623953      16.0000000000
11092 2      16.7797349009      20.0000000000
11093 2      16.7787491484      19.0000000000
11094 2      20.7198287719      20.0000000000
11095 2      16.9763947749      20.0000000000
11096 2      14.5734128515      20.0000000000
11097 2      17.9091855882      20.0000000000
11098 2      19.1628776927      20.0000000000
11099 2      17.9087541140      19.0000000000
11100 2      14.2954063526      14.0000000000
11101 2      11.2655468399      17.0000000000
11102 2      16.8701265480      20.0000000000
11103 2      15.7387517156      20.0000000000
11104 2      16.5213005683      17.0000000000
11105 2      15.2246863735      18.0000000000
11106 2      17.4690209625      23.0000000000
11107 2      17.4025630538      20.0000000000
11108 2      13.7718129516      14.0000000000
11109 2      20.0959180517      23.0000000000
11110 2      19.5993696542      25.0000000000
11111 2      17.0910587448      16.0000000000
11112 2      17.4122447187      21.0000000000
11113 2      19.2642559908      19.0000000000
11114 2      12.8534231725      13.0000000000
11115 2      18.1001252275      19.0000000000
11116 2      14.2341168078      15.0000000000
11117 2      16.3867321793      16.0000000000
11118 2      14.9917996181      13.0000000000
11119 2      14.8679559909      17.0000000000
11120 2      14.0870323395      16.0000000000
11121 2      17.1474711085      16.0000000000
11122 2      15.8609524805      18.0000000000
11123 2      17.1251491334      18.0000000000
11124 2      14.6062545899      17.0000000000
11125 2      14.8962477061      17.0000000000
11126 2      17.4121272046      17.0000000000
11127 2      14.4936365689      13.0000000000
11128 2      15.1285710701      16.0000000000
11129 2      16.5483300364      16.0000000000
11130 2      16.4815194299      18.0000000000
11131 2      16.1563562353      18.0000000000
11132 2      14.1132218304      18.0000000000
11133 2      17.0869745697      19.0000000000
11134 2      19.3745132804      15.0000000000
11135 2      15.1663974117      17.0000000000
11136 2      16.9701818535      21.0000000000
11137 2      20.2265728103      20.0000000000
11138 2      14.7667560944      17.0000000000
11139 2      14.9729426524      18.0000000000
11140 2      21.7170398125      19.0000000000
11141 2      20.3067951817      16.0000000000
11142 2      14.6240347412      22.0000000000
11143 2      15.6432604362      15.0000000000
11144 2      16.6005858688      18.0000000000
11145 2      12.7012334168      17.0000000000
11146 2      16.6876077259      18.0000000000
11147 2      14.2740561771      20.0000000000
11148 2      16.2710870553      19.0000000000
11149 2      16.1918380191      16.0000000000
11150 2      15.9745529650      19.0000000000
11151 2      15.4752887218      15.0000000000
11152 2      16.5638767479      20.0000000000
11153 2      17.9904587681      20.0000000000
11154 2      12.4506472233      16.0000000000
11155 2      15.4909315888      16.0000000000
11156 2      14.7977911343      14.0000000000
11157 2      17.4910187234      20.0000000000
11158 2      14.8230453445      15.0000000000
11159 2      15.2643345522      20.0000000000
11160 2      14.7480026638      15.0000000000
11161 2      15.5889223141      20.0000000000
11162 2      12.7204893472      16.0000000000
11163 2      16.7455491585      14.0000000000
11164 2      15.3330175710      22.0000000000
11165 2      13.2957136793      15.0000000000
11166 2      13.3759091791      13.0000000000
11167 2      16.9113363236      20.0000000000
11168 2      14.1019380829      17.0000000000
11169 2      14.2270644568      16.0000000000
11170 2      15.6096013613      16.0000000000
11171 2      13.9698227884      14.0000000000
11172 2      17.5136917287      18.0000000000
11173 2      14.3034121206      18.0000000000
11174 2      15.5378689471      20.0000000000
11175 2      20.0471173187      17.0000000000
11176 2      13.9998119675      18.0000000000
11177 2      17.9127004978      15.0000000000
11178 2      14.9474548974      16.0000000000
11179 2      17.2092355354      20.0000000000
11180 2      13.8372778275      17.0000000000
11181 2      13.3834212423      16.0000000000
11182 2      16.0687638152      17.0000000000
11183 2      16.2618469957      21.0000000000
11184 2      17.7798425927      18.0000000000
11185 2      13.7679041210      16.0000000000
11186 2      16.2359822415      20.0000000000
11187 2      18.1167150813      20.0000000000
11188 2      14.2503811380      17.0000000000
11189 2      17.6301473617      17.0000000000
11190 2      17.4163560703      13.0000000000
11191 2      14.6481245882      16.0000000000
11192 2      16.4723614947      21.0000000000
11193 2      15.3793659765      18.0000000000
11194 2      14.4780526586      16.0000000000
11195 2      14.4163484604      16.0000000000
11196 2      17.9040942452      17.0000000000
11197 2      18.4627407653      22.0000000000
11198 2      14.2538044692      17.0000000000
11199 2      13.7178339447      15.0000000000
11200 2      14.2821211790      19.0000000000
11201 2      15.5567944549      16.0000000000
11202 2      15.5379165277      17.0000000000
11203 2      17.3245114163      18.0000000000
11204 2      17.7839506489      20.0000000000
11205 2      15.0549967876      19.0000000000
11206 2      14.7965032179      18.0000000000
11207 2      14.7115542941      15.0000000000
11208 2      14.1896012042      16.0000000000
11209 2      14.2414208004      13.0000000000
11210 2      17.6482658570      22.0000000000
11211 2      13.5423766304      15.0000000000
11212 2      15.6897089157      21.0000000000
11213 2      16.7784084995      19.0000000000
11214 2      18.5675148856      17.0000000000
11215 2      16.0523391184      16.0000000000
11216 2      16.0813217273      22.0000000000
11217 2      13.3897445129      18.0000000000
11218 2      15.6109210027      17.0000000000
11219 2      14.9257720691      19.0000000000
11220 2      16.9452909753      20.0000000000
11221 2      17.4092789244      16.0000000000
11222 2      17.6246514614      22.0000000000
11223 2      14.6319272585      21.0000000000
11224 2      16.9628488295      19.0000000000
11225 2      19.2827669886      19.0000000000
11226 2      14.8522975596      19.0000000000
11227 2      16.1320762045      18.0000000000
11228 2      15.9018112045      17.0000000000
11229 2      14.4857898123      18.0000000000
11230 2      17.8167866764      22.0000000000
11231 2      15.3168530953      17.0000000000
11232 2      14.6717494646      18.0000000000
11233 2      14.5965696208      16.0000000000
11234 2      18.0346809503      19.0000000000
11235 2      15.1965421213      16.0000000000
11236 2      16.5674302193      17.0000000000
11237 2      14.5986839262      20.0000000000
11238 2      15.6813185806      18.0000000000
11239 2      19.3144040400      23.0000000000
11240 2      15.2722695161      14.0000000000
11241 2      15.4660467345      14.0000000000
11242 2      17.4122036836      19.0000000000
11243 2      15.3454609514      21.0000000000
11244 2      14.6056878709      20.0000000000
11245 2      16.3551601135      19.0000000000
11246 2      14.4816211106      18.0000000000
11247 2      16.1836849333      19.0000000000
11248 2      13.5620495892      18.0000000000
11249 2      15.7193767208      22.0000000000
11250 2      16.0435418177      16.0000000000
11251 2      17.9396367711      18.0000000000
11252 2      20.0680922433      18.0000000000
11253 2      16.2013617212      18.0000000000
11254 2      13.9985152184      14.0000000000
11255 2      13.3374246848      16.0000000000
11256 2      15.6775944356      22.0000000000
11257 2      14.0164943512      14.0000000000
11258 2      16.1999948767      18.0000000000
11259 2      15.5540375957      16.0000000000
11260 2      14.5107512115      17.0000000000
11261 2      15.4477360283      16.0000000000
11262 2      14.7788433687      19.0000000000
11263 2      14.1734461107      16.0000000000
11264 2      15.5974046702      21.0000000000
11265 2      19.5894565629      20.0000000000
11266 2      15.0445973294      17.0000000000
11267 2      15.2597311445      17.0000000000
11268 2      14.8531644322      14.0000000000
11269 2      15.5496731633      21.0000000000
11270 2      16.5080846792      19.0000000000
11271 2      18.9657523211      18.0000000000
11272 2      16.5036801444      15.0000000000
11273 2      14.0419203577      16.0000000000
11274 2      16.2286327416      15.0000000000
11275 2      14.5711279242      18.0000000000
11276 2      13.5230330869      16.0000000000
11277 2      14.2220612619      16.0000000000
11278 2      16.8458598739      17.0000000000
11279 2      16.7672228047      20.0000000000
11280 2      15.1350313782      17.0000000000
11281 2      13.9199038631      16.0000000000
11282 2      16.2479341679      19.0000000000
11283 2      14.5679196981      17.0000000000
11284 2      15.4975489666      20.0000000000
11285 2      15.2743237377      17.0000000000
11286 2      14.4041191286      15.0000000000
11287 2      15.9975126361      18.0000000000
11288 2      16.3609520152      20.0000000000
11289 2      17.5227386461      19.0000000000
11290 2      12.9778880756      17.0000000000
11291 2      17.9309192871      18.0000000000
11292 2      17.8275680275      16.0000000000
11293 2      15.0076512886      17.0000000000
11294 2      14.5956942036      16.0000000000
11295 2      14.5616112293      18.0000000000
11296 2      19.0033319877      15.0000000000
11297 2      14.2021666773      18.0000000000
11298 2      14.5573797408      18.0000000000
11299 2      14.2818518788      16.0000000000
11300 2      16.1992078673      15.0000000000
11301 2      13.1112263787      14.0000000000
11302 2      15.9465710384      16.0000000000
11303 2      14.3784350189      18.0000000000
11304 2      13.5560300207      16.0000000000
11305 2      16.0126030152      19.0000000000
11306 2      18.1727674462      17.0000000000
11307 2      18.2239446752      16.0000000000
11308 2      17.4156164700      23.0000000000
11309 2      15.1866336952      17.0000000000
11310 2      15.7044953188      23.0000000000
11311 2      16.5764761297      17.0000000000
11312 2      15.5884211134      17.0000000000
11313 2      19.0823441528      18.0000000000
11314 2      15.3221912009      18.0000000000
11315 2      20.2387559275      19.0000000000
11316 2      13.8334695617      16.0000000000
11317 2      15.3846496958      16.0000000000
11318 2      20.2829668184      17.0000000000
11319 2      16.5599074424      20.0000000000
11320 2      13.5569425813      14.0000000000
11321 2      17.6884086818      21.0000000000
11322 2      15.1753328979      16.0000000000
11323 2      13.8676871666      17.0000000000
11324 2      14.9972036163      16.0000000000
11325 2      16.6884488020      19.0000000000
11326 2      13.4419416646      15.0000000000
11327 2      16.0928621330      16.0000000000
11328 2      17.3852246061      18.0000000000
11329 2      14.6700719747      18.0000000000
11330 2      14.7889091553      20.0000000000
11331 2      15.9166312573      17.0000000000
11332 2      15.1140590311      16.0000000000
11333 2      14.6439317072      15.0000000000
11334 2      14.5935902129      18.0000000000
11335 2      14.9216019096      17.0000000000
11336 2      19.2551634314      23.0000000000
11337 2      15.5472998568      16.0000000000
11338 2      16.6542559189      18.0000000000
11339 2      15.3228996507      17.0000000000
11340 2      14.5225556606      19.0000000000
11341 2      14.9368918700      16.0000000000
11342 2      16.9847885052      18.0000000000
11343 2      15.3172375331      19.0000000000
11344 2      16.2549368650      16.0000000000
11345 2      15.7103656391      17.0000000000
11346 2      15.6713612016      18.0000000000
11347 2      17.2991573163      21.0000000000
11348 2      14.6066150424      16.0000000000
11349 2      15.8787425173      21.0000000000
11350 2      14.8558985547      16.0000000000
11351 2      13.6680679383      18.0000000000
11352 2      15.0160353001      17.0000000000
11353 2      15.9342459010      17.0000000000
11354 2      15.3121471680      17.0000000000
11355 2      15.3960438274      16.0000000000
11356 2      15.1122329463      17.0000000000
11357 2      14.7198107856      20.0000000000
11358 2      19.2145686127      15.0000000000
11359 2      13.4354825071      18.0000000000
11360 2      15.7532671390      20.0000000000
11361 2      18.2821303581      14.0000000000
11362 2      14.2557189848      17.0000000000
11363 2      17.7924922676      18.0000000000
11364 2      18.1198267211      18.0000000000
11365 2      14.3437024698      17.0000000000
11366 2      16.0766700169      16.0000000000
11367 2      18.3993573033      19.0000000000
11368 2      17.4434692315      16.0000000000
11369 2      15.5126990150      15.0000000000
11370 2      14.3705558984      19.0000000000
11371 2      13.3377719210      16.0000000000
11372 2      20.8837940996      22.0000000000
11373 2      17.5541794697      17.0000000000
11374 2      17.8863337673      18.0000000000
11375 2      13.6217673508      12.0000000000
11376 2      16.0619535345      19.0000000000
11377 2      17.6556836720      19.0000000000
11378 2      13.5922044912      19.0000000000
11379 2      16.0808146696      21.0000000000
11380 2      16.0356087190      18.0000000000
11381 2      13.6441325965      16.0000000000
11382 2      17.4667283405      17.0000000000
11383 2      13.7615472564      16.0000000000
11384 2      16.5099555407      18.0000000000
11385 2      13.9518652132      16.0000000000
11386 2      15.7229119196      17.0000000000
11387 2      14.9322240495      22.0000000000
11388 2      15.6059124448      15.0000000000
11389 2      13.4680801683      16.0000000000
11390 2      18.9643125582      15.0000000000
11391 2      16.7241477204      22.0000000000
11392 2      13.5005018366      18.0000000000
11393 2      18.7729281785      17.0000000000
11394 2      14.5059623914      16.0000000000
11395 2      16.5166212396      18.0000000000
11396 2      14.7087494921      18.0000000000
11397 2      13.8722059252      16.0000000000
11398 2      13.6667603805      16.0000000000
11399 2      15.1564467475      15.0000000000
11400 2      12.8404164706      16.0000000000
11401 2      17.2723229838      16.0000000000
11402 2      14.6339639864      20.0000000000
11403 2      14.6349790898      17.0000000000
11404 2      21.0748113081      22.0000000000
11405 2      14.9003001086      18.0000000000
11406 2      16.7431370886      16.0000000000
11407 2      16.2064953520      15.0000000000
11408 2      13.8046164439      17.0000000000
11409 2      15.7626638182      17.0000000000
11410 2      15.3738263679      18.0000000000
11411 2      17.1559068244      17.0000000000
11412 2      18.4251270095      22.0000000000
11413 2      15.8784600237      18.0000000000
11414 2      15.0158597545      17.0000000000
11415 2      20.4400270293      21.0000000000
11416 2      15.3404786392      20.0000000000
11417 2      16.5489393924      15.0000000000
11418 2      15.3077217435      19.0000000000
11419 2      20.3809453514      17.0000000000
11420 2      13.4004649805      17.0000000000
11421 2      17.7944056128      20.0000000000
11422 2      11.8364947809      15.0000000000
11423 2      19.2301695470      15.0000000000
11424 2      13.6199037660      19.0000000000
11425 2      16.7103531983      16.0000000000
11426 2      23.9380376404      20.0000000000
11427 2      14.7620387905      18.0000000000
11428 2      14.7662505209      19.0000000000
11429 2      14.5652326853      17.0000000000
11430 2      15.5566034473      18.0000000000
11431 2      16.2651277921      18.0000000000
11432 2      14.7908477512      20.0000000000
11433 2      14.9724278061      14.0000000000
11434 2      14.2315434545      17.0000000000
11435 2      14.0616132664      16.0000000000
11436 2      14.9321093358      14.0000000000
11437 2      15.0603307340      16.0000000000
11438 2      23.1569664029      20.0000000000
11439 2      15.3397522983      19.0000000000
11440 2      15.6162555093      16.0000000000
11441 2      15.9054191642      18.0000000000
11442 2      15.0610380267      16.0000000000
11443 2      18.9381564343      15.0000000000
11444 2      15.5888334974      17.0000000000
11445 2      15.7769347866      17.0000000000
11446 2      14.3127768288      12.0000000000
11447 2      13.5233875700      19.0000000000
11448 2      14.6443382304      19.0000000000
11449 2      14.1059118925      17.0000000000
11450 2      14.6186300828      19.0000000000
11451 2      19.9751588071      16.0000000000
11452 2      15.9205959501      19.0000000000
11453 2      14.4142058887      17.0000000000
11454 2      19.7817143614      23.0000000000
11455 2      15.7785958667      18.0000000000
11456 2      16.1918795580      16.0000000000
11457 2      19.4745587480      21.0000000000
11458 2      13.5420983982      15.0000000000
11459 2      18.3736974463      19.0000000000
11460 2      14.9078824692      19.0000000000
11461 2      16.1027973484      19.0000000000
11462 2      17.2111450228      23.0000000000
11463 2      16.0373331003      17.0000000000
11464 2      17.2370522507      21.0000000000
11465 2      13.8407709711      14.0000000000
11466 2      15.0124743020      18.0000000000
11467 2      14.0999580146      18.0000000000
11468 2      14.0879291812      15.0000000000
11469 2      12.7233472871      16.0000000000
11470 2      16.6433669963      22.0000000000
11471 2      14.9869621497      18.0000000000
11472 2      17.2745861037      20.0000000000
11473 2      14.4808495464      18.0000000000
11474 2      20.0283271425      19.0000000000
11475 2      21.7076483799      19.0000000000
11476 2      16.5475184716      19.0000000000
11477 2      15.2910830786      15.0000000000
11478 2      14.6449749061      13.0000000000
11479 2      15.4788146472      18.0000000000
11480 2      16.7996343715      14.0000000000
11481 2      13.8976303967      18.0000000000
11482 2      16.1666416018      19.0000000000
11483 2      20.2987549814      17.0000000000
11484 2      16.6322534254      22.0000000000
11485 2      13.7671116647      17.0000000000
11486 2      17.7414706288      19.0000000000
11487 2      16.8404897129      19.0000000000
11488 2      14.5860111463      19.0000000000
11489 2      16.2443657690      18.0000000000
11490 2      17.5069594072      19.0000000000
11491 2      14.6992238719      12.0000000000
11492 2      15.5865976239      22.0000000000
11493 2      14.1567690841      14.0000000000
11494 2      17.0577527685      20.0000000000
11495 2      16.6831695972      22.0000000000
11496 2      14.8641160451      20.0000000000
11497 2      18.9164989466      25.0000000000
11498 2      15.3979695447      18.0000000000
11499 2      16.8700433169      16.0000000000
11500 2      17.4784740158      19.0000000000
11501 2      13.7466315171      18.0000000000
11502 2      18.1256265977      26.0000000000
11503 2      14.5936795812      17.0000000000
11504 2      13.9986222613      19.0000000000
11505 2      15.8114382269      13.0000000000
11506 2      16.4957296672      18.0000000000
11507 2      14.9925165266      19.0000000000
11508 2      14.4770634113      18.0000000000
11509 2      14.9077343745      20.0000000000
11510 2      15.2625873130      18.0000000000
11511 2      16.1939666399      17.0000000000
11512 2      14.8183826664      16.0000000000
11513 2      14.3723649752      16.0000000000
11514 2      14.6962185957      20.0000000000
11515 2      15.5018324790      17.0000000000
11516 2      13.6537962652      16.0000000000
11517 2      15.3550778321      17.0000000000
11518 2      20.1599453320      16.0000000000
11519 2      18.2243086466      15.0000000000
11520 2      15.9727959125      16.0000000000
11521 2      15.3552202461      15.0000000000
11522 2      13.4483345567      15.0000000000
11523 2      18.4124736089      18.0000000000
11524 2      13.4376423811      16.0000000000
11525 2      15.7698310908      19.0000000000
11526 2      18.1059360827      18.0000000000
11527 2      14.9206114984      18.0000000000
11528 2      17.6805032640      21.0000000000
11529 2      15.5018389742      19.0000000000
11530 2      17.8107781678      19.0000000000
11531 2      19.5123132504      20.0000000000
11532 2      14.1528465823      18.0000000000
11533 2      17.9003945807      16.0000000000
11534 2      18.9479982681      15.0000000000
11535 2      18.2467503921      23.0000000000
11536 2      15.8421392318      18.0000000000
11537 2      15.0523464144      14.0000000000
11538 2      14.8955815178      18.0000000000
11539 2      17.2888716163      14.0000000000
11540 2      16.3241417624      22.0000000000
11541 2      15.2400125604      19.0000000000
11542 2      15.6959429826      21.0000000000
11543 2      14.5266596069      20.0000000000
11544 2      14.1161501649      18.0000000000
11545 2      14.6790775015      16.0000000000
11546 2      14.0968747512      18.0000000000
11547 2      20.5111664488      14.0000000000
11548 2      15.8371713710      17.0000000000
11549 2      15.9466458721      17.0000000000
11550 2      14.8989319835      14.0000000000
11551 2      16.4696788284      17.0000000000
11552 2      13.0534802392      15.0000000000
11553 2      18.5727636544      16.0000000000
11554 2      16.0191185140      17.0000000000
11555 2      17.8910044660      16.0000000000
11556 2      13.0379026208      13.0000000000
11557 2      15.9434406162      19.0000000000
11558 2      18.3668635829      16.0000000000
11559 2      17.6503268900      18.0000000000
11560 2      15.7084376554      19.0000000000
11561 2      16.8226413818      21.0000000000
11562 2      17.6392853588      18.0000000000
11563 2      15.1431675730      14.0000000000
11564 2      15.7354815494      18.0000000000
11565 2      18.4412991539      19.0000000000
11566 2      15.2534770662      20.0000000000
11567 2      13.4590880319      15.0000000000
11568 2      14.4857090300      16.0000000000
11569 2      16.7490127989      17.0000000000
11570 2      16.9958088770      16.0000000000
11571 2      13.2528194912      15.0000000000
11572 2      15.1354413027      19.0000000000
11573 2      13.6565832440      15.0000000000
11574 2      15.5040461928      16.0000000000
11575 2      18.5350791053      16.0000000000
11576 2      17.1273535240      15.0000000000
11577 2      13.7318768228      16.0000000000
11578 2      14.8683790569      21.0000000000
11579 2      24.2897130359      19.0000000000
11580 2      15.7429312950      18.0000000000
11581 2      16.9008359147      19.0000000000
11582 2      15.0260532803      20.0000000000
11583 2      15.2434779396      15.0000000000
11584 2      16.4449696491      19.0000000000
11585 2      13.9991024659      15.0000000000
11586 2      15.7699427548      18.0000000000
11587 2      13.5604926456      15.0000000000
11588 2      17.1130151042      21.0000000000
11589 2      16.1587517267      22.0000000000
11590 2      15.5693152593      18.0000000000
11591 2      16.7067559923      15.0000000000
11592 2      17.5613951636      17.0000000000
11593 2      15.7116903202      16.0000000000
11594 2      14.8191569555      17.0000000000
11595 2      13.7842183588      15.0000000000
11596 2      17.6824638365      19.0000000000
11597 2      15.1780226618      15.0000000000
11598 2      16.8825419231      17.0000000000
11599 2      15.5171796572      14.0000000000
11600 2      15.8883595239      16.0000000000
11601 2      14.9349830734      12.0000000000
11602 2      15.6952235304      25.0000000000
11603 2      17.2488910737      19.0000000000
11604 2      13.4645657265      16.0000000000
11605 2      17.9731218649      21.0000000000
11606 2      14.2546559949      15.0000000000
11607 2      15.7488055566      17.0000000000
11608 2      17.5699901156      19.0000000000
11609 2      15.3045715934      21.0000000000
11610 2      13.5234672251      15.0000000000
11611 2      15.1233609816      13.0000000000
11612 2      15.8227751984      19.0000000000
11613 2      15.1604040593      14.0000000000
11614 2      18.5136478244      18.0000000000
11615 2      18.1709593178      17.0000000000
11616 2      13.0457784513      18.0000000000
11617 2      20.4413650481      17.0000000000
11618 2      12.2069635843      14.0000000000
11619 2      18.9933422298      19.0000000000
11620 2      13.7661296109      17.0000000000
11621 2      16.9960633425      19.0000000000
11622 2      15.6295235992      13.0000000000
11623 2      16.2733853635      15.0000000000
11624 2      14.8551669604      18.0000000000
11625 2      13.9697595507      19.0000000000
11626 2      13.2650250630      18.0000000000
11627 2      14.9279795099      19.0000000000
11628 2      16.1441563771      19.0000000000
11629 2      14.7843040283      20.0000000000
11630 2      14.7289046331      17.0000000000
11631 2      14.1743889187      15.0000000000
11632 2      19.2966995866      15.0000000000
11633 2      15.5395944553      20.0000000000
11634 2      16.9125120174      20.0000000000
11635 2      15.2077197885      18.0000000000
11636 2      14.0892315611      16.0000000000
11637 2      14.5966477807      13.0000000000
11638 2      17.3540143868      18.0000000000
11639 2      14.4412148482      17.0000000000
11640 2      15.5005405840      17.0000000000
11641 2      16.1120564201      19.0000000000
11642 2      15.3331185815      20.0000000000
11643 2      14.5888040857      19.0000000000
11644 2      16.8822267438      17.0000000000
11645 2      16.4683386553      18.0000000000
11646 2      13.9054055939      17.0000000000
11647 2      16.3915065008      19.0000000000
11648 2      18.0113313859      13.0000000000
11649 2      17.4696506728      20.0000000000
11650 2      14.5254520814      17.0000000000
11651 2      14.9395075109      17.0000000000
11652 2      16.2213177314      21.0000000000
11653 2      15.8442479671      21.0000000000
11654 2      14.6657196980      16.0000000000
11655 2      15.2832235464      20.0000000000
11656 2      14.7765843301      15.0000000000
11657 2      14.4372163891      18.0000000000
11658 2      12.4691137974      16.0000000000
11659 2      15.8964364304      18.0000000000
11660 2      14.2734135083      16.0000000000
11661 2      15.4142460981      21.0000000000
11662 2      12.0270884814      13.0000000000
11663 2      13.6181554791      19.0000000000
11664 2      15.7839331383      16.0000000000
11665 2      14.6573087741      16.0000000000
11666 2      14.6702157121      19.0000000000
11667 2      15.1852018015      17.0000000000
11668 2      14.0858522475      14.0000000000
11669 2      18.2785205418      21.0000000000
11670 2      16.6276908294      17.0000000000
11671 2      16.0075792337      13.0000000000
11672 2      17.7330980583      16.0000000000
11673 2      14.2339890249      19.0000000000
11674 2      14.8451638271      18.0000000000
11675 2      18.9941425753      22.0000000000
11676 2      17.0576582467      19.0000000000
11677 2      15.0825774781      16.0000000000
11678 2      15.5630249325      16.0000000000
11679 2      15.6853252967      22.0000000000
11680 2      13.9793588373      22.0000000000
11681 2      19.6067215049      23.0000000000
11682 2      14.8032700358      16.0000000000
11683 2      17.6845793083      15.0000000000
11684 2      14.8539117010      18.0000000000
11685 2      13.9043518448      14.0000000000
11686 2      15.2792428098      16.0000000000
11687 2      13.3015533750      20.0000000000
11688 2      15.8496068770      18.0000000000
11689 2      19.2417827785      18.0000000000
11690 2      16.1867380335      18.0000000000
11691 2      15.9294378665      17.0000000000
11692 2      14.2338048701      20.0000000000
11693 2      16.8857061383      13.0000000000
11694 2      17.8979149965      16.0000000000
11695 2      16.1376849985      22.0000000000
11696 2      18.2022118235      16.0000000000
11697 2      17.0887224796      13.0000000000
11698 2      15.8147888392      22.0000000000
11699 2      14.9134315863      20.0000000000
11700 2      18.1138190917      19.0000000000
11701 2      17.1427224626      16.0000000000
11702 2      16.0452950416      13.0000000000
11703 2      16.7329965860      18.0000000000
11704 2      13.3737630612      17.0000000000
11705 2      15.9976926321      14.0000000000
11706 2      14.1430804892      17.0000000000
11707 2      15.8127783055      16.0000000000
11708 2      14.7468461526      18.0000000000
11709 2      14.2845402949      15.0000000000
11710 2      15.6987968362      18.0000000000
11711 2      15.3114790004      19.0000000000
11712 2      14.2561900776      16.0000000000
11713 2      15.0616423111      15.0000000000
11714 2      17.2030032262      19.0000000000
11715 2      16.3799266467      19.0000000000
11716 2      15.1729673988      17.0000000000
11717 2      16.3815187604      21.0000000000
11718 2      13.9601268257      16.0000000000
11719 2      16.4381203547      17.0000000000
11720 2      17.6299533010      24.0000000000
11721 2      15.6538266743      18.0000000000
11722 2      12.9875358103      17.0000000000
11723 2      15.6466560031      21.0000000000
11724 2      13.7907562333      15.0000000000
11725 2      14.4005933580      14.0000000000
11726 2      18.8087917099      15.0000000000
11727 2      12.1736599316      16.0000000000
11728 2      15.9458193137      19.0000000000
11729 2      17.7588872627      22.0000000000
11730 2      14.5720988918      16.0000000000
11731 2      13.1357939048      16.0000000000
11732 2      16.2407055579      15.0000000000
11733 2      13.6336443541      18.0000000000
11734 2      15.0702144035      19.0000000000
11735 2      15.0509356914      17.0000000000
11736 2      13.8495935881      11.0000000000
11737 2      17.5054762950      22.0000000000
11738 2      15.2639270247      18.0000000000
11739 2      16.1455194131      20.0000000000
11740 2      14.3057117580      16.0000000000
11741 2      15.0476599765      11.0000000000
11742 2      15.3646298281      22.0000000000
11743 2      16.6853556109      17.0000000000
11744 2      15.2050380274      17.0000000000
11745 2      14.9924823080      15.0000000000
11746 2      14.5649860057      19.0000000000
11747 2      15.0447811420      19.0000000000
11748 2      13.4301636428      19.0000000000
11749 2      17.7613652737      15.0000000000
11750 2      17.2380496290      20.0000000000
11751 2      16.5465961503      21.0000000000
11752 2      15.5879955974      23.0000000000
11753 2      16.4878098188      13.0000000000
11754 2      15.7133116200      16.0000000000
11755 2      17.6941169674      22.0000000000
11756 2      17.4028518874      17.0000000000
11757 2      14.0685553659      16.0000000000
11758 2      16.1662786519      18.0000000000
11759 2      15.5809406200      20.0000000000
11760 2      16.0128711466      14.0000000000
11761 2      15.8796990865      17.0000000000
11762 2      17.7592102826      21.0000000000
11763 2      19.5868512685      18.0000000000
11764 2      15.3033323426      15.0000000000
11765 2      16.5524161929      17.0000000000
11766 2      18.3372429701      18.0000000000
11767 2      16.7637893624      13.0000000000
11768 2      16.4635714208      18.0000000000
11769 2      16.4638070007      17.0000000000
11770 2      14.1128379659      17.0000000000
11771 2      15.8779498921      16.0000000000
11772 2      15.0479310671      16.0000000000
11773 2      13.3331550861      17.0000000000
11774 2      14.1568811573      19.0000000000
11775 2      13.5813993914      16.0000000000
11776 2      20.7728819894      17.0000000000
11777 2      16.7112359269      21.0000000000
11778 2      16.1630754760      20.0000000000
11779 2      15.4391897534      16.0000000000
11780 2      14.1709425131      15.0000000000
11781 2      18.0759896353      18.0000000000
11782 2      16.3347054292      19.0000000000
11783 2      13.9344854444      19.0000000000
11784 2      19.6228330721      20.0000000000
11785 2      15.0417687435      20.0000000000
11786 2      15.3373331747      17.0000000000
11787 2      14.3070095629      21.0000000000
11788 2      15.8184306993      18.0000000000
11789 2      14.8636335765      19.0000000000
11790 2      15.9501072699      17.0000000000
11791 2      17.8555320640      16.0000000000
11792 2      18.5475562181      17.0000000000
11793 2      16.0253567835      18.0000000000
11794 2      12.0614886919      17.0000000000
11795 2      13.4785424335      15.0000000000
11796 2      15.8062677357      23.0000000000
11797 2      24.4013969220      20.0000000000
11798 2      13.6673745300      17.0000000000
11799 2      15.5414786187      19.0000000000
11800 2      13.7907569751      14.0000000000
11801 2      16.4922876634      16.0000000000
11802 2      16.6233496793      16.0000000000
11803 2      16.2457563927      19.0000000000
11804 2      18.8059731606      14.0000000000
11805 2      15.4331077000      18.0000000000
11806 2      13.5168473761      15.0000000000
11807 2      15.9955080754      19.0000000000
11808 2      15.8806820951      16.0000000000
11809 2      17.0339166498      21.0000000000
11810 2      18.0341634892      22.0000000000
11811 2      18.3346964228      19.0000000000
11812 2      15.6983747598      20.0000000000
11813 2      15.4744041542      19.0000000000
11814 2      14.4839924236      19.0000000000
11815 2      17.7777841121      18.0000000000
11816 2      18.3214170632      18.0000000000
11817 2      15.7718077247      17.0000000000
11818 2      15.9407044977      17.0000000000
11819 2      16.4931402253      22.0000000000
11820 2      16.0018813096      19.0000000000
11821 2      14.7699335927      13.0000000000
11822 2      16.8840555416      20.0000000000
11823 2      15.3100216246      19.0000000000
11824 2      15.2922889406      18.0000000000
11825 2      14.4092481984      20.0000000000
11826 2      18.0924704463      22.0000000000
11827 2      16.9023199114      18.0000000000
11828 2      13.8065360709      15.0000000000
11829 2      14.9780695253      16.0000000000
11830 2      16.5039183577      21.0000000000
11831 2      12.5348595482      15.0000000000
11832 2      13.4524927599      18.0000000000
11833 2      14.1708322491      21.0000000000
11834 2      18.3178416802      18.0000000000
11835 2      18.1034489432      17.0000000000
11836 2      16.0297074779      22.0000000000
11837 2      12.8987833450      15.0000000000
11838 2      17.0866242464      16.0000000000
11839 2      17.5505860273      21.0000000000
11840 2      15.5949080002      18.0000000000
11841 2      16.6864119306      18.0000000000
11842 2      14.0686005229      16.0000000000
11843 2      15.3653182949      16.0000000000
11844 2      12.6527644466      14.0000000000
11845 2      16.7806315138      15.0000000000
11846 2      13.4316655272      17.0000000000
11847 2      14.5916047571      19.0000000000
11848 2      16.4201253216      21.0000000000
11849 2      16.3443040120      19.0000000000
11850 2      17.3273103191      22.0000000000
11851 2      15.9859199325      16.0000000000
11852 2      14.0396383736      17.0000000000
11853 2      15.1248355532      16.0000000000
11854 2      14.6964854108      17.0000000000
11855 2      15.2007845259      15.0000000000
11856 2      19.0851974953      21.0000000000
11857 2      15.5868314394      18.0000000000
11858 2      14.9759081660      19.0000000000
11859 2      15.9335401654      16.0000000000
11860 2      16.2282220004      17.0000000000
11861 2      12.5351598330      13.0000000000
11862 2      14.8929492148      15.0000000000
11863 2      13.7395593493      19.0000000000
11864 2      15.6766626639      17.0000000000
11865 2      16.7578177193      22.0000000000
11866 2      15.8376056655      18.0000000000
11867 2      15.1356899304      23.0000000000
11868 2      17.0292474820      16.0000000000
11869 2      17.6936909074      17.0000000000
11870 2      17.5819355710      17.0000000000
11871 2      13.7042095007      15.0000000000
11872 2      13.7617822033      16.0000000000
11873 2      21.2220797138      23.0000000000
11874 2      15.3086280773      15.0000000000
11875 2      14.3763714311      16.0000000000
11876 2      16.7558823840      17.0000000000
11877 2      15.1012110893      14.0000000000
11878 2      18.8155240187      18.0000000000
11879 2      16.2793114396      20.0000000000
11880 2      15.3050620572      17.0000000000
11881 2      16.1164036368      16.0000000000
11882 2      18.0201462688      20.0000000000
11883 2      16.6395090351      21.0000000000
11884 2      16.8616903656      22.0000000000
11885 2      14.4595279223      17.0000000000
11886 2      17.1875850308      17.0000000000
11887 2      17.0236361668      22.0000000000
11888 2      11.7458295386      14.0000000000
11889 2      13.5683737386      16.0000000000
11890 2      16.4157039718      20.0000000000
11891 2      18.6593417818      22.0000000000
11892 2      17.9547001415      15.0000000000
11893 2      17.6534729642      17.0000000000
11894 2      15.2888935753      17.0000000000
11895 2      17.8374862896      19.0000000000
11896 2      13.5362537635      19.0000000000
11897 2      15.5220656039      21.0000000000
11898 2      15.5008915647      13.0000000000
11899 2      18.4555962761      21.0000000000
11900 2      15.7942499894      17.0000000000
11901 2      16.1145019006      15.0000000000
11902 2      16.4258337213      17.0000000000
11903 2      19.3704171594      19.0000000000
11904 2      13.8033729879      15.0000000000
11905 2      14.3568625278      18.0000000000
11906 2      14.4037723444      18.0000000000
11907 2      17.3388638500      19.0000000000
11908 2      14.8617647471      16.0000000000
11909 2      15.0037419263      18.0000000000
11910 2      18.6470219054      18.0000000000
11911 2      17.4270956834      25.0000000000
11912 2      17.1500627778      20.0000000000
11913 2      17.3967096884      18.0000000000
11914 2      16.3211840361      18.0000000000
11915 2      14.0676570591      13.0000000000
11916 2      14.3169587670      19.0000000000
11917 2      17.0126924840      17.0000000000
11918 2      14.6711072432      19.0000000000
11919 2      14.1874218929      16.0000000000
11920 2      15.5142400495      21.0000000000
11921 2      17.0701808493      17.0000000000
11922 2      16.0638927188      17.0000000000
11923 2      14.7023943550      16.0000000000
11924 2      15.7121734204      18.0000000000
11925 2      13.9862537384      17.0000000000
11926 2      17.0500774996      19.0000000000
11927 2      13.2843542668      16.0000000000
11928 2      14.8119908025      20.0000000000
11929 2      14.4110667931      17.0000000000
11930 2      17.9824719462      15.0000000000
11931 2      19.5882089275      18.0000000000
11932 2      16.1426475350      14.0000000000
11933 2      16.4292977021      15.0000000000
11934 2      15.0093631996      15.0000000000
11935 2      17.1886803151      21.0000000000
11936 2      13.1542975589      15.0000000000
11937 2      15.6011726391      21.0000000000
11938 2      18.6807625774      18.0000000000
11939 2      17.6265963040      20.0000000000
11940 2      16.0154678448      20.0000000000
11941 2      15.1578996723      18.0000000000
11942 2      16.2642872183      15.0000000000
11943 2      14.2905065958      18.0000000000
11944 2      18.4816111002      19.0000000000
11945 2      17.6314872236      22.0000000000
11946 2      15.8677835810      18.0000000000
11947 2      14.3333627902      17.0000000000
11948 2      15.2451314414      18.0000000000
11949 2      17.2398206251      18.0000000000
11950 2      13.9744584983      17.0000000000
11951 2      14.5479510134      18.0000000000
11952 2      14.8979162067      19.0000000000
11953 2      14.2930114960      14.0000000000
11954 2      16.3613630778      17.0000000000
11955 2      14.5259694616      16.0000000000
11956 2      14.2241889023      16.0000000000
11957 2      16.2599467462      21.0000000000
11958 2      17.7255270254      21.0000000000
11959 2      17.4506382463      20.0000000000
11960 2      15.1526562734      17.0000000000
11961 2      17.2185740074      17.0000000000
11962 2      17.2810122106      15.0000000000
11963 2      15.4887983216      17.0000000000
11964 2      16.8609595494      17.0000000000
11965 2      15.7234441554      20.0000000000
11966 2      16.1539352521      15.0000000000
11967 2      13.8083652620      18.0000000000
11968 2      14.1527167764      19.0000000000
11969 2      17.8389702620      20.0000000000
11970 2      17.5447174702      18.0000000000
11971 2      15.0482405020      19.0000000000
11972 2      15.0070741303      20.0000000000
11973 2      16.0299795586      19.0000000000
11974 2      13.8837311542      16.0000000000
11975 2      14.4916729011      15.0000000000
11976 2      14.8588524623      19.0000000000
11977 2      15.3103222319      16.0000000000
11978 2      13.6219808655      18.0000000000
11979 2      17.1448050701      17.0000000000
11980 2      15.2285467605      18.0000000000
11981 2      15.0723886159      18.0000000000
11982 2      16.6620439737      22.0000000000
11983 2      16.9604350967      18.0000000000
11984 2      16.1122442387      18.0000000000
11985 2      15.2368609983      17.0000000000
11986 2      18.4360489115      19.0000000000
11987 2      14.1229288607      16.0000000000
11988 2      16.6978012508      16.0000000000
11989 2      14.7129751674      18.0000000000
11990 2      13.1299058080      15.0000000000
11991 2      17.4279640269      16.0000000000
11992 2      15.5199573642      17.0000000000
11993 2      14.6643428979      18.0000000000
11994 2      15.8324887857      16.0000000000
11995 2      15.5013548576      18.0000000000
11996 2      12.9258409276      18.0000000000
11997 2      19.8175992029      15.0000000000
11998 2      14.8455878294      20.0000000000
11999 2      15.8852597220      19.0000000000
12000 2      14.5082097122      16.0000000000
12001 2      18.1095630083      18.0000000000
12002 2      15.1400739829      18.0000000000
12003 2      13.0921476444      18.0000000000
12004 2      14.6312726320      17.0000000000
12005 2      15.9577752638      20.0000000000
12006 2      14.1905267648      20.0000000000
12007 2      15.8448657695      21.0000000000
12008 2      17.5916899945      11.0000000000
12009 2      18.8927577739      15.0000000000
12010 2      16.2482910473      19.0000000000
12011 2      15.1245262180      16.0000000000
12012 2      16.1113874137      16.0000000000
12013 2      13.2918086810      17.0000000000
12014 2      20.1756703143      15.0000000000
12015 2      17.4032746103      19.0000000000
12016 2      15.9500876682      19.0000000000
12017 2      14.4872335965      13.0000000000
12018 2      17.2833564505      24.0000000000
12019 2      15.2275092869      15.0000000000
12020 2      14.7252019001      19.0000000000
12021 2      16.1504442867      19.0000000000
12022 2      15.0267215074      16.0000000000
12023 2      13.9567798539      14.0000000000
12024 2      15.9739837959      13.0000000000
12025 2      17.1487489010      15.0000000000
12026 2      14.3494284975      16.0000000000
12027 2      15.5545941410      18.0000000000
12028 2      19.2767009191      21.0000000000
12029 2      20.1376694007      15.0000000000
12030 2      15.6940024070      20.0000000000
12031 2      12.6722694108      16.0000000000
12032 2      13.7205857246      17.0000000000
12033 2      16.5155927655      16.0000000000
12034 2      15.4353987633      14.0000000000
12035 2      14.2095116094      17.0000000000
12036 2      16.8119854172      15.0000000000
12037 2      20.0056435959      18.0000000000
12038 2      15.8669741625      17.0000000000
12039 2      14.6793358100      15.0000000000
12040 2      15.2289643803      16.0000000000
12041 2      17.1211575529      23.0000000000
12042 2      16.5996277884      19.0000000000
12043 2      14.8772741817      22.0000000000
12044 2      18.9508852435      22.0000000000
12045 2      14.6674539560      18.0000000000
12046 2      14.9266651398      20.0000000000
12047 2      13.0392601105      19.0000000000
12048 2      12.1257229846      13.0000000000
12049 2      14.6572450472      17.0000000000
12050 2      14.7284357785      13.0000000000
12051 2      15.1039425181      19.0000000000
12052 2      16.9313413454      17.0000000000
12053 2      19.9071996763      18.0000000000
12054 2      14.6107109819      20.0000000000
12055 2      17.2207618433      22.0000000000
12056 2      15.9212767630      15.0000000000
12057 2      14.2978004921      18.0000000000
12058 2      15.3320821885      17.0000000000
12059 2      16.3486339709      21.0000000000
12060 2      18.5492191688      17.0000000000
12061 2      15.5190855280      17.0000000000
12062 2      14.1820634269      17.0000000000
12063 2      13.3579749561      16.0000000000
12064 2      16.5334990674      21.0000000000
12065 2      16.3470752138      22.0000000000
12066 2      16.1840155970      20.0000000000
12067 2      15.1916571872      21.0000000000
12068 2      19.0070646395      17.0000000000
12069 2      12.1468510071      15.0000000000
12070 2      17.8284917417      20.0000000000
12071 2      14.9689642658      17.0000000000
12072 2      16.3246616789      18.0000000000
12073 2      17.5983511782      18.0000000000
12074 2      15.0434473761      18.0000000000
12075 2      18.3007083892      20.0000000000
12076 2      15.6200216152      16.0000000000
12077 2      16.2827239788      18.0000000000
12078 2      15.1321215627      18.0000000000
12079 2      17.0864607541      19.0000000000
12080 2      16.9999041756      18.0000000000
12081 2      15.4904950423      18.0000000000
12082 2      15.2281467170      17.0000000000
12083 2      16.1801364876      20.0000000000
12084 2      15.4687526519      16.0000000000
12085 2      15.4744859130      17.0000000000
12086 2      15.4789543626      20.0000000000
12087 2      17.9402187008      19.0000000000
12088 2      15.8060466025      21.0000000000
12089 2      17.0270714178      17.0000000000
12090 2      17.0468017278      18.0000000000
12091 2      15.8559162263      17.0000000000
12092 2      13.7587750967      17.0000000000
12093 2      15.4207279414      21.0000000000
12094 2      16.5659804988      22.0000000000
12095 2      13.9097791612      16.0000000000
12096 2      15.5515018854      21.0000000000
12097 2      14.5287432762      14.0000000000
12098 2      16.2969262534      18.0000000000
12099 2      16.1660566667      18.0000000000
12100 2      15.6111431589      16.0000000000
12101 2      16.6051970731      16.0000000000
12102 2      13.3328334758      16.0000000000
12103 2      14.2756758482      14.0000000000
12104 2      16.1087680946      18.0000000000
12105 2      17.1316854972      21.0000000000
12106 2      18.6846081785      16.0000000000
12107 2      17.3059576751      13.0000000000
12108 2      15.5294582604      17.0000000000
12109 2      15.6659780210      13.0000000000
12110 2      16.6081864401      14.0000000000
12111 2      14.0087579781      16.0000000000
12112 2      14.8196091379      18.0000000000
12113 2      17.4605726661      20.0000000000
12114 2      13.1884536961      14.0000000000
12115 2      15.8222261294      16.0000000000
12116 2      15.7013030443      19.0000000000
12117 2      14.1664118619      16.0000000000
12118 2      11.8455845223      17.0000000000
12119 2      15.2891909214      16.0000000000
12120 2      14.0081539825      19.0000000000
12121 2      15.4715985887      18.0000000000
12122 2      18.7740021652      20.0000000000
12123 2      14.1025255422      21.0000000000
12124 2      13.9046310855      19.0000000000
12125 2      15.7855259774      19.0000000000
12126 2      14.5557677752      20.0000000000
12127 2      14.2962087801      16.0000000000
12128 2      18.9328205358      17.0000000000
12129 2      14.4931484634      19.0000000000
12130 2      15.6230973461      20.0000000000
12131 2      16.4837795176      16.0000000000
12132 2      12.1637439777      17.0000000000
12133 2      15.2137970494      18.0000000000
12134 2      15.9247913727      17.0000000000
12135 2      16.3147633283      16.0000000000
12136 2      16.4819743332      16.0000000000
12137 2      15.6067711669      16.0000000000
12138 2      17.5039725848      20.0000000000
12139 2      14.4682434775      17.0000000000
12140 2      16.5154896933      21.0000000000
12141 2      18.3620829658      16.0000000000
12142 2      16.6458406553      16.0000000000
12143 2      14.5574104835      15.0000000000
12144 2      12.8196969448      15.0000000000
12145 2      16.2923260914      22.0000000000
12146 2      14.5740471810      20.0000000000
12147 2      16.8537700590      20.0000000000
12148 2      15.6651178166      15.0000000000
12149 2      14.5973908614      17.0000000000
12150 2      16.7163836597      16.0000000000
12151 2      20.5278117105      20.0000000000
12152 2      14.5528005315      18.0000000000
12153 2      15.0597374705      20.0000000000
12154 2      13.4751405973      22.0000000000
12155 2      17.7439971951      18.0000000000
12156 2      18.4959875850      19.0000000000
12157 2      17.5989873688      16.0000000000
12158 2      16.4656002838      20.0000000000
12159 2      13.4970159970      16.0000000000
12160 2      13.0513349110      16.0000000000
12161 2      15.4450461183      21.0000000000
12162 2      21.1894513718      18.0000000000
12163 2      13.8894369736      16.0000000000
12164 2      14.7978113317      16.0000000000
12165 2      20.1213504330      15.0000000000
12166 2      20.3079663272      22.0000000000
12167 2      13.4761632116      16.0000000000
12168 2      15.8567056328      13.0000000000
12169 2      13.7071204951      15.0000000000
12170 2      16.3470246676      20.0000000000
12171 2      15.1327252454      19.0000000000
12172 2      13.8333688185      19.0000000000
12173 2      15.2635684274      18.0000000000
12174 2      15.4764560834      19.0000000000
12175 2      14.2718383166      17.0000000000
12176 2      13.3629514344      13.0000000000
12177 2      17.2063295448      17.0000000000
12178 2      15.8491844215      16.0000000000
12179 2      19.2873326009      18.0000000000
12180 2      13.7212819833      17.0000000000
12181 2      20.0676286968      16.0000000000
12182 2      14.6252040593      16.0000000000
12183 2      19.2688133006      19.0000000000
12184 2      14.3430588104      17.0000000000
12185 2      15.5555236781      19.0000000000
12186 2      13.8354308967      15.0000000000
12187 2      13.8729103693      17.0000000000
12188 2      18.4903942071      17.0000000000
12189 2      16.3127544355      20.0000000000
12190 2      16.0150489806      17.0000000000
12191 2      14.7908319763      20.0000000000
12192 2      15.8498204588      19.0000000000
12193 2      13.8687382518      19.0000000000
12194 2      17.6466655650      16.0000000000
12195 2      14.7724623727      20.0000000000
12196 2      15.0441845683      19.0000000000
12197 2      16.0863385931      16.0000000000
12198 2      18.3545041098      14.0000000000
12199 2      17.8949187607      16.0000000000
12200 2      14.6123783887      18.0000000000
12201 2      13.9094881217      17.0000000000
12202 2      16.5913900248      20.0000000000
12203 2      14.8689496766      15.0000000000
12204 2      16.4546421780      21.0000000000
12205 2      14.8690072489      16.0000000000
12206 2      17.7818168980      17.0000000000
12207 2      15.8932726642      18.0000000000
12208 2      19.1668118858      18.0000000000
12209 2      13.6237403211      18.0000000000
12210 2      16.5199761123      18.0000000000
12211 2      17.8011082093      21.0000000000
12212 2      14.9745787526      17.0000000000
12213 2      15.6371165482      18.0000000000
12214 2      16.9050885281      18.0000000000
12215 2      13.7316070450      16.0000000000
12216 2      16.8261481865      22.0000000000
12217 2      13.8715361707      17.0000000000
12218 2      13.9988206640      18.0000000000
12219 2      14.9680247035      16.0000000000
12220 2      16.7995339153      20.0000000000
12221 2      21.1374912426      19.0000000000
12222 2      16.3092537180      18.0000000000
12223 2      16.4717982547      24.0000000000
12224 2      20.4580094232      18.0000000000
12225 2      13.3898429654      17.0000000000
12226 2      15.5675860114      14.0000000000
12227 2      16.7171165795      13.0000000000
12228 2      14.4479033069      16.0000000000
12229 2      13.9745839419      18.0000000000
12230 2      17.1490536755      15.0000000000
12231 2      15.7064506860      19.0000000000
12232 2      14.4018426291      17.0000000000
12233 2      18.0613707725      18.0000000000
12234 2      14.9972215740      15.0000000000
12235 2      14.2266568198      19.0000000000
12236 2      17.2242132803      16.0000000000
12237 2      16.4285338291      16.0000000000
12238 2      14.6483471514      17.0000000000
12239 2      15.8540837474      19.0000000000
12240 2      15.0602924844      18.0000000000
12241 2      15.3750347081      16.0000000000
12242 2      16.7300929867      19.0000000000
12243 2      17.3076635500      20.0000000000
12244 2      14.8394629984      14.0000000000
12245 2      16.5848885410      16.0000000000
12246 2      19.4482345177      17.0000000000
12247 2      20.2747356645      17.0000000000
12248 2      18.1161397992      21.0000000000
12249 2      15.0215598911      17.0000000000
12250 2      13.6274302014      16.0000000000
12251 2      16.7416183436      18.0000000000
12252 2      20.9710846695      19.0000000000
12253 2      17.8012255892      18.0000000000
12254 2      16.4438341072      20.0000000000
12255 2      13.8128561106      18.0000000000
12256 2      16.1531496859      19.0000000000
12257 2      14.7866793904      17.0000000000
12258 2      16.8431741624      14.0000000000
12259 2      18.1526132474      21.0000000000
12260 2      14.7620451234      15.0000000000
12261 2      15.4519518307      19.0000000000
12262 2      13.4450327737      16.0000000000
12263 2      16.6418794004      19.0000000000
12264 2      18.5458812390      19.0000000000
12265 2      15.6866325953      19.0000000000
12266 2      20.0531200217      18.0000000000
12267 2      15.1441747777      17.0000000000
12268 2      14.0977232570      14.0000000000
12269 2      16.0826801861      17.0000000000
12270 2      17.9836267707      21.0000000000
12271 2      15.6940590185      20.0000000000
12272 2      15.5050233365      19.0000000000
12273 2      15.3910301205      18.0000000000
12274 2      15.2467557081      15.0000000000
12275 2      13.9994225424      17.0000000000
12276 2      17.8505043578      15.0000000000
12277 2      14.4104640325      17.0000000000
12278 2      18.2762445337      19.0000000000
12279 2      13.8299663358      16.0000000000
12280 2      14.6107818818      16.0000000000
12281 2      13.4642416501      18.0000000000
12282 2      14.9805543968      20.0000000000
12283 2      18.8434493792      15.0000000000
12284 2      15.9053370260      14.0000000000
12285 2      15.9316199683      19.0000000000
12286 2      18.6383816402      16.0000000000
12287 2      17.3800316733      25.0000000000
12288 2      14.3774261197      17.0000000000
12289 2      17.1245124281      15.0000000000
12290 2      14.3717934484      20.0000000000
12291 2      18.2552449275      19.0000000000
12292 2      18.3354287518      20.0000000000
12293 2      15.8077645357      15.0000000000
12294 2      14.2326344532      20.0000000000
12295 2      15.2548819154      18.0000000000
12296 2      14.5193697831      16.0000000000
12297 2      12.9637392815      15.0000000000
12298 2      13.4476116692      16.0000000000
12299 2      18.3926297776      18.0000000000
12300 2      16.3737477155      20.0000000000
12301 2      15.1246421486      15.0000000000
12302 2      17.5368264552      21.0000000000
12303 2      15.0047325734      17.0000000000
12304 2      16.7048571905      19.0000000000
12305 2      16.4958214724      18.0000000000
12306 2      17.6735225057      23.0000000000
12307 2      15.8897211543      17.0000000000
12308 2      14.0905307407      16.0000000000
12309 2      15.3663576068      21.0000000000
12310 2      12.1910412114      16.0000000000
12311 2      15.1943052044      16.0000000000
12312 2      16.0829977451      15.0000000000
12313 2      17.3323654774      19.0000000000
12314 2      16.9332525587      14.0000000000
12315 2      18.0082713226      21.0000000000
12316 2      15.4146106435      15.0000000000
12317 2      17.1234365745      17.0000000000
12318 2      14.2162751858      15.0000000000
12319 2      13.0126348443      16.0000000000
12320 2      14.9309975689      14.0000000000
12321 2      16.2816376945      21.0000000000
12322 2      17.9861341149      16.0000000000
12323 2      14.4689624769      18.0000000000
12324 2      13.2496520250      17.0000000000
12325 2      13.4459222809      15.0000000000
12326 2      14.6909054796      18.0000000000
12327 2      16.5649279984      18.0000000000
12328 2      12.7956777831      14.0000000000
12329 2      17.5007010541      15.0000000000
12330 2      14.2246502415      16.0000000000
12331 2      14.1960071838      15.0000000000
12332 2      14.8421797608      18.0000000000
12333 2      15.7614481323      15.0000000000
12334 2      12.7444611270      15.0000000000
12335 2      16.9011015986      20.0000000000
12336 2      15.6757592124      20.0000000000
12337 2      15.3389133716      15.0000000000
12338 2      14.1390357931      19.0000000000
12339 2      15.4167834823      19.0000000000
12340 2      17.3430932368      20.0000000000
12341 2      13.3191735676      15.0000000000
12342 2      14.6300297322      18.0000000000
12343 2      17.4399353243      19.0000000000
12344 2      16.5423837783      19.0000000000
12345 2      15.8383633150      16.0000000000
12346 2      15.0257666221      16.0000000000
12347 2      16.9177891689      17.0000000000
12348 2      18.3943569873      15.0000000000
12349 2      15.9766749542      12.0000000000
12350 2      18.5174273411      21.0000000000
12351 2      12.7939792436      15.0000000000
12352 2      13.9625686066      16.0000000000
12353 2      13.9600756559      17.0000000000
12354 2      18.2495766296      17.0000000000
12355 2      17.6076490479      21.0000000000
12356 2      16.2712581837      17.0000000000
12357 2      15.1665247404      17.0000000000
12358 2      17.0816926157      15.0000000000
12359 2      17.4133489899      14.0000000000
12360 2      16.3186240224      18.0000000000
12361 2      16.1969162915      18.0000000000
12362 2      15.3423659885      16.0000000000
12363 2      14.9630849963      18.0000000000
12364 2      17.7176355778      17.0000000000
12365 2      17.2458977979      17.0000000000
12366 2      14.1906043149      19.0000000000
12367 2      15.7212004831      18.0000000000
12368 2      15.9577832242      17.0000000000
12369 2      16.1709450931      18.0000000000
12370 2      15.1322679919      20.0000000000
12371 2      13.3170118382      17.0000000000
12372 2      15.3078555515      16.0000000000
12373 2      14.2534004473      15.0000000000
12374 2      15.5134179800      17.0000000000
12375 2      14.5304492562      15.0000000000
12376 2      14.8168619807      17.0000000000
12377 2      15.0066352548      16.0000000000
12378 2      17.3494623264      20.0000000000
12379 2      17.8516738634      21.0000000000
12380 2      15.1572880115      16.0000000000
12381 2      16.8222358633      22.0000000000
12382 2      17.1447242286      22.0000000000
12383 2      15.2490050445      19.0000000000
12384 2      14.0501140315      18.0000000000
12385 2      17.5537816792      19.0000000000
12386 2      17.2161038242      22.0000000000
12387 2      15.0839021212      18.0000000000
12388 2      11.0805189787      12.0000000000
12389 2      17.9837114014      19.0000000000
12390 2      15.9634754119      17.0000000000
12391 2      12.3662135298      16.0000000000
12392 2      14.2479241522      18.0000000000
12393 2      15.9009417653      21.0000000000
12394 2      15.2596549554      20.0000000000
12395 2      17.0310589418      22.0000000000
12396 2      15.2627231631      13.0000000000
12397 2      18.2810582579      20.0000000000
12398 2      18.0021203526      15.0000000000
12399 2      18.0654413675      14.0000000000
12400 2      15.4801963010      17.0000000000
12401 2      17.1750661970      18.0000000000
12402 2      16.3364980904      19.0000000000
12403 2      14.3603721462      13.0000000000
12404 2      19.7319121689      19.0000000000
12405 2      14.6740636495      17.0000000000
12406 2      16.0618171388      16.0000000000
12407 2      14.7450257959      20.0000000000
12408 2      17.1894887257      25.0000000000
12409 2      15.7774957775      18.0000000000
12410 2      15.9377409294      18.0000000000
12411 2      14.4979042689      18.0000000000
12412 2      13.8438088734      13.0000000000
12413 2      13.4051436827      17.0000000000
12414 2      19.6079671888      17.0000000000
12415 2      24.8790974524      22.0000000000
12416 2      14.6918787970      18.0000000000
12417 2      17.8103432943      16.0000000000
12418 2      14.2968259122      16.0000000000
12419 2      14.7518983812      16.0000000000
12420 2      16.3909675728      18.0000000000
12421 2      16.3467403519      17.0000000000
12422 2      16.0993781284      17.0000000000
12423 2      12.7573171275      15.0000000000
12424 2      17.0323732260      15.0000000000
12425 2      17.1205270756      15.0000000000
12426 2      15.2347142922      17.0000000000
12427 2      15.9306896931      14.0000000000
12428 2      16.5974945507      18.0000000000
12429 2      18.7399568501      17.0000000000
12430 2      16.5730302896      17.0000000000
12431 2      19.4905642287      16.0000000000
12432 2      18.0290731393      15.0000000000
12433 2      16.4200766611      16.0000000000
12434 2      14.0659661467      15.0000000000
12435 2      15.7221805091      16.0000000000
12436 2      18.0874605036      19.0000000000
12437 2      14.6338809279      20.0000000000
12438 2      18.0041848239      16.0000000000
12439 2      16.0615076128      14.0000000000
12440 2      14.4765027770      19.0000000000
12441 2      14.3607824455      13.0000000000
12442 2      15.2072883304      15.0000000000
12443 2      14.3106999704      20.0000000000
12444 2      15.7310048850      20.0000000000
12445 2      15.4290470898      19.0000000000
12446 2      18.0217526981      20.0000000000
12447 2      16.5097973550      22.0000000000
12448 2      16.8921536630      20.0000000000
12449 2      15.4697195589      17.0000000000
12450 2      16.5716293852      15.0000000000
12451 2      18.5054950016      16.0000000000
12452 2      15.1542749475      15.0000000000
12453 2      14.7988582154      20.0000000000
12454 2      17.2322609345      18.0000000000
12455 2      15.3497015245      15.0000000000
12456 2      15.2668848249      17.0000000000
12457 2      18.3300071859      15.0000000000
12458 2      14.0902370682      17.0000000000
12459 2      17.8359240854      18.0000000000
12460 2      15.1824067895      14.0000000000
12461 2      16.8464108289      19.0000000000
12462 2      16.8883473838      18.0000000000
12463 2      18.2269265538      19.0000000000
12464 2      19.0046319480      23.0000000000
12465 2      17.6198624014      22.0000000000
12466 2      20.8764990538      15.0000000000
12467 2      17.5472297085      18.0000000000
12468 2      18.9557025101      20.0000000000
12469 2      16.4116917687      16.0000000000
12470 2      16.7206984308      17.0000000000
12471 2      16.8250932693      17.0000000000
12472 2      15.3189144202      13.0000000000
12473 2      14.6516626906      22.0000000000
12474 2      17.8858209104      17.0000000000
12475 2      12.8819318643      16.0000000000
12476 2      16.3935256196      20.0000000000
12477 2      12.3591138390      15.0000000000
12478 2      15.6158285407      18.0000000000
12479 2      20.6612874164      17.0000000000
12480 2      17.1277448707      15.0000000000
12481 2      18.9566265404      14.0000000000
12482 2      14.2759589443      15.0000000000
12483 2      16.3854709281      21.0000000000
12484 2      14.3876928971      16.0000000000
12485 2      16.5814802896      22.0000000000
12486 2      14.2562319928      18.0000000000
12487 2      18.0860054910      20.0000000000
12488 2      16.7328239087      16.0000000000
12489 2      15.8226520574      20.0000000000
12490 2      15.3180414601      17.0000000000
12491 2      16.6317940509      16.0000000000
12492 2      17.4887454325      20.0000000000
12493 2      14.1623726583      18.0000000000
12494 2      22.3169788634      22.0000000000
12495 2      15.7680468587      15.0000000000
12496 2      14.8724351581      17.0000000000
12497 2      13.9303997505      17.0000000000
12498 2      14.7273955303      18.0000000000
12499 2      13.5440204567      13.0000000000
12500 2      15.7105668373      15.0000000000
12501 4      21.8255857798      21.0000000000
12502 4      13.7797554706      15.0000000000
12503 4      18.7307963723      20.0000000000
12504 4      15.0430579382      15.0000000000
12505 4      14.9348677905      15.0000000000
12506 4      18.7191241038      16.0000000000
12507 4      17.9403482878      15.0000000000
12508 4      15.9412000981      19.0000000000
12509 4      16.2709036960      17.0000000000
12510 4      19.9309210047      17.0000000000
12511 4      20.2801920338      17.0000000000
12512 4      15.1397279901      18.0000000000
12513 4      17.5645478909      18.0000000000
12514 4      17.6072363534      14.0000000000
12515 4      17.3589378902      19.0000000000
12516 4      20.0360340369      20.0000000000
12517 4      16.5335707053      18.0000000000
12518 4      17.3669017644      17.0000000000
12519 4      16.2249585065      14.0000000000
12520 4      14.1568801887      13.0000000000
12521 4      16.1836623958      19.0000000000
12522 4      20.1108370084      16.0000000000
12523 4      15.4012801333      12.0000000000
12524 4      22.4912627652      21.0000000000
12525 4      18.9684940868      16.0000000000
12526 4      16.4667983539      16.0000000000
12527 4      15.9372198241      21.0000000000
12528 4      19.3951045775      17.0000000000
12529 4      19.5965937569      21.0000000000
12530 4      15.6153117926      17.0000000000
12531 4      15.3310207900      16.0000000000
12532 4      16.5233873211      14.0000000000
12533 4      20.7913538547      19.0000000000
12534 4      15.0054539651      17.0000000000
12535 4      17.3790470951      15.0000000000
12536 4      17.6540331032      18.0000000000
12537 4      18.0697741518      13.0000000000
12538 4      19.3778925693      15.0000000000
12539 4      21.5251307109      16.0000000000
12540 4      15.9890051065      21.0000000000
12541 4      18.7040715578      19.0000000000
12542 4      20.8635582110      18.0000000000
12543 4      19.7702185664      21.0000000000
12544 4      15.4641073355      14.0000000000
12545 4      15.5460347487      16.0000000000
12546 4      16.7459660144      16.0000000000
12547 4      17.4731512029      19.0000000000
12548 4      18.0824589601      19.0000000000
12549 4      15.5113268989      14.0000000000
12550 4      15.9033699404      19.0000000000
12551 4      17.3338616180      17.0000000000
12552 4      17.8575094562      18.0000000000
12553 4      15.4884169329      18.0000000000
12554 4      15.6263866639      16.0000000000
12555 4      18.7538524927      16.0000000000
12556 4      15.0267260580       9.0000000000
12557 4      16.7728636021      14.0000000000
12558 4      15.5952979334      14.0000000000
12559 4      20.8866757427      19.0000000000
12560 4      16.5210410593      20.0000000000
12561 4      17.8117202934      20.0000000000
12562 4      16.3997623120      14.0000000000
12563 4      19.3081768391      18.0000000000
12564 4      17.2166950814      16.0000000000
12565 4      16.1369818233      16.0000000000
12566 4      18.4951858758      14.0000000000
12567 4      15.3017303808      14.0000000000
12568 4      17.1109025789      17.0000000000
12569 4      16.4029264099      19.0000000000
12570 4      16.3364968429      19.0000000000
12571 4      16.8619582265      17.0000000000
12572 4      16.8037618488      15.0000000000
12573 4      17.3676793268      17.0000000000
12574 4      16.8094932702      20.0000000000
12575 4      18.3136925661      20.0000000000
12576 4      16.5566510994      16.0000000000
12577 4      23.2707389291      19.0000000000
12578 4      22.0488043387      20.0000000000
12579 4      19.5202012428      21.0000000000
12580 4      16.2037963216      15.0000000000
12581 4      17.4094653632      18.0000000000
12582 4      16.2181101149      14.0000000000
12583 4      16.2760001200      15.0000000000
12584 4      23.8951414235      14.0000000000
12585 4      14.8001301907      13.0000000000
12586 4      21.1890247114      20.0000000000
12587 4      15.8766464155      17.0000000000
12588 4      12.9330327183      15.0000000000
12589 4      17.4308959492      15.0000000000
12590 4      19.7843624449      20.0000000000
12591 4      18.4365705144      18.0000000000
12592 4      21.2745687159      19.0000000000
12593 4      17.8207368983      16.0000000000
12594 4      16.6770332155      20.0000000000
12595 4      22.6892653583      22.0000000000
12596 4      26.9117686693      20.0000000000
12597 4      20.0301146912      19.0000000000
12598 4      34.2878272032      22.0000000000
12599 4      19.0226858341      19.0000000000
12600 4      18.6613070712      18.0000000000
12601 4      17.6821762492      15.0000000000
12602 4      16.9023021556      18.0000000000
12603 4      16.6807298934      16.0000000000
12604 4      16.1256527526      15.0000000000
12605 4      15.5635206288      15.0000000000
12606 4      19.6100495828      16.0000000000
12607 4      16.7909793959      16.0000000000
12608 4      16.6385197952      16.0000000000
12609 4      20.4063417565      20.0000000000
12610 4      17.4771952298      12.0000000000
12611 4      17.7435893842      14.0000000000
12612 4      16.2651875548      15.0000000000
12613 4      19.9172220170      19.0000000000
12614 4      14.1806252607      16.0000000000
12615 4      18.6683292383      19.0000000000
12616 4      15.5342562741      16.0000000000
12617 4      19.9338103025      20.0000000000
12618 4      16.8024284125      17.0000000000
12619 4      18.2563797945      19.0000000000
12620 4      15.0512349071      18.0000000000
12621 4      18.2384318137      17.0000000000
12622 4      14.9707964618      16.0000000000
12623 4      17.2110934667      16.0000000000
12624 4      17.8285586197      19.0000000000
12625 4      22.3087820828      19.0000000000
12626 4      17.8827056807      15.0000000000
12627 4      20.1183199188      18.0000000000
12628 4      19.0292465036      14.0000000000
12629 4      14.4199519388      18.0000000000
12630 4      18.2988301005      16.0000000000
12631 4      17.3784712827      17.0000000000
12632 4      18.7210804174      20.0000000000
12633 4      17.1293917858      19.0000000000
12634 4      16.9602126698      19.0000000000
12635 4      17.2816234281      20.0000000000
12636 4      18.3353896313      17.0000000000
12637 4      14.3683101281      15.0000000000
12638 4      16.8461967621      14.0000000000
12639 4      19.0883537816      17.0000000000
12640 4      20.9518945403      24.0000000000
12641 4      14.8849454374      18.0000000000
12642 4      16.1322555229      15.0000000000
12643 4      15.8343251015      16.0000000000
12644 4      22.9572906178      20.0000000000
12645 4      18.6432742455      21.0000000000
12646 4      18.1540698514      18.0000000000
12647 4      17.2818191067      18.0000000000
12648 4      19.4482799891      19.0000000000
12649 4      17.8907028926      19.0000000000
12650 4      16.1388235289      16.0000000000
12651 4      18.3675196528      17.0000000000
12652 4      18.7487637733      21.0000000000
12653 4      22.1930448915      24.0000000000
12654 4      18.0833266587      15.0000000000
12655 4      20.3306884126      19.0000000000
12656 4      17.5408991912      15.0000000000
12657 4      16.8931878928      19.0000000000
12658 4      14.7863546468      18.0000000000
12659 4      19.0199150488      23.0000000000
12660 4      15.4957917417      13.0000000000
12661 4      18.5050838333      16.0000000000
12662 4      16.5552702409      20.0000000000
12663 4      20.1847056577      17.0000000000
12664 4      15.0379875303      18.0000000000
12665 4      16.4346875471      16.0000000000
12666 4      15.5947299377      13.0000000000
12667 4      15.2812410932      19.0000000000
12668 4      17.6127797693      18.0000000000
12669 4      18.2586284888      15.0000000000
12670 4      19.6107623420      19.0000000000
12671 4      15.0327233533      16.0000000000
12672 4      25.7492031574      25.0000000000
12673 4      22.4956529039      18.0000000000
12674 4      17.4695087231      12.0000000000
12675 4      16.0006320469      18.0000000000
12676 4      16.3903075816      20.0000000000
12677 4      13.9009993380      14.0000000000
12678 4      15.9362344249      15.0000000000
12679 4      19.6444862057      19.0000000000
12680 4      16.7268107662      20.0000000000
12681 4      17.7226449930      18.0000000000
12682 4      18.1456203293      17.0000000000
12683 4      15.9285593361      16.0000000000
12684 4      18.5145250228      20.0000000000
12685 4      14.4584825765      13.0000000000
12686 4      20.1193381246      19.0000000000
12687 4      19.0154087726      19.0000000000
12688 4      17.1117667943      17.0000000000
12689 4      22.8796915534      19.0000000000
12690 4      20.1410988608      22.0000000000
12691 4      17.9754966321      18.0000000000
12692 4      17.5913515455      14.0000000000
12693 4      18.1113562773      19.0000000000
12694 4      16.4362779759      14.0000000000
12695 4      19.3375662611      17.0000000000
12696 4      17.6280565457      17.0000000000
12697 4      16.7658909042      18.0000000000
12698 4      20.6414411736      19.0000000000
12699 4      19.6643529497      17.0000000000
12700 4      18.4260849614      19.0000000000
12701 4      18.0546409001      21.0000000000
12702 4      17.8873066107      21.0000000000
12703 4      15.8683372555      18.0000000000
12704 4      15.4043350578      21.0000000000
12705 4      16.6133940494      19.0000000000
12706 4      16.6298656663      16.0000000000
12707 4      17.4739690265      18.0000000000
12708 4      18.2028231734      18.0000000000
12709 4      17.2808466690      16.0000000000
12710 4      16.8761552679      18.0000000000
12711 4      15.4992571638      13.0000000000
12712 4      14.9320937548      16.0000000000
12713 4      17.4768590232      16.0000000000
12714 4      16.9948275020      17.0000000000
12715 4      20.2586306005      23.0000000000
12716 4      16.0697166210      14.0000000000
12717 4      16.1285702532      15.0000000000
12718 4      17.0959476927      17.0000000000
12719 4      17.4647487629      16.0000000000
12720 4      17.8002132164      20.0000000000
12721 4      17.5980641177      20.0000000000
12722 4      17.8645867684      18.0000000000
12723 4      17.1835750978      15.0000000000
12724 4      14.9191300264      13.0000000000
12725 4      15.3615828505      14.0000000000
12726 4      17.8156109232      14.0000000000
12727 4      21.8496990342      23.0000000000
12728 4      21.1423301444      14.0000000000
12729 4      12.9429691864      12.0000000000
12730 4      14.8260679190      14.0000000000
12731 4      18.4299705847      17.0000000000
12732 4      19.2712186638      18.0000000000
12733 4      15.5385856587      16.0000000000
12734 4      15.3110562407      19.0000000000
12735 4      19.0614773322      19.0000000000
12736 4      18.5179082091      16.0000000000
12737 4      16.8539517551      15.0000000000
12738 4      15.1995888083      16.0000000000
12739 4      19.4536274829      17.0000000000
12740 4      25.6120734947      22.0000000000
12741 4      18.2404676644      17.0000000000
12742 4      17.6723452810      18.0000000000
12743 4      18.3202081976      17.0000000000
12744 4      14.0360204268      14.0000000000
12745 4      15.1862288789      12.0000000000
12746 4      19.6598374748      19.0000000000
12747 4      17.3649349883      17.0000000000
12748 4      15.7090403481      16.0000000000
12749 4      16.3520608818      17.0000000000
12750 4      21.7625631504      17.0000000000
12751 4      18.3717831856      20.0000000000
12752 4      16.2860185389      15.0000000000
12753 4      17.0817598696      16.0000000000
12754 4      19.6790126894      21.0000000000
12755 4      14.7637157009      12.0000000000
12756 4      18.7241819260      14.0000000000
12757 4      19.0504715988      17.0000000000
12758 4      16.9333269615      18.0000000000
12759 4      16.3811801650      15.0000000000
12760 4      14.9292403682      15.0000000000
12761 4      18.8804205421      19.0000000000
12762 4      18.2896948555      17.0000000000
12763 4      15.7683339354      14.0000000000
12764 4      20.9104731961      20.0000000000
12765 4      19.3528332437      18.0000000000
12766 4      16.9497808098      18.0000000000
12767 4      17.6068018909      16.0000000000
12768 4      19.2487201639      22.0000000000
12769 4      21.3260810947      20.0000000000
12770 4      15.2120142356      19.0000000000
12771 4      23.6753401462      24.0000000000
12772 4      21.8215095589      19.0000000000
12773 4      15.8003705939      16.0000000000
12774 4      16.3995534570      17.0000000000
12775 4      19.3000277444      17.0000000000
12776 4      15.2256312417      14.0000000000
12777 4      15.4511396302      17.0000000000
12778 4      17.3927604818      18.0000000000
12779 4      18.4502934243      19.0000000000
12780 4      18.5103605089      18.0000000000
12781 4      26.1548831838      21.0000000000
12782 4      18.6278143879      20.0000000000
12783 4      13.1246484121      14.0000000000
12784 4      15.1880836472      17.0000000000
12785 4      18.2020934093      19.0000000000
12786 4      22.4712239741      22.0000000000
12787 4      18.5953257737      16.0000000000
12788 4      18.0921976518      17.0000000000
12789 4      15.6341825019      16.0000000000
12790 4      20.9140494333      20.0000000000
12791 4      17.2237377250      17.0000000000
12792 4      14.3299359334      18.0000000000
12793 4      16.8782439261      19.0000000000
12794 4      15.0908342269      17.0000000000
12795 4      15.5505376871      18.0000000000
12796 4      18.3049319338      16.0000000000
12797 4      16.5446310327      20.0000000000
12798 4      14.1321856143      14.0000000000
12799 4      16.2357125355      16.0000000000
12800 4      18.3798587039      19.0000000000
12801 4      19.5072482217      18.0000000000
12802 4      19.3521092262      20.0000000000
12803 4      17.7592820785      14.0000000000
12804 4      14.2593871549      12.0000000000
12805 4      16.8456031254      16.0000000000
12806 4      19.8645609847      20.0000000000
12807 4      17.2268542208      20.0000000000
12808 4      20.0779224791      17.0000000000
12809 4      17.4927928363      14.0000000000
12810 4      18.4466796638      18.0000000000
12811 4      17.8427870274      18.0000000000
12812 4      16.1072375563      17.0000000000
12813 4      21.5249667051      21.0000000000
12814 4      21.5492731819      22.0000000000
12815 4      22.4461982072      24.0000000000
12816 4      17.1689130095      20.0000000000
12817 4      14.8350138244      13.0000000000
12818 4      18.6889952606      16.0000000000
12819 4      16.1170787678      15.0000000000
12820 4      16.8058537200      15.0000000000
12821 4      17.6395561549      17.0000000000
12822 4      19.0601344122      18.0000000000
12823 4      15.9300359867      15.0000000000
12824 4      18.8369195726      19.0000000000
12825 4      13.2658531961      13.0000000000
12826 4      18.9523229077      21.0000000000
12827 4      15.1542635473      16.0000000000
12828 4      19.6891303465      20.0000000000
12829 4      18.0763534669      18.0000000000
12830 4      17.7438325844      21.0000000000
12831 4      25.5390463401      20.0000000000
12832 4      23.5237374893      21.0000000000
12833 4      16.1827864907      14.0000000000
12834 4      18.6189453577      20.0000000000
12835 4      19.5629881697      21.0000000000
12836 4      15.3564560527      17.0000000000
12837 4      19.2020452519      17.0000000000
12838 4      18.4936496845      17.0000000000
12839 4      25.8026525243      23.0000000000
12840 4      18.5015104433      14.0000000000
12841 4      15.8999307505      16.0000000000
12842 4      17.0207471634      13.0000000000
12843 4      15.6435314223      17.0000000000
12844 4      18.1110101603      19.0000000000
12845 4      17.0274255103      18.0000000000
12846 4      15.1961968740      19.0000000000
12847 4      15.9119444635      19.0000000000
12848 4      20.0059486419      15.0000000000
12849 4      17.7882100559      13.0000000000
12850 4      19.9846311237      20.0000000000
12851 4      15.7493790054      14.0000000000
12852 4      16.8468549952      13.0000000000
12853 4      17.4990098335      14.0000000000
12854 4      16.7884318526      19.0000000000
12855 4      19.7630171944      17.0000000000
12856 4      17.7303649990      15.0000000000
12857 4      15.6427311507      13.0000000000
12858 4      17.3576528124      20.0000000000
12859 4      22.2536152907      22.0000000000
12860 4      14.5343733181      17.0000000000
12861 4      13.4615476260      15.0000000000
12862 4      20.1360479960      20.0000000000
12863 4      17.1072246526      13.0000000000
12864 4      14.9089328303      16.0000000000
12865 4      18.3727356735      15.0000000000
12866 4      18.2598583351      15.0000000000
12867 4      19.6669851142      20.0000000000
12868 4      15.8445343927      18.0000000000
12869 4      16.5005724144      15.0000000000
12870 4      16.9846561414      16.0000000000
12871 4      23.5238490862      18.0000000000
12872 4      17.5556707400      21.0000000000
12873 4      16.1766317752      17.0000000000
12874 4      15.7153471942      13.0000000000
12875 4      23.5975516387      20.0000000000
12876 4      18.3478820234      18.0000000000
12877 4      17.0067679980      14.0000000000
12878 4      15.5326080389      16.0000000000
12879 4      20.1781266318      21.0000000000
12880 4      19.2698738573      20.0000000000
12881 4      20.0145271185      14.0000000000
12882 4      15.6001445008      17.0000000000
12883 4      17.6014508268      16.0000000000
12884 4      16.3098960711      15.0000000000
12885 4      14.2781950411      15.0000000000
12886 4      18.5488752490      16.0000000000
12887 4      17.3063481530      15.0000000000
12888 4      17.7920894282      18.0000000000
12889 4      19.3490442179      14.0000000000
12890 4      19.0009313138      17.0000000000
12891 4      14.0218532368      17.0000000000
12892 4      14.7249901117      13.0000000000
12893 4      16.3582189483      17.0000000000
12894 4      16.6163871294      18.0000000000
12895 4      18.8301771834      19.0000000000
12896 4      18.2803025145      16.0000000000
12897 4      15.5620443170      16.0000000000
12898 4      25.5844665136      21.0000000000
12899 4      22.8545750881      18.0000000000
12900 4      16.9710548282      18.0000000000
12901 4      19.1527692188      13.0000000000
12902 4      17.2645286321      21.0000000000
12903 4      16.3774904302      21.0000000000
12904 4      15.7981320458      16.0000000000
12905 4      20.9689409419      20.0000000000
12906 4      17.9390834137      14.0000000000
12907 4      22.6411184481      22.0000000000
12908 4      18.0308535067      18.0000000000
12909 4      16.7806055339      14.0000000000
12910 4      16.6052873980      16.0000000000
12911 4      16.4281457402      13.0000000000
12912 4      21.3325014282      21.0000000000
12913 4      15.5934221292      18.0000000000
12914 4      14.2571071966      14.0000000000
12915 4      14.1174540469      17.0000000000
12916 4      20.5208522571      20.0000000000
12917 4      17.4711775570      16.0000000000
12918 4      17.6481481595      20.0000000000
12919 4      12.1562294445      11.0000000000
12920 4      15.4398569261      18.0000000000
12921 4      15.9215336783      14.0000000000
12922 4      17.7929449237      13.0000000000
12923 4      19.5188943948      21.0000000000
12924 4      18.1190357814      19.0000000000
12925 4      18.1134919803      21.0000000000
12926 4      16.0435033488      19.0000000000
12927 4      16.3894611301      14.0000000000
12928 4      14.4680674663      15.0000000000
12929 4      18.0624407188      18.0000000000
12930 4      18.2821310474      16.0000000000
12931 4      15.9190649499      15.0000000000
12932 4      18.8768332941      17.0000000000
12933 4      18.4521112614      20.0000000000
12934 4      17.2570863797      14.0000000000
12935 4      15.4656710775      16.0000000000
12936 4      22.3831846163      21.0000000000
12937 4      16.1941608676      14.0000000000
12938 4      20.0642739143      24.0000000000
12939 4      16.2064495313      18.0000000000
12940 4      15.4667869939      20.0000000000
12941 4      18.1062329998      20.0000000000
12942 4      16.4013285385      18.0000000000
12943 4      18.1203702946      19.0000000000
12944 4      17.6698750908      20.0000000000
12945 4      17.7987613829      21.0000000000
12946 4      19.7113513426      18.0000000000
12947 4      17.7153692358      18.0000000000
12948 4      17.8659583291      16.0000000000
12949 4      17.9599965663      20.0000000000
12950 4      16.3941293682      14.0000000000
12951 4      20.5458651862      20.0000000000
12952 4      24.4241385137      21.0000000000
12953 4      15.0535008914      12.0000000000
12954 4      16.7981140996      19.0000000000
12955 4      18.0047286645      14.0000000000
12956 4      18.7413372134      14.0000000000
12957 4      18.5621101419      22.0000000000
12958 4      19.1341908217      23.0000000000
12959 4      17.6033218146      18.0000000000
12960 4      15.6545015037      13.0000000000
12961 4      18.1265085288      17.0000000000
12962 4      18.3842870933      19.0000000000
12963 4      17.3734689438      19.0000000000
12964 4      17.9003511021      15.0000000000
12965 4      16.3342981112      16.0000000000
12966 4      14.5557149744      14.0000000000
12967 4      17.7124181565      23.0000000000
12968 4      21.6222341031      19.0000000000
12969 4      16.7401515641      16.0000000000
12970 4      16.3672037631      16.0000000000
12971 4      14.2644925809      13.0000000000
12972 4      18.9982548753      17.0000000000
12973 4      17.5367506902      17.0000000000
12974 4      17.7018424832      19.0000000000
12975 4      20.1140469851      19.0000000000
12976 4      18.9391874986      16.0000000000
12977 4      21.4709852537      19.0000000000
12978 4      16.6164868718      14.0000000000
12979 4      13.9112629613      16.0000000000
12980 4      15.5231654326      18.0000000000
12981 4      19.8843282623      18.0000000000
12982 4      16.1579855686      17.0000000000
12983 4      18.7859326494      20.0000000000
12984 4      14.8434590634      17.0000000000
12985 4      17.4525291382      15.0000000000
12986 4      18.0287510687      17.0000000000
12987 4      14.5763585374      12.0000000000
12988 4      14.4838035550      13.0000000000
12989 4      20.5067102592      20.0000000000
12990 4      17.9835645891      16.0000000000
12991 4      17.5819228828      16.0000000000
12992 4      15.9342628008      19.0000000000
12993 4      14.7041794529      13.0000000000
12994 4      17.3121283716      19.0000000000
12995 4      18.6026595311      15.0000000000
12996 4      18.7590405248      22.0000000000
12997 4      19.7376097292      18.0000000000
12998 4      16.1569024199      15.0000000000
12999 4      17.7355274829      14.0000000000
13000 4      19.9670256175      19.0000000000
13001 4      16.2634219467      15.0000000000
13002 4      19.0825307230      20.0000000000
13003 4      17.0313233569      15.0000000000
13004 4      19.4395846651      20.0000000000
13005 4      21.0819536152      18.0000000000
13006 4      18.1003941077      15.0000000000
13007 4      16.8061441723      19.0000000000
13008 4      14.6313943952      19.0000000000
13009 4      21.8793631394      22.0000000000
13010 4      21.3907531115      21.0000000000
13011 4      19.9505692248      25.0000000000
13012 4      16.8545059581      13.0000000000
13013 4      17.6638611644      18.0000000000
13014 4      12.7964574021      16.0000000000
13015 4      16.7810184231      14.0000000000
13016 4      15.8003086815      18.0000000000
13017 4      14.8221186029      13.0000000000
13018 4      20.2238430115      15.0000000000
13019 4      20.1369953395      18.0000000000
13020 4      15.0606729545      17.0000000000
13021 4      17.7931716044      15.0000000000
13022 4      22.2676308497      18.0000000000
13023 4      21.4952481106      21.0000000000
13024 4      19.5638532381      16.0000000000
13025 4      16.5575937970      14.0000000000
13026 4      19.5723040663      17.0000000000
13027 4      17.8074799350      16.0000000000
13028 4      17.1728302291      18.0000000000
13029 4      16.1311205908      16.0000000000
13030 4      16.9123610575      19.0000000000
13031 4      19.5371599422      19.0000000000
13032 4      15.1588896005      15.0000000000
13033 4      18.4128474314      16.0000000000
13034 4      15.6769695078      13.0000000000
13035 4      18.1156761573      20.0000000000
13036 4      14.2848742937      13.0000000000
13037 4      17.2623877109      19.0000000000
13038 4      15.7635356154      21.0000000000
13039 4      17.6026276976      14.0000000000
13040 4      16.3446196653      17.0000000000
13041 4      21.9843037988      19.0000000000
13042 4      18.6519722889      19.0000000000
13043 4      17.7355110928      15.0000000000
13044 4      16.9814149948      16.0000000000
13045 4      19.0339734570      18.0000000000
13046 4      16.9204281542      16.0000000000
13047 4      17.6772624511      18.0000000000
13048 4      16.1425492728      17.0000000000
13049 4      12.9064352450      13.0000000000
13050 4      20.2977726239      20.0000000000
13051 4      16.4520584212      14.0000000000
13052 4      17.2386923383      16.0000000000
13053 4      15.3918355130      16.0000000000
13054 4      19.3551129795      18.0000000000
13055 4      17.5661049523      17.0000000000
13056 4      18.5436326395      20.0000000000
13057 4      17.0752803922      19.0000000000
13058 4      17.5322992823      19.0000000000
13059 4      17.2979254930      15.0000000000
13060 4      16.9767705922      20.0000000000
13061 4      16.4170476681      13.0000000000
13062 4      14.8820078509      16.0000000000
13063 4      16.6900204711      18.0000000000
13064 4      18.4354911982      17.0000000000
13065 4      21.2858299115      19.0000000000
13066 4      18.9693870092      15.0000000000
13067 4      16.4776334483      20.0000000000
13068 4      18.0077127127      17.0000000000
13069 4      18.4621382524      18.0000000000
13070 4      14.7874518919      13.0000000000
13071 4      17.8542970056      15.0000000000
13072 4      20.5978209420      17.0000000000
13073 4      17.8202327309      20.0000000000
13074 4      18.1888556051      19.0000000000
13075 4      19.9811219068      17.0000000000
13076 4      15.5565779030      16.0000000000
13077 4      17.0952701519      17.0000000000
13078 4      14.6867039915      14.0000000000
13079 4      16.2200392742      17.0000000000
13080 4      21.0328999969      18.0000000000
13081 4      23.8502432766      20.0000000000
13082 4      17.6107841005      18.0000000000
13083 4      17.1845249925      15.0000000000
13084 4      20.2618446763      16.0000000000
13085 4      22.7724498534      19.0000000000
13086 4      18.2508697295      15.0000000000
13087 4      16.7165560375      18.0000000000
13088 4      15.2584259615      14.0000000000
13089 4      17.9301139894      17.0000000000
13090 4      19.9377316243      20.0000000000
13091 4      16.5697221165      18.0000000000
13092 4      18.1088276928      17.0000000000
13093 4      20.4590312470      21.0000000000
13094 4      19.1569253774      20.0000000000
13095 4      18.1251073401      21.0000000000
13096 4      16.9185154502      16.0000000000
13097 4      15.1337312378      13.0000000000
13098 4      17.0487225394      15.0000000000
13099 4      16.8081941410      19.0000000000
13100 4      19.9815129621      18.0000000000
13101 4      16.4695601021      17.0000000000
13102 4      16.9336582214      17.0000000000
13103 4      16.3231893668      16.0000000000
13104 4      13.8669046787      15.0000000000
13105 4      19.2675966570      19.0000000000
13106 4      14.4941240734      15.0000000000
13107 4      19.3405674473      15.0000000000
13108 4      17.5460828120      20.0000000000
13109 4      17.0387596153      15.0000000000
13110 4      19.2424613109      18.0000000000
13111 4      17.7209065961      16.0000000000
13112 4      19.9067065524      17.0000000000
13113 4      19.8733936844      19.0000000000
13114 4      16.8320399021      17.0000000000
13115 4      17.1636763194      17.0000000000
13116 4      17.4465795385      17.0000000000
13117 4      17.5060877416      19.0000000000
13118 4      17.1277618857      15.0000000000
13119 4      20.1671125520      21.0000000000
13120 4      17.8488464603      16.0000000000
13121 4      15.7372953078      15.0000000000
13122 4      18.7245195466      15.0000000000
13123 4      16.5405321475      15.0000000000
13124 4      20.7079613366      21.0000000000
13125 4      19.7872530414      20.0000000000
13126 4      18.8302523208      16.0000000000
13127 4      16.7646017111      17.0000000000
13128 4      16.5528133157      17.0000000000
13129 4      19.2886895914      18.0000000000
13130 4      14.9195054582      15.0000000000
13131 4      19.2577566328      20.0000000000
13132 4      15.3639582487      17.0000000000
13133 4      19.5476440950      22.0000000000
13134 4      23.9107319545      18.0000000000
13135 4      17.5868711143      16.0000000000
13136 4      21.5947120608      22.0000000000
13137 4      18.3674761193      18.0000000000
13138 4      15.8437061783      18.0000000000
13139 4      20.0017972053      21.0000000000
13140 4      18.6518355825      21.0000000000
13141 4      15.7030481971      16.0000000000
13142 4      15.6899605225      16.0000000000
13143 4      14.2721303639      14.0000000000
13144 4      16.0172258275      18.0000000000
13145 4      15.5352926291      17.0000000000
13146 4      15.7820236524      18.0000000000
13147 4      15.3442259957      18.0000000000
13148 4      21.9859129453      23.0000000000
13149 4      17.0604052568      16.0000000000
13150 4      17.2841887301      22.0000000000
13151 4      15.0685717031      13.0000000000
13152 4      18.5410454099      21.0000000000
13153 4      16.0104525938      16.0000000000
13154 4      20.3213009189      18.0000000000
13155 4      17.3283609571      23.0000000000
13156 4      15.6578987634      16.0000000000
13157 4      14.4787707052      15.0000000000
13158 4      15.8268161835      17.0000000000
13159 4      16.0045833492      15.0000000000
13160 4      18.8242611159      19.0000000000
13161 4      17.0987878267      13.0000000000
13162 4      20.8206077712      16.0000000000
13163 4      15.5601986404      17.0000000000
13164 4      21.2735009007      22.0000000000
13165 4      18.1283884300      16.0000000000
13166 4      17.7283465792      19.0000000000
13167 4      18.2423823570      16.0000000000
13168 4      17.8019041498      16.0000000000
13169 4      18.0862275440      16.0000000000
13170 4      15.3830967754      11.0000000000
13171 4      16.8362246191      20.0000000000
13172 4      20.3873286700      18.0000000000
13173 4      16.9793718177      18.0000000000
13174 4      17.0825249320      14.0000000000
13175 4      21.9635892522      18.0000000000
13176 4      17.6860720462      17.0000000000
13177 4      14.9807843804      15.0000000000
13178 4      18.1873192250      21.0000000000
13179 4      22.9631411016      18.0000000000
13180 4      16.1207993663      14.0000000000
13181 4      17.5751708560      18.0000000000
13182 4      15.4451009159      16.0000000000
13183 4      17.5369639764      17.0000000000
13184 4      19.1141928851      21.0000000000
13185 4      20.6279345445      21.0000000000
13186 4      15.9407957865      15.0000000000
13187 4      15.2293073493      16.0000000000
13188 4      14.0324254767      11.0000000000
13189 4      20.3027105691      20.0000000000
13190 4      18.8612908505      18.0000000000
13191 4      19.9167180089      18.0000000000
13192 4      18.1461874023      19.0000000000
13193 4      16.2510727224      18.0000000000
13194 4      17.7220366402      15.0000000000
13195 4      20.3478366535      16.0000000000
13196 4      16.0299995076      16.0000000000
13197 4      17.0941793946      18.0000000000
13198 4      20.3937931755      15.0000000000
13199 4      16.0470632842      17.0000000000
13200 4      17.0460540723      19.0000000000
13201 4      15.9393317067      15.0000000000
13202 4      14.8039099484      17.0000000000
13203 4      15.8821274442      18.0000000000
13204 4      17.0262661998      19.0000000000
13205 4      16.9084682763      16.0000000000
13206 4      18.4532292965      17.0000000000
13207 4      16.7106549733      18.0000000000
13208 4      17.7318253275      13.0000000000
13209 4      16.3605047045      17.0000000000
13210 4      17.2127472420      18.0000000000
13211 4      20.5690583978      16.0000000000
13212 4      16.6397737302      15.0000000000
13213 4      16.8104667322      17.0000000000
13214 4      15.1637145759      13.0000000000
13215 4      17.1341548752      16.0000000000
13216 4      16.9578389098      18.0000000000
13217 4      12.6416358203      15.0000000000
13218 4      19.1603793550      17.0000000000
13219 4      17.9607004296      17.0000000000
13220 4      14.8767576061      18.0000000000
13221 4      17.3040287286      17.0000000000
13222 4      13.6864836892      15.0000000000
13223 4      17.1937076734      17.0000000000
13224 4      22.0493193677      20.0000000000
13225 4      18.2682844155      15.0000000000
13226 4      16.5928512061      16.0000000000
13227 4      18.1464408680      20.0000000000
13228 4      19.2030376546      19.0000000000
13229 4      13.3576294820      14.0000000000
13230 4      15.4784534035      16.0000000000
13231 4      17.4595688711      19.0000000000
13232 4      16.9518421306      17.0000000000
13233 4      15.1307108354      11.0000000000
13234 4      17.6538674427      17.0000000000
13235 4      15.8098982289      16.0000000000
13236 4      16.1234675616      16.0000000000
13237 4      19.4494877952      16.0000000000
13238 4      17.6641990826      12.0000000000
13239 4      17.7336061740      17.0000000000
13240 4      17.0718488305      16.0000000000
13241 4      16.6138305478      16.0000000000
13242 4      18.2989661354      16.0000000000
13243 4      26.4278079273      19.0000000000
13244 4      18.3116379114      21.0000000000
13245 4      15.7013899929      12.0000000000
13246 4      13.8678862728      16.0000000000
13247 4      23.3229847030      21.0000000000
13248 4      15.9223956804      18.0000000000
13249 4      19.7466363104      22.0000000000
13250 4      16.9481069563      17.0000000000
13251 4      17.7739637211      18.0000000000
13252 4      24.7280640802      22.0000000000
13253 4      19.4339721079      19.0000000000
13254 4      15.1898872958      14.0000000000
13255 4      17.7608015943      21.0000000000
13256 4      16.5373282417      14.0000000000
13257 4      16.3100057937      13.0000000000
13258 4      18.5957002840      19.0000000000
13259 4      18.0961894795      15.0000000000
13260 4      16.1924013287      15.0000000000
13261 4      20.9095460820      21.0000000000
13262 4      17.0850257790      13.0000000000
13263 4      17.8692893949      16.0000000000
13264 4      18.4068764364      19.0000000000
13265 4      17.1145857936      14.0000000000
13266 4      19.4907521870      14.0000000000
13267 4      18.0148592349      16.0000000000
13268 4      16.3706667750      16.0000000000
13269 4      14.9692698903      17.0000000000
13270 4      16.8864273515      13.0000000000
13271 4      15.3305579099      17.0000000000
13272 4      14.0937086080      14.0000000000
13273 4      14.3185273391      13.0000000000
13274 4      16.4543535361      14.0000000000
13275 4      20.8887639999      18.0000000000
13276 4      18.0254918823      12.0000000000
13277 4      18.1618264951      17.0000000000
13278 4      17.6979715631      17.0000000000
13279 4      18.3267421169      22.0000000000
13280 4      17.9687093181      18.0000000000
13281 4      15.6806786554      13.0000000000
13282 4      16.4256937580      15.0000000000
13283 4      16.0491956175      15.0000000000
13284 4      14.6407006024      19.0000000000
13285 4      15.7434587977      14.0000000000
13286 4      15.9729736839      15.0000000000
13287 4      15.9715982327      17.0000000000
13288 4      16.5430214992      18.0000000000
13289 4      19.7924981785      19.0000000000
13290 4      20.8763187627      21.0000000000
13291 4      18.9534054451      18.0000000000
13292 4      16.1448455732      20.0000000000
13293 4      17.6973958493      21.0000000000
13294 4      19.0792208764      18.0000000000
13295 4      15.7538539175      17.0000000000
13296 4      14.8334481701      15.0000000000
13297 4      18.6125592516      16.0000000000
13298 4      21.2586890099      19.0000000000
13299 4      16.4296520813      19.0000000000
13300 4      16.4432982268      14.0000000000
13301 4      16.6287842962      14.0000000000
13302 4      20.7016139972      19.0000000000
13303 4      22.0104089202      17.0000000000
13304 4      16.1190536558      18.0000000000
13305 4      18.9545237130      18.0000000000
13306 4      16.6172565026      16.0000000000
13307 4      16.6131149231      14.0000000000
13308 4      15.3298739553      15.0000000000
13309 4      27.7091086135      21.0000000000
13310 4      19.4281485339      16.0000000000
13311 4      20.2390149431      17.0000000000
13312 4      15.2025903269      17.0000000000
13313 4      17.6750982002      16.0000000000
13314 4      16.0506805501      17.0000000000
13315 4      16.6732635571      14.0000000000
13316 4      19.5573702129      19.0000000000
13317 4      14.6445950833      13.0000000000
13318 4      23.8283033505      17.0000000000
13319 4      17.7174814778      20.0000000000
13320 4      18.0743595883      16.0000000000
13321 4      14.9103209322      18.0000000000
13322 4      14.1907511987      15.0000000000
13323 4      17.3751486227      15.0000000000
13324 4      13.9027592131      16.0000000000
13325 4      16.6445646318      16.0000000000
13326 4      13.3684072077      15.0000000000
13327 4      16.6248209750      15.0000000000
13328 4      23.1161170697      23.0000000000
13329 4      19.0886550635      16.0000000000
13330 4      15.0858657539      17.0000000000
13331 4      16.4476200602      14.0000000000
13332 4      15.7409726424      17.0000000000
13333 4      19.4559307380      17.0000000000
13334 4      14.0480857536      14.0000000000
13335 4      16.3198649884      16.0000000000
13336 4      13.2358536855      12.0000000000
13337 4      16.0946943892      17.0000000000
13338 4      20.3918003629      23.0000000000
13339 4      15.2236426890      16.0000000000
13340 4      17.6670005107      18.0000000000
13341 4      18.1002871269      17.0000000000
13342 4      18.3456360277      19.0000000000
13343 4      16.4929990061      15.0000000000
13344 4      18.5463166779      20.0000000000
13345 4      17.0345047625      15.0000000000
13346 4      15.2883894155      16.0000000000
13347 4      12.2455445101      12.0000000000
13348 4      18.8539492391      21.0000000000
13349 4      16.1557276459      19.0000000000
13350 4      17.2116142608      16.0000000000
13351 4      16.3387654446      17.0000000000
13352 4      21.8605578575      19.0000000000
13353 4      14.8451291629      18.0000000000
13354 4      20.7290495356      20.0000000000
13355 4      17.5895476861      16.0000000000
13356 4      18.3788820264      19.0000000000
13357 4      15.4599887704      13.0000000000
13358 4      19.7158311211      23.0000000000
13359 4      19.6167549955      19.0000000000
13360 4      20.1376106314      20.0000000000
13361 4      19.7427782634      19.0000000000
13362 4      17.7034950311      15.0000000000
13363 4      19.5731149139      17.0000000000
13364 4      14.8727602395      13.0000000000
13365 4      16.8673749974      19.0000000000
13366 4      17.0990408485      17.0000000000
13367 4      14.8168941439      15.0000000000
13368 4      17.3295613377      13.0000000000
13369 4      16.9640555041      15.0000000000
13370 4      19.1644588653      17.0000000000
13371 4      18.1267496972      17.0000000000
13372 4      15.3262915346      15.0000000000
13373 4      16.9612315923      15.0000000000
13374 4      16.0942486163      11.0000000000
13375 4      15.6196335040      14.0000000000
13376 4      19.6182649791      17.0000000000
13377 4      17.9508119951      17.0000000000
13378 4      21.5896734596      21.0000000000
13379 4      21.3599809339      19.0000000000
13380 4      16.1780482199      14.0000000000
13381 4      23.3555501680      20.0000000000
13382 4      19.1321192334      17.0000000000
13383 4      22.7143509207      19.0000000000
13384 4      22.1356123407      19.0000000000
13385 4      19.5146350110      19.0000000000
13386 4      16.6888348976      18.0000000000
13387 4      17.0551864001      17.0000000000
13388 4      18.6338721435      18.0000000000
13389 4      18.4278897274      19.0000000000
13390 4      18.9669005743      15.0000000000
13391 4      18.3253286117      18.0000000000
13392 4      17.8941523237      19.0000000000
13393 4      16.0409938106      20.0000000000
13394 4      18.9737455007      15.0000000000
13395 4      16.2831960206      14.0000000000
13396 4      22.0551043530      16.0000000000
13397 4      24.3023949188      19.0000000000
13398 4      18.5255440548      15.0000000000
13399 4      17.0130212816      16.0000000000
13400 4      17.2963958162      18.0000000000
13401 4      16.2423330065      16.0000000000
13402 4      21.6847590272      18.0000000000
13403 4      16.0158965240      16.0000000000
13404 4      15.0376354840      15.0000000000
13405 4      21.6238860601      19.0000000000
13406 4      18.0126912134      18.0000000000
13407 4      21.6030974420      22.0000000000
13408 4      19.0180571964      17.0000000000
13409 4      15.3364515239      17.0000000000
13410 4      14.5123792899      16.0000000000
13411 4      17.0960369147      17.0000000000
13412 4      16.1415436699      17.0000000000
13413 4      17.3846519476      14.0000000000
13414 4      18.5554242917      14.0000000000
13415 4      16.8642913801      20.0000000000
13416 4      16.4862653573      15.0000000000
13417 4      19.5413030596      17.0000000000
13418 4      17.9273080165      19.0000000000
13419 4      17.6769597496      16.0000000000
13420 4      17.7491178871      17.0000000000
13421 4      19.9122641532      11.0000000000
13422 4      16.5547538820      14.0000000000
13423 4      17.6898794889      17.0000000000
13424 4      18.6007437495      21.0000000000
13425 4      22.3239260672      18.0000000000
13426 4      20.0032964296      22.0000000000
13427 4      16.2262426305      17.0000000000
13428 4      18.0273731187      17.0000000000
13429 4      16.4356789172      15.0000000000
13430 4      14.3428533394      17.0000000000
13431 4      17.5816901514      14.0000000000
13432 4      17.8897499028      19.0000000000
13433 4      16.2656706381      19.0000000000
13434 4      15.6107436557      10.0000000000
13435 4      18.3128205183      19.0000000000
13436 4      18.6194532541      18.0000000000
13437 4      18.4619522143      18.0000000000
13438 4      20.6154203215      20.0000000000
13439 4      15.2376633765      15.0000000000
13440 4      16.1339234375      18.0000000000
13441 4      19.1610608158      12.0000000000
13442 4      17.1694454580      17.0000000000
13443 4      15.6030736781      17.0000000000
13444 4      16.5985287880      14.0000000000
13445 4      14.5962527486      13.0000000000
13446 4      17.7059198522      21.0000000000
13447 4      14.7392067550      17.0000000000
13448 4      15.0539376445      11.0000000000
13449 4      16.1471660882      16.0000000000
13450 4      19.7721814083      20.0000000000
13451 4      17.1056745065      17.0000000000
13452 4      18.4004115979      13.0000000000
13453 4      18.6793316236      20.0000000000
13454 4      15.3301480332      19.0000000000
13455 4      17.6636575474      17.0000000000
13456 4      15.5110041346      12.0000000000
13457 4      17.6321996979      16.0000000000
13458 4      18.2288502458      20.0000000000
13459 4      16.6628314386      20.0000000000
13460 4      18.7960110901      25.0000000000
13461 4      16.2939558042      21.0000000000
13462 4      18.4336644794      20.0000000000
13463 4      18.2125392217      23.0000000000
13464 4      15.9432176498      16.0000000000
13465 4      18.3640340338      16.0000000000
13466 4      14.2699123997      12.0000000000
13467 4      18.2911212297      23.0000000000
13468 4      21.1229763866      14.0000000000
13469 4      18.0709498604      18.0000000000
13470 4      17.5905146837      17.0000000000
13471 4      18.1402624043      16.0000000000
13472 4      19.1154940857      16.0000000000
13473 4      17.9790774442      20.0000000000
13474 4      22.8395094189      17.0000000000
13475 4      20.0670585426      20.0000000000
13476 4      17.4934657525      17.0000000000
13477 4      19.4099798630      21.0000000000
13478 4      16.0401774380      12.0000000000
13479 4      15.0178151929      13.0000000000
13480 4      15.2303517880      15.0000000000
13481 4      18.4711201406      15.0000000000
13482 4      16.0622296824      17.0000000000
13483 4      18.3689205131      21.0000000000
13484 4      17.0421347271      17.0000000000
13485 4      17.0630912930      15.0000000000
13486 4      17.3554299556      16.0000000000
13487 4      20.7610266154      21.0000000000
13488 4      20.0064865115      23.0000000000
13489 4      17.1351231616      16.0000000000
13490 4      17.4686694590      17.0000000000
13491 4      21.2277555537      19.0000000000
13492 4      26.0810529068      23.0000000000
13493 4      21.1485145069      18.0000000000
13494 4      17.1805874025      15.0000000000
13495 4      18.5632929032      19.0000000000
13496 4      18.5520027747      16.0000000000
13497 4      18.2096371079      18.0000000000
13498 4      19.2064064661      20.0000000000
13499 4      15.3080269601      18.0000000000
13500 4      13.8326903615      14.0000000000
13501 5      22.8189650995      22.0000000000
13502 5      21.7978703167      18.0000000000
13503 5      22.2690959458      14.0000000000
13504 5      23.7990984353      20.0000000000
13505 5      22.0450984528      20.0000000000
13506 5      18.7609934626      15.0000000000
13507 5      24.1166740152      20.0000000000
13508 5      21.8221417845      18.0000000000
13509 5      21.7712197567      20.0000000000
13510 5      19.9054662492      19.0000000000
13511 5      23.2850750313      16.0000000000
13512 5      24.7814297289      21.0000000000
13513 5      21.4247868386      25.0000000000
13514 5      28.8297275071      20.0000000000
13515 5      20.3069900400      17.0000000000
13516 5      22.8333839904      20.0000000000
13517 5      23.5797095229      19.0000000000
13518 5      19.6179105405      16.0000000000
13519 5      24.5287397477      21.0000000000
13520 5      20.0562432614      18.0000000000
13521 5      21.7929387066      20.0000000000
13522 5      21.5041499646      20.0000000000
13523 5      22.9889024178      19.0000000000
13524 5      23.9632398227      26.0000000000
13525 5      21.6113055005      14.0000000000
13526 5      25.2782522416      21.0000000000
13527 5      22.2509395290      18.0000000000
13528 5      21.1404898757      20.0000000000
13529 5      25.7930558841      20.0000000000
13530 5      19.9953763399      16.0000000000
13531 5      28.7855032906      20.0000000000
13532 5      20.2323050726      21.0000000000
13533 5      25.9577977348      19.0000000000
13534 5      23.3488834813      17.0000000000
13535 5      24.4093101391      24.0000000000
13536 5      29.9669042642      24.0000000000
13537 5      23.4364635210      21.0000000000
13538 5      21.6109446573      19.0000000000
13539 5      24.5120701762      18.0000000000
13540 5      24.1743328830      18.0000000000
13541 5      26.5585872639      16.0000000000
13542 5      27.1343154010      21.0000000000
13543 5      25.8676837185      19.0000000000
13544 5      22.0883293812      21.0000000000
13545 5      24.9419390979      23.0000000000
13546 5      23.4696449692      17.0000000000
13547 5      22.1248661823      17.0000000000
13548 5      22.5400437967      21.0000000000
13549 5      26.1972523577      25.0000000000
13550 5      33.5158901232      26.0000000000
13551 5      22.1468104877      17.0000000000
13552 5      23.9449822633      24.0000000000
13553 5      20.5450457374      16.0000000000
13554 5      18.5497378480      15.0000000000
13555 5      25.5294343359      18.0000000000
13556 5      17.3073865652      18.0000000000
13557 5      23.6781005288      22.0000000000
13558 5      23.5976144276      15.0000000000
13559 5      23.8827533252      20.0000000000
13560 5      22.3980084978      19.0000000000
13561 5      27.1741018747      21.0000000000
13562 5      25.1874188356      20.0000000000
13563 5      19.0468209951      21.0000000000
13564 5      18.9054772347      15.0000000000
13565 5      21.9959674992      23.0000000000
13566 5      23.9015025164      20.0000000000
13567 5      23.4760130138      19.0000000000
13568 5      20.9785754112      18.0000000000
13569 5      20.2313123590      18.0000000000
13570 5      23.6674754121      18.0000000000
13571 5      27.9547937201      20.0000000000
13572 5      17.7897880287      14.0000000000
13573 5      22.4341547792      20.0000000000
13574 5      24.6275421112      23.0000000000
13575 5      23.6652565441      21.0000000000
13576 5      21.0136592600      17.0000000000
13577 5      23.9066368108      23.0000000000
13578 5      26.2673863568      24.0000000000
13579 5      20.8774658921      20.0000000000
13580 5      20.4216019759      20.0000000000
13581 5      23.6970585617      20.0000000000
13582 5      25.9844199851      17.0000000000
13583 5      23.7168088505      21.0000000000
13584 5      18.3715360568      18.0000000000
13585 5      22.7187863200      20.0000000000
13586 5      24.3912203998      21.0000000000
13587 5      22.7299456198      16.0000000000
13588 5      22.5438396477      18.0000000000
13589 5      25.2310157673      24.0000000000
13590 5      23.1070198815      18.0000000000
13591 5      28.6035799635      23.0000000000
13592 5      22.8858291865      19.0000000000
13593 5      22.7247671176      16.0000000000
13594 5      20.5499899536      16.0000000000
13595 5      23.1011946759      24.0000000000
13596 5      22.8799053293      21.0000000000
13597 5      20.7757529856      20.0000000000
13598 5      19.3796426240      17.0000000000
13599 5      21.4248672407      18.0000000000
13600 5      24.5466699428      17.0000000000
13601 5      22.4575033416      23.0000000000
13602 5      23.0251104960      18.0000000000
13603 5      26.2603803419      22.0000000000
13604 5      28.5401559063      21.0000000000
13605 5      21.7144826671      19.0000000000
13606 5      25.4350923152      17.0000000000
13607 5      23.0204626951      21.0000000000
13608 5      20.7316895686      16.0000000000
13609 5      21.2927181579      20.0000000000
13610 5      18.9879430053      20.0000000000
13611 5      24.4208155308      18.0000000000
13612 5      22.6380731522      19.0000000000
13613 5      25.3392005300      21.0000000000
13614 5      19.2711000919      14.0000000000
13615 5      22.8158657338      16.0000000000
13616 5      25.3331920576      22.0000000000
13617 5      21.0242800048      17.0000000000
13618 5      24.6702239645      22.0000000000
13619 5      21.1793743717      21.0000000000
13620 5      36.9155576363      26.0000000000
13621 5      20.8541955702      16.0000000000
13622 5      23.7324032186      20.0000000000
13623 5      21.5486555703      20.0000000000
13624 5      23.1730147799      18.0000000000
13625 5      21.0067828058      20.0000000000
13626 5      19.3264795585      18.0000000000
13627 5      23.6870427727      25.0000000000
13628 5      23.6072349747      22.0000000000
13629 5      21.7390067523      18.0000000000
13630 5      21.9190428932      20.0000000000
13631 5      24.0037609738      18.0000000000
13632 5      30.4254235251      21.0000000000
13633 5      20.4990338905      17.0000000000
13634 5      22.9288586244      19.0000000000
13635 5      19.3249595971      18.0000000000
13636 5      24.5684630456      22.0000000000
13637 5      33.6379444976      26.0000000000
13638 5      19.5017744850      18.0000000000
13639 5      20.7932620131      19.0000000000
13640 5      30.3885262391      23.0000000000
13641 5      26.7087518446      21.0000000000
13642 5      20.7167569997      21.0000000000
13643 5      21.5863869588      17.0000000000
13644 5      17.5195315177      16.0000000000
13645 5      22.6497245372      15.0000000000
13646 5      20.4461454395      21.0000000000
13647 5      20.6507240850      22.0000000000
13648 5      22.6455629611      23.0000000000
13649 5      22.7914818331      15.0000000000
13650 5      26.2254516415      19.0000000000
13651 5      25.8653725812      22.0000000000
13652 5      22.8666961936      24.0000000000
13653 5      21.9659760992      18.0000000000
13654 5      20.6690883247      20.0000000000
13655 5      24.4705494256      20.0000000000
13656 5      20.0432561484      20.0000000000
13657 5      20.0846601464      15.0000000000
13658 5      26.0061426129      22.0000000000
13659 5      25.3039245538      22.0000000000
13660 5      25.2478190311      17.0000000000
13661 5      20.4121178137      14.0000000000
13662 5      26.3201702589      20.0000000000
13663 5      24.7891917971      25.0000000000
13664 5      21.6460226886      23.0000000000
13665 5      22.4380720577      23.0000000000
13666 5      25.2624191729      20.0000000000
13667 5      21.8097890881      24.0000000000
13668 5      20.8594770115      16.0000000000
13669 5      20.7092670268      18.0000000000
13670 5      26.6141203162      24.0000000000
13671 5      23.2862556891      24.0000000000
13672 5      19.7914106950      14.0000000000
13673 5      26.4764097739      17.0000000000
13674 5      25.0980201709      18.0000000000
13675 5      24.9566637592      26.0000000000
13676 5      23.5407671913      18.0000000000
13677 5      24.2647712872      16.0000000000
13678 5      24.1924297511      21.0000000000
13679 5      34.8015476662      30.0000000000
13680 5      18.4192079246      17.0000000000
13681 5      23.6212922641      16.0000000000
13682 5      23.6593091681      21.0000000000
13683 5      25.1176649027      19.0000000000
13684 5      17.5965509625      17.0000000000
13685 5      20.9607222085      18.0000000000
13686 5      20.8370275765      19.0000000000
13687 5      23.5503705962      17.0000000000
13688 5      21.3285054780      23.0000000000
13689 5      26.2754559710      18.0000000000
13690 5      23.1601183255      18.0000000000
13691 5      24.1565244111      17.0000000000
13692 5      23.2133170807      16.0000000000
13693 5      23.3952091782      18.0000000000
13694 5      27.2907990175      19.0000000000
13695 5      23.5713382683      21.0000000000
13696 5      23.0674993748      19.0000000000
13697 5      20.9419688573      18.0000000000
13698 5      22.4698624257      21.0000000000
13699 5      21.1736930202      18.0000000000
13700 5      21.6025136868      18.0000000000
13701 5      23.1266818389      21.0000000000
13702 5      19.7838776914      20.0000000000
13703 5      22.2432294735      23.0000000000
13704 5      20.4187795856      16.0000000000
13705 5      25.6430553203      21.0000000000
13706 5      26.7030155941      19.0000000000
13707 5      20.6990308947      14.0000000000
13708 5      27.4467802235      20.0000000000
13709 5      23.5134732936      19.0000000000
13710 5      20.7174031325      16.0000000000
13711 5      25.8510733003      21.0000000000
13712 5      22.2029113558      15.0000000000
13713 5      23.9999439610      20.0000000000
13714 5      20.0353331670      18.0000000000
13715 5      21.0637051250      21.0000000000
13716 5      23.1812754852      19.0000000000
13717 5      21.3941473132      23.0000000000
13718 5      24.5191487613      18.0000000000
13719 5      22.2249120705      22.0000000000
13720 5      19.5361393155      17.0000000000
13721 5      20.9879180084      19.0000000000
13722 5      29.1775977687      25.0000000000
13723 5      25.6107208939      18.0000000000
13724 5      19.5195968886      21.0000000000
13725 5      20.0104895196      21.0000000000
13726 5      22.5918507996      20.0000000000
13727 5      25.0002430099      21.0000000000
13728 5      26.1924549176      18.0000000000
13729 5      23.9931830403      18.0000000000
13730 5      23.1754132057      19.0000000000
13731 5      22.4879565011      20.0000000000
13732 5      24.6698826937      23.0000000000
13733 5      19.7961548840      17.0000000000
13734 5      18.7170260307      12.0000000000
13735 5      20.5544724659      18.0000000000
13736 5      24.8553494925      19.0000000000
13737 5      22.2365857410      19.0000000000
13738 5      20.4493030027      17.0000000000
13739 5      25.9894740255      23.0000000000
13740 5      37.6577181174      24.0000000000
13741 5      35.5768194756      21.0000000000
13742 5      20.7530973819      14.0000000000
13743 5      27.8623558229      21.0000000000
13744 5      32.0322272029      19.0000000000
13745 5      21.2572293191      17.0000000000
13746 5      20.3512777475      19.0000000000
13747 5      21.1663137970      16.0000000000
13748 5      21.3147256416      21.0000000000
13749 5      20.3059074900      17.0000000000
13750 5      18.9466432309      18.0000000000
13751 5      21.8067896428      19.0000000000
13752 5      26.8664136319      23.0000000000
13753 5      25.6194320617      20.0000000000
13754 5      22.2361720519      23.0000000000
13755 5      18.4175403207      19.0000000000
13756 5      50.5700801088      28.0000000000
13757 5      22.0116938920      17.0000000000
13758 5      24.0785124846      19.0000000000
13759 5      19.5353438837      16.0000000000
13760 5      25.4650222292      20.0000000000
13761 5      24.9262312665      20.0000000000
13762 5      22.7866396364      23.0000000000
13763 5      18.2544954298      21.0000000000
13764 5      20.9130215723      20.0000000000
13765 5      19.8138231145      16.0000000000
13766 5      26.2323018245      21.0000000000
13767 5      28.1604558637      22.0000000000
13768 5      22.3487425312      23.0000000000
13769 5      29.5525881363      20.0000000000
13770 5      25.1559277708      17.0000000000
13771 5      22.6897796316      17.0000000000
13772 5      19.9245120040      19.0000000000
13773 5      16.8855856066      17.0000000000
13774 5      27.0858886024      21.0000000000
13775 5      21.3939383507      18.0000000000
13776 5      22.7128758821      16.0000000000
13777 5      27.7135487905      22.0000000000
13778 5      24.2955539520      22.0000000000
13779 5      22.1655493067      19.0000000000
13780 5      25.6858973430      24.0000000000
13781 5      21.5889046305      19.0000000000
13782 5      24.7112884041      19.0000000000
13783 5      21.8764061492      17.0000000000
13784 5      23.7788556124      25.0000000000
13785 5      25.5369956675      25.0000000000
13786 5      18.7420214635      20.0000000000
13787 5      24.4663838881      19.0000000000
13788 5      24.5997605579      19.0000000000
13789 5      19.2485522514      14.0000000000
13790 5      29.2331880140      22.0000000000
13791 5      19.2644855521      18.0000000000
13792 5      30.4631420541      18.0000000000
13793 5      24.5766222548      19.0000000000
13794 5      21.6133946558      20.0000000000
13795 5      26.0242445178      16.0000000000
13796 5      26.0586603381      27.0000000000
13797 5      22.8642210956      17.0000000000
13798 5      24.3683425649      18.0000000000
13799 5      18.6332628370      16.0000000000
13800 5      25.4722122170      19.0000000000
13801 5      24.4954615813      17.0000000000
13802 5      18.8228833473      18.0000000000
13803 5      23.9965510846      17.0000000000
13804 5      21.1537062361      20.0000000000
13805 5      25.6427586439      15.0000000000
13806 5      33.8862117622      19.0000000000
13807 5      24.3138945813      23.0000000000
13808 5      22.9118101649      19.0000000000
13809 5      21.5712482913      19.0000000000
13810 5      26.3044456929      18.0000000000
13811 5      23.6058528455      19.0000000000
13812 5      24.3909666028      23.0000000000
13813 5      18.0378100317      13.0000000000
13814 5      28.2996864045      22.0000000000
13815 5      21.8547797399      16.0000000000
13816 5      21.9404696244      18.0000000000
13817 5      20.1884517733      14.0000000000
13818 5      25.4014850714      20.0000000000
13819 5      21.2737730781      20.0000000000
13820 5      19.4399505506      20.0000000000
13821 5      34.9982906745      19.0000000000
13822 5      22.0376456865      13.0000000000
13823 5      24.4902894894      19.0000000000
13824 5      20.3813298898      20.0000000000
13825 5      25.8609630128      16.0000000000
13826 5      25.3169041526      19.0000000000
13827 5      20.5043598547      20.0000000000
13828 5      21.7214834839      16.0000000000
13829 5      19.6069608263      18.0000000000
13830 5      26.8413505640      22.0000000000
13831 5      23.7217048109      17.0000000000
13832 5      20.4829348424      22.0000000000
13833 5      27.2800090026      22.0000000000
13834 5      26.5519723325      20.0000000000
13835 5      22.1432306239      17.0000000000
13836 5      23.2083694648      17.0000000000
13837 5      21.1611563881      17.0000000000
13838 5      25.6668097017      21.0000000000
13839 5      20.3899221355      20.0000000000
13840 5      21.3238140740      21.0000000000
13841 5      18.7606389001      22.0000000000
13842 5      23.3795556467      23.0000000000
13843 5      30.8746524015      15.0000000000
13844 5      21.7269176447      24.0000000000
13845 5      17.7574068348      15.0000000000
13846 5      20.1315310155      17.0000000000
13847 5      23.7598621351      20.0000000000
13848 5      27.5243386819      19.0000000000
13849 5      21.9252123799      24.0000000000
13850 5      23.6953287246      18.0000000000
13851 5      25.6166228477      19.0000000000
13852 5      19.4962265927      18.0000000000
13853 5      25.9357603699      22.0000000000
13854 5      24.7446877421      18.0000000000
13855 5      21.1758476689      14.0000000000
13856 5      29.5817443729      21.0000000000
13857 5      32.4995180578      20.0000000000
13858 5      21.0493566086      18.0000000000
13859 5      22.1318789008      21.0000000000
13860 5      25.1968003394      17.0000000000
13861 5      20.4290497932      17.0000000000
13862 5      19.9906558956      20.0000000000
13863 5      23.1207071032      20.0000000000
13864 5      30.3740311316      25.0000000000
13865 5      22.1090380247      20.0000000000
13866 5      25.7076251511      16.0000000000
13867 5      22.0720518331      18.0000000000
13868 5      20.2252214682      19.0000000000
13869 5      24.2454779107      18.0000000000
13870 5      21.7465627316      19.0000000000
13871 5      24.5229329342      21.0000000000
13872 5      29.6020108883      22.0000000000
13873 5      22.7028140361      21.0000000000
13874 5      18.7185438208      16.0000000000
13875 5      21.6021955913      18.0000000000
13876 5      19.2046775869      15.0000000000
13877 5      21.8251293032      20.0000000000
13878 5      20.2394303448      14.0000000000
13879 5      24.2400016130      24.0000000000
13880 5      20.7218350914      22.0000000000
13881 5      25.5795319642      25.0000000000
13882 5      21.6326530809      18.0000000000
13883 5      22.3364024604      18.0000000000
13884 5      20.0912891774      21.0000000000
13885 5      16.8006497464      18.0000000000
13886 5      25.1334794961      20.0000000000
13887 5      22.9222354489      19.0000000000
13888 5      23.5561858890      16.0000000000
13889 5      22.8280487431      23.0000000000
13890 5      23.7658818770      26.0000000000
13891 5      20.8729097272      20.0000000000
13892 5      23.8522449154      22.0000000000
13893 5      27.2827700849      21.0000000000
13894 5      22.7297323129      18.0000000000
13895 5      21.7633686726      20.0000000000
13896 5      21.3839196675      17.0000000000
13897 5      23.5216631126      17.0000000000
13898 5      27.5314382773      15.0000000000
13899 5      25.0386661537      18.0000000000
13900 5      25.5311962057      24.0000000000
13901 5      21.1072315961      20.0000000000
13902 5      25.6482925065      22.0000000000
13903 5      20.2581757357      19.0000000000
13904 5      19.0322528082      19.0000000000
13905 5      25.4224013763      19.0000000000
13906 5      26.5874707259      24.0000000000
13907 5      19.2423118469      18.0000000000
13908 5      20.6283546479      19.0000000000
13909 5      19.7548099252      15.0000000000
13910 5      25.6673973014      22.0000000000
13911 5      22.1047777383      18.0000000000
13912 5      22.0513415585      16.0000000000
13913 5      30.0617487358      22.0000000000
13914 5      24.4956254002      17.0000000000
13915 5      22.3378079565      23.0000000000
13916 5      21.9810787957      20.0000000000
13917 5      27.6461824998      19.0000000000
13918 5      29.7967201317      24.0000000000
13919 5      25.5833129943      19.0000000000
13920 5      18.1237337990      12.0000000000
13921 5      21.1624125372      21.0000000000
13922 5      24.9215879191      23.0000000000
13923 5      22.1859986284      24.0000000000
13924 5      24.1900373659      19.0000000000
13925 5      22.5039973302      19.0000000000
13926 5      28.2946355472      25.0000000000
13927 5      24.9728823471      23.0000000000
13928 5      25.9382332641      23.0000000000
13929 5      22.9750918084      22.0000000000
13930 5      23.3725634304      16.0000000000
13931 5      27.7052366399      26.0000000000
13932 5      24.7468041717      20.0000000000
13933 5      20.3325394920      17.0000000000
13934 5      21.9133390267      14.0000000000
13935 5      23.0695415044      21.0000000000
13936 5      17.9811574541      13.0000000000
13937 5      23.9041954507      22.0000000000
13938 5      21.1629124030      15.0000000000
13939 5      33.2429765314      20.0000000000
13940 5      19.8353336563      18.0000000000
13941 5      22.2716364554      20.0000000000
13942 5      20.7395589225      22.0000000000
13943 5      23.6962392581      18.0000000000
13944 5      23.7793995983      22.0000000000
13945 5      22.7740330263      20.0000000000
13946 5      28.2748500255      20.0000000000
13947 5      24.1476077286      21.0000000000
13948 5      23.5190412918      21.0000000000
13949 5      18.8949966044      19.0000000000
13950 5      23.4070005949      18.0000000000
13951 5      25.1801583823      19.0000000000
13952 5      25.1211642206      25.0000000000
13953 5      21.6088308763      22.0000000000
13954 5      26.2044243613      18.0000000000
13955 5      25.8867306478      23.0000000000
13956 5      24.1564336783      21.0000000000
13957 5      26.6396107143      18.0000000000
13958 5      24.9273387652      20.0000000000
13959 5      19.5336166642      17.0000000000
13960 5      22.7562794380      15.0000000000
13961 5      32.6628381922      26.0000000000
13962 5      29.2530972353      26.0000000000
13963 5      18.8214309468      15.0000000000
13964 5      20.6191704546      14.0000000000
13965 5      18.0458589103      20.0000000000
13966 5      18.7071364715      13.0000000000
13967 5      26.7031053410      18.0000000000
13968 5      25.0403021884      24.0000000000
13969 5      20.3903374486      17.0000000000
13970 5      19.0098453343      17.0000000000
13971 5      21.2220510347      17.0000000000
13972 5      23.0842233504      21.0000000000
13973 5      21.1770933714      19.0000000000
13974 5      21.3312151537      21.0000000000
13975 5      20.2707145179      18.0000000000
13976 5      23.4263285774      19.0000000000
13977 5      21.6892458488      18.0000000000
13978 5      25.4202436176      23.0000000000
13979 5      21.3387240268      18.0000000000
13980 5      29.6185110519      26.0000000000
13981 5      22.4322762264      18.0000000000
13982 5      21.6258790701      18.0000000000
13983 5      19.5651763686      17.0000000000
13984 5      24.7212665271      18.0000000000
13985 5      33.4539394367      25.0000000000
13986 5      22.3550051971      21.0000000000
13987 5      22.8518396954      20.0000000000
13988 5      19.4659471354      16.0000000000
13989 5      21.9799849760      19.0000000000
13990 5      22.8233585763      18.0000000000
13991 5      21.5173771953      15.0000000000
13992 5      26.3178618154      24.0000000000
13993 5      20.4200716785      21.0000000000
13994 5      28.4528802816      24.0000000000
13995 5      19.6737982139      15.0000000000
13996 5      25.3329454759      18.0000000000
13997 5      27.4136848852      20.0000000000
13998 5      20.0389118766      23.0000000000
13999 5      26.7355451044      18.0000000000
14000 5      26.4764354133      22.0000000000
14001 5      21.6128414723      21.0000000000
14002 5      22.6644896108      18.0000000000
14003 5      22.3344730081      19.0000000000
14004 5      21.1554061344      17.0000000000
14005 5      18.7269401901      15.0000000000
14006 5      25.7844161422      23.0000000000
14007 5      20.1190374976      18.0000000000
14008 5      22.1255076014      22.0000000000
14009 5      22.7155957308      16.0000000000
14010 5      22.8944213488      15.0000000000
14011 5      25.0814573758      20.0000000000
14012 5      21.9976518714      15.0000000000
14013 5      21.7662478524      17.0000000000
14014 5      18.3955010677      17.0000000000
14015 5      21.1638652531      22.0000000000
14016 5      23.0330254059      21.0000000000
14017 5      21.2952961650      17.0000000000
14018 5      20.1789957306      19.0000000000
14019 5      21.6840244852      17.0000000000
14020 5      25.4684795089      20.0000000000
14021 5      20.4783265065      16.0000000000
14022 5      21.0826274019      19.0000000000
14023 5      23.3439543945      18.0000000000
14024 5      23.3073543143      19.0000000000
14025 5      26.6483102348      21.0000000000
14026 5      21.1459849408      18.0000000000
14027 5      26.8339385900      21.0000000000
14028 5      21.5940786590      15.0000000000
14029 5      27.9680628399      25.0000000000
14030 5      19.3020662090      19.0000000000
14031 5      24.2973163204      21.0000000000
14032 5      22.6295347796      21.0000000000
14033 5      25.0198196598      21.0000000000
14034 5      26.1623178256      20.0000000000
14035 5      21.6412947694      16.0000000000
14036 5      27.7510767336      19.0000000000
14037 5      22.5664663576      15.0000000000
14038 5      23.6701397979      19.0000000000
14039 5      25.6132229729      23.0000000000
14040 5      26.1321861515      21.0000000000
14041 5      21.8695143191      18.0000000000
14042 5      21.3562585508      17.0000000000
14043 5      24.0021182204      18.0000000000
14044 5      23.4852927726      21.0000000000
14045 5      25.6722958503      21.0000000000
14046 5      21.9714637439      20.0000000000
14047 5      18.1150966568      19.0000000000
14048 5      23.2313178504      16.0000000000
14049 5      24.7000830903      21.0000000000
14050 5      22.7823750206      24.0000000000
14051 5      21.8956824916      17.0000000000
14052 5      20.3693798680      21.0000000000
14053 5      23.9722601427      21.0000000000
14054 5      21.2604507739      18.0000000000
14055 5      20.5446195976      19.0000000000
14056 5      24.2850827031      21.0000000000
14057 5      21.4430095621      18.0000000000
14058 5      20.3675957476      20.0000000000
14059 5      19.9951266883      19.0000000000
14060 5      22.5634401846      23.0000000000
14061 5      20.1134557971      13.0000000000
14062 5      26.7709492492      19.0000000000
14063 5      22.0646828716      19.0000000000
14064 5      19.4656477416      20.0000000000
14065 5      22.6845647996      18.0000000000
14066 5      20.0500057553      13.0000000000
14067 5      21.1632249792      18.0000000000
14068 5      21.8806590288      21.0000000000
14069 5      26.5859930067      24.0000000000
14070 5      24.2401185079      18.0000000000
14071 5      22.3286579426      20.0000000000
14072 5      26.5395529974      24.0000000000
14073 5      21.6831375890      20.0000000000
14074 5      23.2489790371      20.0000000000
14075 5      23.2064010278      21.0000000000
14076 5      22.8024487135      21.0000000000
14077 5      27.5504339387      24.0000000000
14078 5      22.1239011589      19.0000000000
14079 5      23.7116003488      17.0000000000
14080 5      20.0634523696      15.0000000000
14081 5      21.1080094573      21.0000000000
14082 5      23.7598350018      18.0000000000
14083 5      20.6239955175      19.0000000000
14084 5      25.3522347620      20.0000000000
14085 5      24.9944653548      20.0000000000
14086 5      21.3300436082      20.0000000000
14087 5      17.8320751737      14.0000000000
14088 5      22.7324084925      19.0000000000
14089 5      22.1796413704      21.0000000000
14090 5      20.7255977032      17.0000000000
14091 5      23.0108735709      21.0000000000
14092 5      20.9259067859      19.0000000000
14093 5      21.4782236999      20.0000000000
14094 5      21.0289218210      21.0000000000
14095 5      24.8214538544      20.0000000000
14096 5      21.6664224735      17.0000000000
14097 5      21.5775009806      22.0000000000
14098 5      19.8976760484      17.0000000000
14099 5      29.2484565456      21.0000000000
14100 5      21.1910564076      16.0000000000
14101 5      27.8180675743      19.0000000000
14102 5      20.8550619943      16.0000000000
14103 5      22.4814394920      16.0000000000
14104 5      26.8076291670      20.0000000000
14105 5      20.6843564392      17.0000000000
14106 5      19.1252377358      15.0000000000
14107 5      21.2348462450      20.0000000000
14108 5      25.7064389759      19.0000000000
14109 5      19.8363992886      23.0000000000
14110 5      22.0076092196      19.0000000000
14111 5      19.0591486262      17.0000000000
14112 5      25.6398012669      20.0000000000
14113 5      23.4291720829      17.0000000000
14114 5      31.9175774908      21.0000000000
14115 5      21.5149507943      17.0000000000
14116 5      24.1150200411      17.0000000000
14117 5      19.1744836084      16.0000000000
14118 5      18.6465147325      15.0000000000
14119 5      24.8974491983      23.0000000000
14120 5      25.9424530914      22.0000000000
14121 5      21.7708982986      16.0000000000
14122 5      22.1525913566      20.0000000000
14123 5      26.6680805405      22.0000000000
14124 5      27.9622260705      25.0000000000
14125 5      24.3420392322      19.0000000000
14126 5      23.1925167320      21.0000000000
14127 5      21.7610078644      18.0000000000
14128 5      18.9047136351      15.0000000000
14129 5      24.6319859386      19.0000000000
14130 5      22.1691025330      22.0000000000
14131 5      19.4499400687      17.0000000000
14132 5      23.4713660969      21.0000000000
14133 5      23.6618211836      19.0000000000
14134 5      23.2474886460      15.0000000000
14135 5      22.0041746287      20.0000000000
14136 5      23.2386774627      21.0000000000
14137 5      24.0117158129      23.0000000000
14138 5      27.8437074333      27.0000000000
14139 5      19.0969607010      21.0000000000
14140 5      21.4715105202      20.0000000000
14141 5      22.8337913695      17.0000000000
14142 5      25.1103110205      22.0000000000
14143 5      20.2112415795      12.0000000000
14144 5      21.1331753948      16.0000000000
14145 5      25.8040460841      20.0000000000
14146 5      24.3018502313      21.0000000000
14147 5      20.7404348265      16.0000000000
14148 5      33.4866362110      20.0000000000
14149 5      23.9257730014      20.0000000000
14150 5      21.8315408886      16.0000000000
14151 5      21.1232317370      17.0000000000
14152 5      20.6538921231      21.0000000000
14153 5      24.7276082202      23.0000000000
14154 5      22.6491160426      17.0000000000
14155 5      20.1221542179      19.0000000000
14156 5      24.1416946030      22.0000000000
14157 5      23.1821624125      22.0000000000
14158 5      23.2783431744      16.0000000000
14159 5      20.5109599520      19.0000000000
14160 5      20.7214038009      18.0000000000
14161 5      21.8509329351      13.0000000000
14162 5      24.6781921842      21.0000000000
14163 5      22.7886708370      19.0000000000
14164 5      24.7905938664      23.0000000000
14165 5      25.7670171579      20.0000000000
14166 5      21.4454574241      17.0000000000
14167 5      31.2215233518      19.0000000000
14168 5      29.6761069095      21.0000000000
14169 5      22.4148390806      19.0000000000
14170 5      22.0656990672      20.0000000000
14171 5      17.9995790368      15.0000000000
14172 5      23.2129723505      15.0000000000
14173 5      26.0008081751      23.0000000000
14174 5      23.8720502857      19.0000000000
14175 5      21.7443511881      21.0000000000
14176 5      25.0370219271      16.0000000000
14177 5      29.8441581888      26.0000000000
14178 5      23.8581112338      22.0000000000
14179 5      18.4822347391      19.0000000000
14180 5      25.3593697245      15.0000000000
14181 5      33.8569649339      25.0000000000
14182 5      22.8248055854      22.0000000000
14183 5      24.4814629843      19.0000000000
14184 5      20.5471771468      22.0000000000
14185 5      19.8079597233      18.0000000000
14186 5      24.0866626177      23.0000000000
14187 5      20.4214341427      15.0000000000
14188 5      27.2396122369      24.0000000000
14189 5      25.2822556131      19.0000000000
14190 5      22.9688666507      21.0000000000
14191 5      21.9445079772      21.0000000000
14192 5      23.9842733897      22.0000000000
14193 5      23.7629820567      21.0000000000
14194 5      21.3715548409      20.0000000000
14195 5      20.8956896858      22.0000000000
14196 5      20.6613801476      21.0000000000
14197 5      28.8702085176      24.0000000000
14198 5      33.7939212057      24.0000000000
14199 5      23.7455557058      21.0000000000
14200 5      19.9980301051      16.0000000000
14201 5      32.5665195289      18.0000000000
14202 5      21.7547822448      19.0000000000
14203 5      33.8803758980      21.0000000000
14204 5      20.1193894539      22.0000000000
14205 5      26.3924657306      19.0000000000
14206 5      22.9926207331      16.0000000000
14207 5      27.0200420912      23.0000000000
14208 5      19.1834609046      16.0000000000
14209 5      20.1178606212      20.0000000000
14210 5      20.5283104992      15.0000000000
14211 5      24.4231662601      17.0000000000
14212 5      24.5871381829      19.0000000000
14213 5      24.9602928192      23.0000000000
14214 5      20.5721399422      15.0000000000
14215 5      17.8313261014      19.0000000000
14216 5      19.7434053372      13.0000000000
14217 5      25.4159001846      17.0000000000
14218 5      19.5422402236      17.0000000000
14219 5      21.4031180831      18.0000000000
14220 5      22.4319094784      21.0000000000
14221 5      28.7434939769      23.0000000000
14222 5      24.0575343015      19.0000000000
14223 5      24.2533002503      24.0000000000
14224 5      23.5471510389      22.0000000000
14225 5      24.9488015811      21.0000000000
14226 5      19.7901340872      18.0000000000
14227 5      24.1127799965      21.0000000000
14228 5      25.1053709820      21.0000000000
14229 5      19.6785251359      18.0000000000
14230 5      23.1887896182      17.0000000000
14231 5      21.0930718500      18.0000000000
14232 5      23.3268809089      19.0000000000
14233 5      23.4091491645      19.0000000000
14234 5      20.8079951887      19.0000000000
14235 5      20.6986416222      15.0000000000
14236 5      24.4965925288      20.0000000000
14237 5      26.9695300276      24.0000000000
14238 5      19.6023118949      17.0000000000
14239 5      19.8437594236      19.0000000000
14240 5      21.6855817775      18.0000000000
14241 5      21.5066688082      21.0000000000
14242 5      22.6452897640      17.0000000000
14243 5      23.5590383059      19.0000000000
14244 5      30.3005862871      20.0000000000
14245 5      21.8167821893      19.0000000000
14246 5      18.5280502783      16.0000000000
14247 5      27.2235843320      19.0000000000
14248 5      23.3986985305      22.0000000000
14249 5      28.1520996316      22.0000000000
14250 5      34.5180723894      18.0000000000
14251 5      20.3493639552      19.0000000000
14252 5      22.8271724455      21.0000000000
14253 5      23.0522523597      17.0000000000
14254 5      28.1570733686      21.0000000000
14255 5      23.4754554980      19.0000000000
14256 5      20.3722543836      16.0000000000
14257 5      23.2614595398      19.0000000000
14258 5      20.1145612208      18.0000000000
14259 5      19.0789712401      20.0000000000
14260 5      30.1689235399      19.0000000000
14261 5      23.6276100638      16.0000000000
14262 5      25.8660475395      20.0000000000
14263 5      20.7627520897      17.0000000000
14264 5      23.0639019577      14.0000000000
14265 5      21.0524572345      19.0000000000
14266 5      18.2369744634      23.0000000000
14267 5      30.4321643695      18.0000000000
14268 5      21.1831751915      20.0000000000
14269 5      24.5440557916      22.0000000000
14270 5      24.7741175764      16.0000000000
14271 5      19.1524812234      18.0000000000
14272 5      31.0001016653      22.0000000000
14273 5      20.4206306667      15.0000000000
14274 5      24.4901469035      18.0000000000
14275 5      23.7756742048      18.0000000000
14276 5      29.4505136965      21.0000000000
14277 5      23.3018037193      19.0000000000
14278 5      22.2174156823      22.0000000000
14279 5      21.6240759340      18.0000000000
14280 5      20.4436723565      18.0000000000
14281 5      29.6756829722      21.0000000000
14282 5      22.3316469850      17.0000000000
14283 5      20.0810907645      16.0000000000
14284 5      25.0043999503      23.0000000000
14285 5      23.8885035720      17.0000000000
14286 5      20.1991378308      20.0000000000
14287 5      20.9539141803      17.0000000000
14288 5      21.4550983345      15.0000000000
14289 5      20.6353669965      20.0000000000
14290 5      21.8457454364      17.0000000000
14291 5      22.9436688973      20.0000000000
14292 5      23.5645857503      24.0000000000
14293 5      20.4411594287      19.0000000000
14294 5      22.2128723862      21.0000000000
14295 5      20.2917089907      18.0000000000
14296 5      22.0011531003      21.0000000000
14297 5      26.8299438957      20.0000000000
14298 5      27.8647406976      25.0000000000
14299 5      26.7619001661      21.0000000000
14300 5      18.5711920690      17.0000000000
14301 5      21.9510422900      22.0000000000
14302 5      27.8976087567      19.0000000000
14303 5      24.9233119411      14.0000000000
14304 5      24.7490781736      22.0000000000
14305 5      19.2660577361      19.0000000000
14306 5      24.8565332565      20.0000000000
14307 5      21.3735889726      17.0000000000
14308 5      19.8938155192      15.0000000000
14309 5      29.1453823940      27.0000000000
14310 5      21.8364336415      18.0000000000
14311 5      25.6890402306      22.0000000000
14312 5      18.2493141529      19.0000000000
14313 5      19.6981140546      16.0000000000
14314 5      32.1719676433      22.0000000000
14315 5      19.1231097159      20.0000000000
14316 5      26.1693049012      21.0000000000
14317 5      24.5954189857      15.0000000000
14318 5      21.3655099178      23.0000000000
14319 5      19.4161601050      15.0000000000
14320 5      23.0886145654      17.0000000000
14321 5      26.4368367367      20.0000000000
14322 5      28.0111200273      22.0000000000
14323 5      29.6460908942      24.0000000000
14324 5      23.7924264605      19.0000000000
14325 5      19.0703511947      17.0000000000
14326 5      19.2917818850      16.0000000000
14327 5      19.2023430785      18.0000000000
14328 5      24.6586348714      20.0000000000
14329 5      27.2794405510      20.0000000000
14330 5      18.5738587467      17.0000000000
14331 5      22.6229383474      21.0000000000
14332 5      23.9106605433      25.0000000000
14333 5      20.2399693049      21.0000000000
14334 5      20.3666337199      14.0000000000
14335 5      24.6174622482      21.0000000000
14336 5      22.2626959889      22.0000000000
14337 5      18.9325044876      19.0000000000
14338 5      20.0917510763      19.0000000000
14339 5      21.6109086008      18.0000000000
14340 5      24.5833168472      17.0000000000
14341 5      23.6505135587      18.0000000000
14342 5      23.9956366390      17.0000000000
14343 5      23.4691449546      25.0000000000
14344 5      18.8470975451      20.0000000000
14345 5      20.6561925007      19.0000000000
14346 5      27.0872982000      25.0000000000
14347 5      19.2964586616      20.0000000000
14348 5      31.1496427838      17.0000000000
14349 5      20.4334985653      18.0000000000
14350 5      23.6452996940      21.0000000000
14351 5      27.3468766542      26.0000000000
14352 5      18.1657620463      16.0000000000
14353 5      22.5283146627      16.0000000000
14354 5      21.8244277964      16.0000000000
14355 5      22.2626654569      19.0000000000
14356 5      26.3658583742      18.0000000000
14357 5      23.1010340059      19.0000000000
14358 5      25.3174948283      18.0000000000
14359 5      24.0705546383      22.0000000000
14360 5      23.1289172065      13.0000000000
14361 5      21.0721148356      22.0000000000
14362 5      23.6376012446      22.0000000000
14363 5      17.8069390570      17.0000000000
14364 5      22.0609984090      17.0000000000
14365 5      26.0093227313      19.0000000000
14366 5      28.3972492751      21.0000000000
14367 5      19.0987197778      17.0000000000
14368 5      21.8876009683      21.0000000000
14369 5      22.7576179909      24.0000000000
14370 5      23.2969374221      17.0000000000
14371 5      21.4259880602      21.0000000000
14372 5      24.0625686253      25.0000000000
14373 5      19.2258963752      18.0000000000
14374 5      22.2483310579      17.0000000000
14375 5      25.8884190825      18.0000000000
14376 5      24.4448880212      23.0000000000
14377 5      27.2431874372      24.0000000000
14378 5      22.9550856191      25.0000000000
14379 5      31.0405789901      25.0000000000
14380 5      22.2308833818      22.0000000000
14381 5      23.1764206146      21.0000000000
14382 5      19.9384994425      18.0000000000
14383 5      19.2834036010      14.0000000000
14384 5      21.6617671148      19.0000000000
14385 5      28.7915548705      22.0000000000
14386 5      20.2008989180      18.0000000000
14387 5      24.3044031860      24.0000000000
14388 5      18.3790036042      19.0000000000
14389 5      21.8062839489      21.0000000000
14390 5      26.7727546912      23.0000000000
14391 5      21.9535902065      20.0000000000
14392 5      28.9556037355      25.0000000000
14393 5      22.9571774038      20.0000000000
14394 5      27.3505493589      20.0000000000
14395 5      19.8861210998      12.0000000000
14396 5      19.2682441897      14.0000000000
14397 5      26.9182787809      23.0000000000
14398 5      24.0957210669      23.0000000000
14399 5      17.6096015253      16.0000000000
14400 5      24.9040085394      20.0000000000
14401 5      25.0519007844      23.0000000000
14402 5      24.1922166220      23.0000000000
14403 5      23.0717156544      18.0000000000
14404 5      23.8968612177      21.0000000000
14405 5      23.1469795935      23.0000000000
14406 5      21.8156387955      14.0000000000
14407 5      18.4090282075      19.0000000000
14408 5      26.9761994058      20.0000000000
14409 5      22.6621977882      16.0000000000
14410 5      28.1462637002      22.0000000000
14411 5      21.2288599275      19.0000000000
14412 5      20.6512858892      14.0000000000
14413 5      18.7226965213      14.0000000000
14414 5      24.1799756830      15.0000000000
14415 5      22.7535953705      20.0000000000
14416 5      19.6310314528      15.0000000000
14417 5      21.5198238882      20.0000000000
14418 5      22.2870304624      16.0000000000
14419 5      25.2228605638      22.0000000000
14420 5      21.6473792120      19.0000000000
14421 5      21.9282994883      19.0000000000
14422 5      24.4239801599      19.0000000000
14423 5      20.9714314074      17.0000000000
14424 5      20.9942312563      18.0000000000
14425 5      21.2293537522      18.0000000000
14426 5      18.9357853030      13.0000000000
14427 5      27.6223451511      21.0000000000
14428 5      24.3943429079      19.0000000000
14429 5      18.1005594610      16.0000000000
14430 5      23.6784466324      20.0000000000
14431 5      22.9573727800      21.0000000000
14432 5      22.2951620581      21.0000000000
14433 5      24.0483847674      18.0000000000
14434 5      22.3838159856      18.0000000000
14435 5      26.1763704177      22.0000000000
14436 5      21.0548319393      17.0000000000
14437 5      21.9968174809      17.0000000000
14438 5      22.9458325935      25.0000000000
14439 5      20.4552133591      22.0000000000
14440 5      21.5216951836      20.0000000000
14441 5      25.0982603729      18.0000000000
14442 5      22.6803489331      20.0000000000
14443 5      20.5392485688      18.0000000000
14444 5      23.8863867470      22.0000000000
14445 5      24.2152265110      23.0000000000
14446 5      20.9786207090      23.0000000000
14447 5      27.7796547350      21.0000000000
14448 5      22.0079744806      18.0000000000
14449 5      28.2166225707      21.0000000000
14450 5      22.9347751453      20.0000000000
14451 5      23.9773330222      16.0000000000
14452 5      21.4380691222      16.0000000000
14453 5      25.7525995590      14.0000000000
14454 5      20.2888591945      14.0000000000
14455 5      21.9899248960      16.0000000000
14456 5      18.5716617057      21.0000000000
14457 5      22.1234253963      18.0000000000
14458 5      24.5750256976      19.0000000000
14459 5      29.1655436441      21.0000000000
14460 5      24.1412488541      20.0000000000
14461 5      23.1404878744      20.0000000000
14462 5      21.0655659752      18.0000000000
14463 5      31.2156552276      23.0000000000
14464 5      23.4067449058      19.0000000000
14465 5      27.4753976608      24.0000000000
14466 5      21.9233474090      23.0000000000
14467 5      32.8002210916      19.0000000000
14468 5      22.3586930159      19.0000000000
14469 5      24.2871087478      16.0000000000
14470 5      22.5915989833      18.0000000000
14471 5      26.8718128501      21.0000000000
14472 5      28.5469579235      33.0000000000
14473 5      18.5072399261      16.0000000000
14474 5      26.4380401067      19.0000000000
14475 5      27.1133260824      20.0000000000
14476 5      22.7038757926      18.0000000000
14477 5      25.9244421955      19.0000000000
14478 5      21.3439840152      18.0000000000
14479 5      19.5956308909      18.0000000000
14480 5      22.9291055814      21.0000000000
14481 5      24.1380471840      25.0000000000
14482 5      20.4352625712      18.0000000000
14483 5      18.9906607691      21.0000000000
14484 5      20.6248605208      19.0000000000
14485 5      27.2769881014      20.0000000000
14486 5      24.9879684119      20.0000000000
14487 5      23.6351855250      22.0000000000
14488 5      20.6783395565      19.0000000000
14489 5      27.8605458047      24.0000000000
14490 5      25.7620044084      20.0000000000
14491 5      21.4543899668      16.0000000000
14492 5      19.9371166069      14.0000000000
14493 5      22.2839996838      16.0000000000
14494 5      19.6573191722      22.0000000000
14495 5      17.1191420222      15.0000000000
14496 5      22.4282140090      15.0000000000
14497 5      19.0162875135      18.0000000000
14498 5      26.2665599989      21.0000000000
14499 5      22.6793852254      20.0000000000
14500 5      24.5397622703      19.0000000000
14501 5      27.2242216453      18.0000000000
14502 5      25.2250337748      23.0000000000
14503 5      19.5596965213      19.0000000000
14504 5      25.4607307818      22.0000000000
14505 5      21.6630467825      17.0000000000
14506 5      21.0492471879      20.0000000000
14507 5      19.4205808047      19.0000000000
14508 5      24.5115731426      20.0000000000
14509 5      20.2180085768      21.0000000000
14510 5      22.3055928510      17.0000000000
14511 5      21.8471077616      19.0000000000
14512 5      23.8890925906      15.0000000000
14513 5      20.0903469590      20.0000000000
14514 5      32.4530935649      16.0000000000
14515 5      23.7421264093      18.0000000000
14516 5      19.2596629124      19.0000000000
14517 5      21.9536051973      24.0000000000
14518 5      21.9530306631      23.0000000000
14519 5      22.5475506323      16.0000000000
14520 5      23.3146305064      18.0000000000
14521 5      22.7905427282      17.0000000000
14522 5      23.9086464405      20.0000000000
14523 5      23.6440072044      24.0000000000
14524 5      22.3816876742      20.0000000000
14525 5      22.6544019651      24.0000000000
14526 5      22.2327726111      21.0000000000
14527 5      23.5382882563      21.0000000000
14528 5      24.7556108160      16.0000000000
14529 5      19.1109272474      14.0000000000
14530 5      26.2113649079      24.0000000000
14531 5      21.8390470139      16.0000000000
14532 5      20.4926429031      21.0000000000
14533 5      17.6837910358      21.0000000000
14534 5      23.3651907452      20.0000000000
14535 5      22.4899678261      20.0000000000
14536 5      23.5124300493      18.0000000000
14537 5      23.9111732311      19.0000000000
14538 5      29.3880976797      20.0000000000
14539 5      24.3032331449      21.0000000000
14540 5      22.9892775288      19.0000000000
14541 5      18.6510939453      16.0000000000
14542 5      24.2051679496      18.0000000000
14543 5      24.9912251273      20.0000000000
14544 5      25.3902387585      28.0000000000
14545 5      23.9339431253      16.0000000000
14546 5      19.0495661046      19.0000000000
14547 5      21.3042808512      21.0000000000
14548 5      22.1410819514      20.0000000000
14549 5      20.0634438102      18.0000000000
14550 5      20.3626232364      21.0000000000
14551 5      23.0856832925      19.0000000000
14552 5      20.3659876013      16.0000000000
14553 5      29.6639804224      19.0000000000
14554 5      19.8178082202      20.0000000000
14555 5      20.2480464528      24.0000000000
14556 5      22.2423934093      22.0000000000
14557 5      21.8857833542      16.0000000000
14558 5      23.2059471135      18.0000000000
14559 5      20.9561883371      15.0000000000
14560 5      21.2663011549      18.0000000000
14561 5      20.7292709148      17.0000000000
14562 5      24.8548261456      22.0000000000
14563 5      25.7512932193      24.0000000000
14564 5      19.1708105266      20.0000000000
14565 5      28.0760456230      23.0000000000
14566 5      24.4024113092      21.0000000000
14567 5      21.9276847222      16.0000000000
14568 5      21.3240124025      20.0000000000
14569 5      23.3880657949      18.0000000000
14570 5      28.1773566276      20.0000000000
14571 5      25.1739535440      19.0000000000
14572 5      40.4816822472      21.0000000000
14573 5      17.4136255264      17.0000000000
14574 5      24.5028696085      18.0000000000
14575 5      24.5440542243      22.0000000000
14576 5      19.5082421855      21.0000000000
14577 5      27.3095715156      27.0000000000
14578 5      22.2138824020      23.0000000000
14579 5      27.8608486884      20.0000000000
14580 5      20.9873854743      19.0000000000
14581 5      23.9548257152      22.0000000000
14582 5      20.0103686228      15.0000000000
14583 5      17.8826804387      18.0000000000
14584 5      21.7366183749      20.0000000000
14585 5      27.0397723923      20.0000000000
14586 5      18.7257149211      15.0000000000
14587 5      24.0425283023      20.0000000000
14588 5      24.5081935805      20.0000000000
14589 5      25.9705428365      20.0000000000
14590 5      24.1312124487      20.0000000000
14591 5      23.5316785446      21.0000000000
14592 5      19.1450854407      17.0000000000
14593 5      24.9666828100      24.0000000000
14594 5      25.2834251624      19.0000000000
14595 5      22.5802118144      17.0000000000
14596 5      26.9491106502      21.0000000000
14597 5      26.1618524757      20.0000000000
14598 5      24.1421544360      24.0000000000
14599 5      23.6894507101      21.0000000000
14600 5      23.0627050938      20.0000000000
14601 5      22.8858001149      22.0000000000
14602 5      27.4713865597      21.0000000000
14603 5      26.7105605094      19.0000000000
14604 5      24.4733588746      19.0000000000
14605 5      23.6140596810      18.0000000000
14606 5      22.2424810416      20.0000000000
14607 5      22.5964134825      17.0000000000
14608 5      23.7941272111      19.0000000000
14609 5      22.5884802069      21.0000000000
14610 5      25.1972024586      20.0000000000
14611 5      21.2916111507      16.0000000000
14612 5      26.5246596371      20.0000000000
14613 5      23.5702084091      20.0000000000
14614 5      27.9638804525      19.0000000000
14615 5      24.9193814201      25.0000000000
14616 5      21.5858158733      21.0000000000
14617 5      22.8544091413      20.0000000000
14618 5      27.1731660620      20.0000000000
14619 5      25.7938365522      24.0000000000
14620 5      21.1037900611      17.0000000000
14621 5      25.5332864086      20.0000000000
14622 5      22.0051872807      18.0000000000
14623 5      22.8735026230      19.0000000000
14624 5      25.8208031617      20.0000000000
14625 5      21.0548074814      17.0000000000
14626 5      23.9642252688      19.0000000000
14627 5      24.1388415303      21.0000000000
14628 5      23.2190676303      17.0000000000
14629 5      23.7790573942      24.0000000000
14630 5      24.9925760961      18.0000000000
14631 5      24.9678556305      26.0000000000
14632 5      24.8498148510      18.0000000000
14633 5      21.9184126307      16.0000000000
14634 5      18.6611281707      16.0000000000
14635 5      19.2338108332      17.0000000000
14636 5      23.2054637930      23.0000000000
14637 5      21.9335383539      20.0000000000
14638 5      25.7834087130      22.0000000000
14639 5      24.8155356925      25.0000000000
14640 5      22.7281785003      20.0000000000
14641 5      23.4440064896      17.0000000000
14642 5      23.4239059244      23.0000000000
14643 5      24.5690809788      19.0000000000
14644 5      20.6522624815      16.0000000000
14645 5      35.7002295548      19.0000000000
14646 5      27.3149921070      22.0000000000
14647 5      27.0377257396      18.0000000000
14648 5      19.5469886300      17.0000000000
14649 5      21.7981880369      18.0000000000
14650 5      20.2746897774      16.0000000000
14651 5      24.8995555455      19.0000000000
14652 5      19.9109459949      20.0000000000
14653 5      21.8081881586      18.0000000000
14654 5      23.3498861617      17.0000000000
14655 5      24.4850814690      20.0000000000
14656 5      22.6997659943      20.0000000000
14657 5      20.0837430014      18.0000000000
14658 5      22.9123033124      23.0000000000
14659 5      21.9082472872      18.0000000000
14660 5      26.7524235785      21.0000000000
14661 5      26.5600834437      21.0000000000
14662 5      21.7366987590      20.0000000000
14663 5      23.8157435565      22.0000000000
14664 5      21.9322952065      17.0000000000
14665 5      23.7225626993      21.0000000000
14666 5      22.2237484790      20.0000000000
14667 5      25.7863973922      16.0000000000
14668 5      21.7536232778      17.0000000000
14669 5      22.3273704515      22.0000000000
14670 5      19.6617461558      18.0000000000
14671 5      18.7299574144      16.0000000000
14672 5      21.5333226308      17.0000000000
14673 5      25.3929926361      22.0000000000
14674 5      26.9550808130      24.0000000000
14675 5      24.1656917482      23.0000000000
14676 5      24.9117289394      19.0000000000
14677 5      24.8812028639      21.0000000000
14678 5      18.9788703898      20.0000000000
14679 5      22.1074153177      17.0000000000
14680 5      25.9563840364      18.0000000000
14681 5      23.0452192723      23.0000000000
14682 5      21.4303155038      21.0000000000
14683 5      22.5453039072      22.0000000000
14684 5      17.6716139607      16.0000000000
14685 5      21.1747686307      24.0000000000
14686 5      29.3681294475      18.0000000000
14687 5      23.0016776931      17.0000000000
14688 5      25.6982843156      19.0000000000
14689 5      23.0910964028      20.0000000000
14690 5      20.3363395178      21.0000000000
14691 5      23.3016757652      23.0000000000
14692 5      17.5507217294      14.0000000000
14693 5      19.2962026831      20.0000000000
14694 5      24.1538276904      19.0000000000
14695 5      21.8134381013      23.0000000000
14696 5      26.0703950472      26.0000000000
14697 5      20.4372463444      17.0000000000
14698 5      19.7405349713      16.0000000000
14699 5      19.5649614319      16.0000000000
14700 5      22.6461186698      16.0000000000
14701 5      20.2044949760      17.0000000000
14702 5      19.7633883306      21.0000000000
14703 5      21.5877923871      17.0000000000
14704 5      24.7628028203      17.0000000000
14705 5      21.8416496198      16.0000000000
14706 5      21.2917713722      18.0000000000
14707 5      21.6949098979      18.0000000000
14708 5      23.5480923066      21.0000000000
14709 5      19.8952660395      15.0000000000
14710 5      27.7168929984      24.0000000000
14711 5      19.8737310224      20.0000000000
14712 5      22.9395822331      18.0000000000
14713 5      22.7107424643      17.0000000000
14714 5      21.0605750188      19.0000000000
14715 5      23.5129430809      17.0000000000
14716 5      23.1266435150      20.0000000000
14717 5      31.8353073026      23.0000000000
14718 5      27.6181133583      18.0000000000
14719 5      19.9050765449      17.0000000000
14720 5      22.2370744726      17.0000000000
14721 5      20.2614781081      16.0000000000
14722 5      26.1920656475      21.0000000000
14723 5      25.9686480945      20.0000000000
14724 5      20.4154421276      21.0000000000
14725 5      18.6869786541      15.0000000000
14726 5      18.9253628491      17.0000000000
14727 5      22.1118772474      18.0000000000
14728 5      18.0327002114      17.0000000000
14729 5      21.4548086547      21.0000000000
14730 5      20.5600914906      23.0000000000
14731 5      19.6420081274      19.0000000000
14732 5      23.4802589775      19.0000000000
14733 5      22.3089301375      21.0000000000
14734 5      20.7469603190      15.0000000000
14735 5      21.5883697117      18.0000000000
14736 5      21.8910488028      19.0000000000
14737 5      27.0059745604      19.0000000000
14738 5      22.4086567646      19.0000000000
14739 5      21.7266356351      20.0000000000
14740 5      25.8471190264      20.0000000000
14741 5      30.4028126848      19.0000000000
14742 5      19.9475819016      21.0000000000
14743 5      22.1307435094      21.0000000000
14744 5      24.2834351433      23.0000000000
14745 5      23.7183716907      17.0000000000
14746 5      21.2264449372      21.0000000000
14747 5      23.3560498111      20.0000000000
14748 5      25.2837345280      20.0000000000
14749 5      21.0805561416      21.0000000000
14750 5      21.4012656499      19.0000000000
14751 5      20.9130563392      16.0000000000
14752 5      23.1371723022      20.0000000000
14753 5      30.9356163975      19.0000000000
14754 5      22.7565088752      14.0000000000
14755 5      26.3973560079      24.0000000000
14756 5      25.5739640863      19.0000000000
14757 5      19.4704234930      12.0000000000
14758 5      27.3904597472      25.0000000000
14759 5      20.2329596146      24.0000000000
14760 5      21.7827343758      17.0000000000
14761 5      25.1135761855      21.0000000000
14762 5      23.0444039298      21.0000000000
14763 5      20.9475113112      21.0000000000
14764 5      19.9674015057      19.0000000000
14765 5      17.3646853800      16.0000000000
14766 5      19.4638384403      19.0000000000
14767 5      17.8188296165      18.0000000000
14768 5      21.2296291704      22.0000000000
14769 5      25.2761701855      23.0000000000
14770 5      25.6672291091      18.0000000000
14771 5      29.2777758343      18.0000000000
14772 5      23.7343439327      21.0000000000
14773 5      20.5531196759      18.0000000000
14774 5      26.7148444058      23.0000000000
14775 5      22.2207578158      20.0000000000
14776 5      20.0888873043      18.0000000000
14777 5      30.5851497779      21.0000000000
14778 5      26.8429201590      18.0000000000
14779 5      22.3715861458      20.0000000000
14780 5      26.8051775310      25.0000000000
14781 5      22.4312087122      21.0000000000
14782 5      21.2309947042      19.0000000000
14783 5      21.9735933879      20.0000000000
14784 5      30.9724674502      21.0000000000
14785 5      27.4070784536      21.0000000000
14786 5      27.5277382196      20.0000000000
14787 5      20.2622934316      22.0000000000
14788 5      21.8694043619      18.0000000000
14789 5      22.1722254832      18.0000000000
14790 5      24.2661090036      17.0000000000
14791 5      18.1686018258      13.0000000000
14792 5      23.2225490496      19.0000000000
14793 5      18.9846406362      20.0000000000
14794 5      23.1045892400      19.0000000000
14795 5      20.0940567256      20.0000000000
14796 5      22.0673639933      24.0000000000
14797 5      18.8133298904      20.0000000000
14798 5      22.7675097608      24.0000000000
14799 5      27.9547019210      19.0000000000
14800 5      18.0325934049      14.0000000000
14801 5      19.5777946198      19.0000000000
14802 5      28.6855041858      24.0000000000
14803 5      24.0289954460      22.0000000000
14804 5      23.1379323215      18.0000000000
14805 5      26.0431956206      18.0000000000
14806 5      25.3778273589      22.0000000000
14807 5      20.8880259135      19.0000000000
14808 5      25.0077662080      21.0000000000
14809 5      23.4756901569      19.0000000000
14810 5      18.1617384624      17.0000000000
14811 5      30.3002308791      19.0000000000
14812 5      23.7925626742      19.0000000000
14813 5      19.9355355036      17.0000000000
14814 5      28.1015547603      22.0000000000
14815 5      22.9591029432      20.0000000000
14816 5      21.6912589299      22.0000000000
14817 5      21.1723667571      18.0000000000
14818 5      22.4252301948      19.0000000000
14819 5      22.3802930268      23.0000000000
14820 5      24.1573246256      20.0000000000
14821 5      21.4674156944      19.0000000000
14822 5      21.6882625571      17.0000000000
14823 5      24.0141482696      20.0000000000
14824 5      27.8597778340      25.0000000000
14825 5      18.9866332665      18.0000000000
14826 5      21.1055919536      17.0000000000
14827 5      32.5536029511      22.0000000000
14828 5      21.2528942050      20.0000000000
14829 5      23.4805019201      23.0000000000
14830 5      21.1534400753      17.0000000000
14831 5      28.6837864589      19.0000000000
14832 5      21.2491910345      18.0000000000
14833 5      33.3194003426      21.0000000000
14834 5      21.7830445756      21.0000000000
14835 5      24.4669689547      22.0000000000
14836 5      16.6864576641      17.0000000000
14837 5      20.8161313963      18.0000000000
14838 5      26.7067857984      21.0000000000
14839 5      20.2694129965      19.0000000000
14840 5      23.8115507981      16.0000000000
14841 5      23.8986194436      20.0000000000
14842 5      18.4847844582      20.0000000000
14843 5      25.9338414630      21.0000000000
14844 5      28.3621435911      23.0000000000
14845 5      21.5073434052      22.0000000000
14846 5      18.8978377641      20.0000000000
14847 5      21.6389253021      13.0000000000
14848 5      20.2745108846      18.0000000000
14849 5      23.3177782612      20.0000000000
14850 5      22.3277371760      21.0000000000
14851 5      20.0904579219      15.0000000000
14852 5      27.8947038110      26.0000000000
14853 5      20.1310561591      16.0000000000
14854 5      22.3607322314      18.0000000000
14855 5      20.8729886085      17.0000000000
14856 5      26.0577022851      18.0000000000
14857 5      22.2838069728      20.0000000000
14858 5      23.6556448464      17.0000000000
14859 5      20.0331203291      22.0000000000
14860 5      20.6611464134      17.0000000000
14861 5      19.6121082143      14.0000000000
14862 5      23.9381795173      23.0000000000
14863 5      19.2388580707      17.0000000000
14864 5      23.0161709446      16.0000000000
14865 5      24.0544706434      18.0000000000
14866 5      23.2013560993      20.0000000000
14867 5      22.7850354797      26.0000000000
14868 5      20.9731248274      18.0000000000
14869 5      22.1641221870      17.0000000000
14870 5      22.3995622758      20.0000000000
14871 5      23.6069635071      17.0000000000
14872 5      26.1029164966      22.0000000000
14873 5      25.2266403432      17.0000000000
14874 5      20.4110313218      16.0000000000
14875 5      22.4315413015      17.0000000000
14876 5      23.8508327875      18.0000000000
14877 5      23.8265455443      18.0000000000
14878 5      21.8680828860      21.0000000000
14879 5      22.1447684169      18.0000000000
14880 5      19.9807624872      20.0000000000
14881 5      19.5406598142      20.0000000000
14882 5      26.0926107627      24.0000000000
14883 5      22.2215641667      18.0000000000
14884 5      21.5171888200      16.0000000000
14885 5      22.8052348220      20.0000000000
14886 5      26.4106799917      23.0000000000
14887 5      34.2449620841      23.0000000000
14888 5      40.6271839851      21.0000000000
14889 5      20.3464551620      14.0000000000
14890 5      26.1565635881      17.0000000000
14891 5      21.0981615393      21.0000000000
14892 5      25.4384646054      23.0000000000
14893 5      20.5452600362      18.0000000000
14894 5      20.5513435498      21.0000000000
14895 5      22.2557921266      18.0000000000
14896 5      25.8557535339      18.0000000000
14897 5      20.8694642019      20.0000000000
14898 5      24.7692608844      18.0000000000
14899 5      32.3180458435      19.0000000000
14900 5      20.1577843533      15.0000000000
14901 5      24.2118675442      20.0000000000
14902 5      22.8271848207      19.0000000000
14903 5      21.7047380091      17.0000000000
14904 5      20.7667441311      20.0000000000
14905 5      20.2768050353      17.0000000000
14906 5      25.4144682783      19.0000000000
14907 5      23.4341112813      17.0000000000
14908 5      26.1237910509      22.0000000000
14909 5      22.8175095024      21.0000000000
14910 5      17.6072490103      15.0000000000
14911 5      26.8246107886      24.0000000000
14912 5      21.5339739491      14.0000000000
14913 5      23.5322576769      19.0000000000
14914 5      18.8370782141      19.0000000000
14915 5      24.0195713040      22.0000000000
14916 5      18.1110342885      16.0000000000
14917 5      18.7735893137      15.0000000000
14918 5      23.9861768805      23.0000000000
14919 5      19.5250042879      21.0000000000
14920 5      22.3550803945      16.0000000000
14921 5      23.6587632293      19.0000000000
14922 5      25.1463268235      21.0000000000
14923 5      22.1345731021      20.0000000000
14924 5      21.2895275709      19.0000000000
14925 5      23.8741841653      23.0000000000
14926 5      22.3789918200      17.0000000000
14927 5      30.6090713275      21.0000000000
14928 5      21.4307752283      22.0000000000
14929 5      21.2282290790      18.0000000000
14930 5      25.4374889471      16.0000000000
14931 5      26.4453613101      24.0000000000
14932 5      25.4066456155      20.0000000000
14933 5      18.1055554408      16.0000000000
14934 5      34.7793112680      27.0000000000
14935 5      27.7190846823      20.0000000000
14936 5      19.2194924869      19.0000000000
14937 5      19.0545096216      14.0000000000
14938 5      21.9443966444      22.0000000000
14939 5      22.5529738333      20.0000000000
14940 5      21.1508035745      23.0000000000
14941 5      22.7115208843      20.0000000000
14942 5      23.5936288169      24.0000000000
14943 5      27.2749692918      20.0000000000
14944 5      21.3896779575      16.0000000000
14945 5      19.7275236736      18.0000000000
14946 5      21.0031747222      19.0000000000
14947 5      20.8126407437      18.0000000000
14948 5      25.0500089183      20.0000000000
14949 5      25.2702532078      25.0000000000
14950 5      19.8010478953      16.0000000000
14951 5      23.1451651278      18.0000000000
14952 5      16.6516952478      16.0000000000
14953 5      24.3121997897      20.0000000000
14954 5      22.7936793597      22.0000000000
14955 5      21.1256302638      17.0000000000
14956 5      22.1608657543      18.0000000000
14957 5      29.3232699613      22.0000000000
14958 5      24.0925784655      20.0000000000
14959 5      25.2374523138      22.0000000000
14960 5      20.9202931782      17.0000000000
14961 5      23.1204330867      21.0000000000
14962 5      21.6123930209      21.0000000000
14963 5      23.6234441417      22.0000000000
14964 5      19.7648898109      17.0000000000
14965 5      21.6544308537      18.0000000000
14966 5      20.5862260631      18.0000000000
14967 5      20.1335231510      18.0000000000
14968 5      19.5218576289      17.0000000000
14969 5      23.5464699125      22.0000000000
14970 5      23.7660859033      20.0000000000
14971 5      23.2768442041      19.0000000000
14972 5      22.4530883252      18.0000000000
14973 5      22.7318661895      21.0000000000
14974 5      26.8277593530      21.0000000000
14975 5      24.0000369147      14.0000000000
14976 5      20.7704542038      22.0000000000
14977 5      24.2832564926      21.0000000000
14978 5      21.3469408818      18.0000000000
14979 5      22.5664916355      20.0000000000
14980 5      23.3140147698      22.0000000000
14981 5      22.9278331336      16.0000000000
14982 5      20.6635139714      15.0000000000
14983 5      21.4083600629      22.0000000000
14984 5      26.5473577611      23.0000000000
14985 5      22.0132058503      15.0000000000
14986 5      21.9952929005      23.0000000000
14987 5      16.6859679099      13.0000000000
14988 5      24.5271519442      18.0000000000
14989 5      22.5990851342      17.0000000000
14990 5      22.2005772948      20.0000000000
14991 5      24.8019277927      24.0000000000
14992 5      18.7431078762      19.0000000000
14993 5      26.7538049934      18.0000000000
14994 5      23.6296258884      19.0000000000
14995 5      20.5456533588      12.0000000000
14996 5      22.4426584518      21.0000000000
14997 5      24.2075941060      20.0000000000
14998 5      20.4354983416      22.0000000000
14999 5      23.2906227858      20.0000000000
15000 5      18.8942075489      17.0000000000
