ITEM: TIMESTEP
0
ITEM: NUMBER OF ATOMS
15000
ITEM: BOX BOUNDS pp pp pp
-6.0415812396304602e-01 5.9758793169147381e+01
-6.0415812396304602e-01 5.9758793169147381e+01
-6.0415812396304602e-01 5.9758793169147381e+01
ITEM: ATOMS id type c_voro[1] c_voro[2]
1 1       7.3751723125       9.0000000000
2 1       7.4416365864       8.0000000000
3 1       7.5976845953      12.0000000000
4 1       7.7431068528      10.0000000000
5 1       7.4910578051       9.0000000000
6 1       7.6653146448      10.0000000000
7 1       6.8958592455       7.0000000000
8 1       7.4517828315       7.0000000000
9 1       7.4729724913       8.0000000000
10 1       7.6123103681      10.0000000000
11 1       7.6183462709      10.0000000000
12 1       6.7693762534       6.0000000000
13 1       7.1879230269       8.0000000000
14 1       6.9621716273       9.0000000000
15 1       7.6341949925       8.0000000000
16 1       7.3710061733       9.0000000000
17 1       7.4338047894       8.0000000000
18 1       8.0738733422       8.0000000000
19 1       6.9011612125       9.0000000000
20 1       7.2576897832      12.0000000000
21 1       7.3751092748       8.0000000000
22 1       7.7641562146      12.0000000000
23 1       7.3222423763       8.0000000000
24 1       7.3781265187      11.0000000000
25 1       7.6619266375       7.0000000000
26 1       6.8255738398       9.0000000000
27 1       7.2715040615       8.0000000000
28 1       7.4727382461       8.0000000000
29 1       7.5229057869       8.0000000000
30 1       7.3897884970       9.0000000000
31 1       7.6749619095      12.0000000000
32 1       7.3188648499       8.0000000000
33 1       7.3535070063       7.0000000000
34 1       7.6843430819       8.0000000000
35 1       6.9870190097      10.0000000000
36 1       7.2130055529       7.0000000000
37 1       7.0443381509       8.0000000000
38 1       7.4211382997       8.0000000000
39 1       7.6303138036       9.0000000000
40 1       6.7003732614       8.0000000000
41 1       7.1420188355      10.0000000000
42 1       7.2648530359       9.0000000000
43 1       7.8910573450       9.0000000000
44 1       7.4220388887       9.0000000000
45 1       7.3968552456       9.0000000000
46 1       7.5967964696      10.0000000000
47 1       6.9276044034       7.0000000000
48 1       7.4318640271       8.0000000000
49 1       7.6074653651      10.0000000000
50 1       7.5255392534       9.0000000000
51 1       6.9866894812      10.0000000000
52 1       7.2728640453       9.0000000000
53 1       7.5841338263      11.0000000000
54 1       6.8855690919       9.0000000000
55 1       7.3039708299      10.0000000000
56 1       7.5593953400       9.0000000000
57 1       7.0081169530       8.0000000000
58 1       7.3907232642      13.0000000000
59 1       7.9375427413      12.0000000000
60 1       7.3682290142       8.0000000000
61 1       7.4932157464       9.0000000000
62 1       7.6860424475       8.0000000000
63 1       7.8338942347      10.0000000000
64 1       7.5395494520       8.0000000000
65 1       7.4903092343       9.0000000000
66 1       7.3844327705       8.0000000000
67 1       7.3856869856       9.0000000000
68 1       7.3530636993       8.0000000000
69 1       7.4525919284      10.0000000000
70 1       6.9846548456       8.0000000000
71 1       6.9544551869       8.0000000000
72 1       6.7480946476       8.0000000000
73 1       7.2893929213       8.0000000000
74 1       7.1932753546       7.0000000000
75 1       7.3793090485       7.0000000000
76 1       6.9556268198       7.0000000000
77 1       6.9774202694       8.0000000000
78 1       7.1883592278      11.0000000000
79 1       6.9578307587       8.0000000000
80 1       7.8519534573       9.0000000000
81 1       7.0102860197       7.0000000000
82 1       7.4504559500       8.0000000000
83 1       6.9910814982       7.0000000000
84 1       7.0099828953      10.0000000000
85 1       7.4060487377       9.0000000000
86 1       7.2185981717      10.0000000000
87 1       7.4726273177      11.0000000000
88 1       7.9588640763      10.0000000000
89 1       7.5312909700       8.0000000000
90 1       7.1260148575       9.0000000000
91 1       7.0429872062       7.0000000000
92 1       7.2048538534       9.0000000000
93 1       7.4042260645      10.0000000000
94 1       7.0246489034       9.0000000000
95 1       7.5030219167       9.0000000000
96 1       8.1232663763      10.0000000000
97 1       7.4163016005       9.0000000000
98 1       7.4359932148      10.0000000000
99 1       7.3297007993       9.0000000000
100 1       8.0202588823      10.0000000000
101 1       7.2260772343      13.0000000000
102 1       6.8916586937      10.0000000000
103 1       7.6873512235       9.0000000000
104 1       7.4170644543       7.0000000000
105 1       7.2359857951      10.0000000000
106 1       7.3744105323      10.0000000000
107 1       8.0565002336       8.0000000000
108 1       7.9164900349      10.0000000000
109 1       7.1173502555      12.0000000000
110 1       7.1259231219       8.0000000000
111 1       7.5713754532      10.0000000000
112 1       7.6744389724       9.0000000000
113 1       6.9175775212       9.0000000000
114 1       7.2371794278       8.0000000000
115 1       7.7585022800       9.0000000000
116 1       7.2710227616      10.0000000000
117 1       7.4151480366       9.0000000000
118 1       7.5809115482       9.0000000000
119 1       6.7623722854      10.0000000000
120 1       7.1481416816      10.0000000000
121 1       6.8899288653       8.0000000000
122 1       6.9325849049       8.0000000000
123 1       7.5642100106      10.0000000000
124 1       7.4905763894       8.0000000000
125 1       8.2632648504       8.0000000000
126 1       6.9407355426       9.0000000000
127 1       7.4109224265       8.0000000000
128 1       6.8946293550       8.0000000000
129 1       7.7560609613       9.0000000000
130 1       7.3818297194      11.0000000000
131 1       7.6346987497       9.0000000000
132 1       7.5123668595      11.0000000000
133 1       8.1810554385      11.0000000000
134 1       7.0377116759       7.0000000000
135 1       7.0466225073       8.0000000000
136 1       6.9870060723       9.0000000000
137 1       7.4665435117      11.0000000000
138 1       7.9900906027      10.0000000000
139 1       7.7632979409       9.0000000000
140 1       6.9771921318       8.0000000000
141 1       7.4111490382       9.0000000000
142 1       7.1337407771       9.0000000000
143 1       7.6662704755      10.0000000000
144 1       7.2009371178       8.0000000000
145 1       7.3370798757       9.0000000000
146 1       7.4297846669      13.0000000000
147 1       6.9441978710       9.0000000000
148 1       7.8439932263       8.0000000000
149 1       7.5377203703       9.0000000000
150 1       7.3534275930      10.0000000000
151 1       7.5361719819      10.0000000000
152 1       6.8160359559       9.0000000000
153 1       7.7611457315      10.0000000000
154 1       7.2804386727       9.0000000000
155 1       7.6098884021       9.0000000000
156 1       7.5022190761       9.0000000000
157 1       7.2652881626      10.0000000000
158 1       7.5422877456       8.0000000000
159 1       7.3738146119      10.0000000000
160 1       7.2218190172       6.0000000000
161 1       6.8588714289      10.0000000000
162 1       7.1672344004      10.0000000000
163 1       7.6439512840      10.0000000000
164 1       7.2908046358       9.0000000000
165 1       7.3218151012      10.0000000000
166 1       7.3101850591      10.0000000000
167 1       7.3979188956      11.0000000000
168 1       7.1777735803       9.0000000000
169 1       7.3549276475       9.0000000000
170 1       7.4035134577       9.0000000000
171 1       7.4340060146       9.0000000000
172 1       6.9093196845       9.0000000000
173 1       7.0551063239       8.0000000000
174 1       7.1590199338       9.0000000000
175 1       7.8940552803      11.0000000000
176 1       7.2730387105      12.0000000000
177 1       7.3216528972       8.0000000000
178 1       7.4891906535       9.0000000000
179 1       7.2442438709       8.0000000000
180 1       7.7339874925      12.0000000000
181 1       7.7259628163      10.0000000000
182 1       7.1189294506      11.0000000000
183 1       7.5536496586       7.0000000000
184 1       7.5407705977      10.0000000000
185 1       6.9250454302       8.0000000000
186 1       7.2535835787       9.0000000000
187 1       7.6375190245       9.0000000000
188 1       7.2290932899       9.0000000000
189 1       8.0981306420       9.0000000000
190 1       8.1694649941       8.0000000000
191 1       6.9976063649       6.0000000000
192 1       7.5525962247      10.0000000000
193 1       7.6363009891      10.0000000000
194 1       7.4715569646      10.0000000000
195 1       7.5342235625      10.0000000000
196 1       7.4454336587       9.0000000000
197 1       6.9817222734       8.0000000000
198 1       7.1715381531       9.0000000000
199 1       7.4089931365       7.0000000000
200 1       7.8121857906      10.0000000000
201 1       7.0993744499       9.0000000000
202 1       7.6230035988       9.0000000000
203 1       7.0809801268       9.0000000000
204 1       7.3257595965       8.0000000000
205 1       6.9892230459       8.0000000000
206 1       7.6721631200       9.0000000000
207 1       7.1770252306       8.0000000000
208 1       7.6048125414       8.0000000000
209 1       8.1656337292      10.0000000000
210 1       7.1562188639      10.0000000000
211 1       7.5565687269       9.0000000000
212 1       7.5283608010       9.0000000000
213 1       7.5614726027      10.0000000000
214 1       7.5562293596      10.0000000000
215 1       7.8720342428       7.0000000000
216 1       7.6323543029       8.0000000000
217 1       6.9348339542       9.0000000000
218 1       7.4357606827       8.0000000000
219 1       7.1555327735       8.0000000000
220 1       6.9382334203       9.0000000000
221 1       7.2821251447      10.0000000000
222 1       7.0564069676       7.0000000000
223 1       7.3804941374       7.0000000000
224 1       7.5504960177      12.0000000000
225 1       7.4786375453      10.0000000000
226 1       7.2846907348       7.0000000000
227 1       7.6669462298      10.0000000000
228 1       7.1796550439       9.0000000000
229 1       7.5483446601      10.0000000000
230 1       7.0070816517       9.0000000000
231 1       7.6586879679       9.0000000000
232 1       7.1632230057       8.0000000000
233 1       7.8778695494      11.0000000000
234 1       7.2907196057       8.0000000000
235 1       7.2133611484      10.0000000000
236 1       7.7915032382      10.0000000000
237 1       6.8053848254      10.0000000000
238 1       7.3865999213       9.0000000000
239 1       7.1604560146      10.0000000000
240 1       7.6292738997       9.0000000000
241 1       7.1425786506       8.0000000000
242 1       7.2254132053       8.0000000000
243 1       7.0876645499      10.0000000000
244 1       7.6753366505       9.0000000000
245 1       7.2679680133      10.0000000000
246 1       7.7966156488       9.0000000000
247 1       7.2902455640       9.0000000000
248 1       6.9120497070       8.0000000000
249 1       7.7130964532      10.0000000000
250 1       8.0141261832       8.0000000000
251 1       6.8020022389       7.0000000000
252 1       6.9837556551       9.0000000000
253 1       7.2879092982       8.0000000000
254 1       7.2354810333       9.0000000000
255 1       7.7407770246       8.0000000000
256 1       7.9897788047       9.0000000000
257 1       7.2625271995       9.0000000000
258 1       7.7137870897       8.0000000000
259 1       7.1991510461       9.0000000000
260 1       6.9383049168       9.0000000000
261 1       7.4864735716      10.0000000000
262 1       7.6497389843       8.0000000000
263 1       7.5332370570      10.0000000000
264 1       7.4220839903      10.0000000000
265 1       7.7986883169      10.0000000000
266 1       6.7462693186       7.0000000000
267 1       7.7588525920       9.0000000000
268 1       8.0677310328      10.0000000000
269 1       7.3145484851      11.0000000000
270 1       7.4840219623       9.0000000000
271 1       7.2816743232      10.0000000000
272 1       7.1568550903      10.0000000000
273 1       7.0570545100       9.0000000000
274 1       7.3565228091       8.0000000000
275 1       7.4239237968       7.0000000000
276 1       6.9054711856      10.0000000000
277 1       6.8385764549       8.0000000000
278 1       6.9987822403      10.0000000000
279 1       7.6070449625       9.0000000000
280 1       6.8832943689       8.0000000000
281 1       7.3659933485       9.0000000000
282 1       7.5133579680      12.0000000000
283 1       7.3551982206      10.0000000000
284 1       6.7267150349       8.0000000000
285 1       7.0341371877       9.0000000000
286 1       8.3440698186      11.0000000000
287 1       7.1486826311       9.0000000000
288 1       7.0157849425       8.0000000000
289 1       7.5282547297      10.0000000000
290 1       7.8000295037       9.0000000000
291 1       7.3393111854       8.0000000000
292 1       7.5178874287      10.0000000000
293 1       8.1148642815       8.0000000000
294 1       7.8243024674      11.0000000000
295 1       7.4194505966      10.0000000000
296 1       7.5746203296      10.0000000000
297 1       7.7362553181      11.0000000000
298 1       7.0694413983       9.0000000000
299 1       8.4290405696      12.0000000000
300 1       7.0251089954       9.0000000000
301 1       7.0413798500       7.0000000000
302 1       7.1248378708       9.0000000000
303 1       7.5349381413      10.0000000000
304 1       7.4276261945       9.0000000000
305 1       7.3951780720       8.0000000000
306 1       7.8782792374       9.0000000000
307 1       7.4104327092       9.0000000000
308 1       7.4533309592      11.0000000000
309 1       6.9296244988       9.0000000000
310 1       7.4155573530       8.0000000000
311 1       7.7374042379      10.0000000000
312 1       7.0164045388       7.0000000000
313 1       7.2931395738       9.0000000000
314 1       7.4643356921      10.0000000000
315 1       7.0557276664      12.0000000000
316 1       7.6330524309       8.0000000000
317 1       7.7792083890       9.0000000000
318 1       7.4081219583       9.0000000000
319 1       7.4142943104       8.0000000000
320 1       6.8378615019       8.0000000000
321 1       7.6264718148       9.0000000000
322 1       7.0846463477       8.0000000000
323 1       6.6671580820       9.0000000000
324 1       6.9884548801       9.0000000000
325 1       7.4852286041       8.0000000000
326 1       6.9528617289       9.0000000000
327 1       6.6478941531       7.0000000000
328 1       6.9699473532      10.0000000000
329 1       7.0195464125       9.0000000000
330 1       7.8903902194      11.0000000000
331 1       8.0398523734      11.0000000000
332 1       7.0664902545       9.0000000000
333 1       7.6891975221       9.0000000000
334 1       8.0179587742       9.0000000000
335 1       7.4907502729       9.0000000000
336 1       7.2491707504       9.0000000000
337 1       7.1233122678       8.0000000000
338 1       7.5061840825       9.0000000000
339 1       7.4733912246      10.0000000000
340 1       7.6311346913       9.0000000000
341 1       8.3238049066      11.0000000000
342 1       7.6635825637      11.0000000000
343 1       7.2467463018       7.0000000000
344 1       6.9976734796       8.0000000000
345 1       6.6758861026       9.0000000000
346 1       7.8655421887       8.0000000000
347 1       7.2091506496      11.0000000000
348 1       7.4611719043      10.0000000000
349 1       7.4981026153       9.0000000000
350 1       7.6987042661      11.0000000000
351 1       7.3943688929      10.0000000000
352 1       7.0597806234      12.0000000000
353 1       7.2308935660       9.0000000000
354 1       7.1978064314       9.0000000000
355 1       7.6523952454      10.0000000000
356 1       6.8398108250       8.0000000000
357 1       7.4507250540       8.0000000000
358 1       7.7216856491       9.0000000000
359 1       6.7400242434       9.0000000000
360 1       6.8605307152       9.0000000000
361 1       7.3538120692       8.0000000000
362 1       6.9836884779       9.0000000000
363 1       7.3142100471       9.0000000000
364 1       7.0911562180      10.0000000000
365 1       7.1410113984      10.0000000000
366 1       6.9977786551       8.0000000000
367 1       7.7149767088       8.0000000000
368 1       7.2613429473       8.0000000000
369 1       7.9856493062      10.0000000000
370 1       7.3699796155      10.0000000000
371 1       7.8871285736       9.0000000000
372 1       7.4986828573       9.0000000000
373 1       7.4308492684       9.0000000000
374 1       7.6386631871      10.0000000000
375 1       7.2994762473      10.0000000000
376 1       7.1385007593       9.0000000000
377 1       7.2981795346      10.0000000000
378 1       7.7297608144      10.0000000000
379 1       8.8502412439      10.0000000000
380 1       6.9776564686       7.0000000000
381 1       7.3216720961       9.0000000000
382 1       7.6922110546      12.0000000000
383 1       7.6621204889      12.0000000000
384 1       7.0922823605       7.0000000000
385 1       7.3490589418       8.0000000000
386 1       6.9447884088       9.0000000000
387 1       7.4504682032       7.0000000000
388 1       7.1692644655       8.0000000000
389 1       7.3798865356       9.0000000000
390 1       7.2726252724       9.0000000000
391 1       7.1573491107       7.0000000000
392 1       7.8088899250       9.0000000000
393 1       7.3551457188       9.0000000000
394 1       7.0098453309       8.0000000000
395 1       6.8699794915       9.0000000000
396 1       7.6719840921       9.0000000000
397 1       6.6706272130       9.0000000000
398 1       7.7080248698       8.0000000000
399 1       7.0613353391      10.0000000000
400 1       7.4061264438       8.0000000000
401 1       7.3544353701      12.0000000000
402 1       7.2101074165       8.0000000000
403 1       7.6838106859       9.0000000000
404 1       7.0520383719       7.0000000000
405 1       7.3892052457       9.0000000000
406 1       7.7344765172      11.0000000000
407 1       7.0305874402       8.0000000000
408 1       7.0263686272       9.0000000000
409 1       7.1720348412       8.0000000000
410 1       7.2307258363       8.0000000000
411 1       7.7923252879       9.0000000000
412 1       7.7042095245       9.0000000000
413 1       6.9030079679       9.0000000000
414 1       6.9228151956       9.0000000000
415 1       7.1042323831       7.0000000000
416 1       7.4462638924       9.0000000000
417 1       7.8571826040       9.0000000000
418 1       6.7523117437       8.0000000000
419 1       6.7793303376       9.0000000000
420 1       7.3501766159       8.0000000000
421 1       6.8965053378       8.0000000000
422 1       7.2345613074      10.0000000000
423 1       7.3440111236      11.0000000000
424 1       7.6617758768      11.0000000000
425 1       7.2852563531      12.0000000000
426 1       7.0451171546       8.0000000000
427 1       7.5708741000       8.0000000000
428 1       7.2707071042       8.0000000000
429 1       6.9618815782       8.0000000000
430 1       6.5865225038       8.0000000000
431 1       7.1781702126      10.0000000000
432 1       7.1703088715       9.0000000000
433 1       7.5767631294       9.0000000000
434 1       7.4906033278      11.0000000000
435 1       7.4178545437       8.0000000000
436 1       7.1509569427       9.0000000000
437 1       7.6704487794      11.0000000000
438 1       7.5439963322      10.0000000000
439 1       6.9714151932       7.0000000000
440 1       7.1787148454      11.0000000000
441 1       7.2562999472      10.0000000000
442 1       7.1665435921       9.0000000000
443 1       7.0740466445       9.0000000000
444 1       7.4708940108       9.0000000000
445 1       7.2193219795       9.0000000000
446 1       7.5459568736       8.0000000000
447 1       6.6249555488       9.0000000000
448 1       7.1373381215      10.0000000000
449 1       7.7205813869       9.0000000000
450 1       7.5564046974       8.0000000000
451 1       7.8932233483       9.0000000000
452 1       7.6572790150       7.0000000000
453 1       7.4515359412      12.0000000000
454 1       7.1451426791      10.0000000000
455 1       7.5889918591      11.0000000000
456 1       8.0863651215       9.0000000000
457 1       7.3563834121       8.0000000000
458 1       7.7974537967       9.0000000000
459 1       6.7816641500       7.0000000000
460 1       7.5687409987       9.0000000000
461 1       6.9989636836       7.0000000000
462 1       7.3837357122      10.0000000000
463 1       7.9596213123       7.0000000000
464 1       7.3539787125      11.0000000000
465 1       6.9042696447      10.0000000000
466 1       7.6160220683       7.0000000000
467 1       7.5735799602       8.0000000000
468 1       7.1064547176       7.0000000000
469 1       7.8924458295      10.0000000000
470 1       8.0060237821       7.0000000000
471 1       7.1366171834       8.0000000000
472 1       7.3235486105      12.0000000000
473 1       7.0921561214      10.0000000000
474 1       7.8536058190      11.0000000000
475 1       8.3546481266      12.0000000000
476 1       7.3657769030       9.0000000000
477 1       6.9502422301       8.0000000000
478 1       7.5662087205       9.0000000000
479 1       7.1341579791       7.0000000000
480 1       7.1792489283       8.0000000000
481 1       7.0372124764      10.0000000000
482 1       7.3786390832      11.0000000000
483 1       7.2217844770       9.0000000000
484 1       7.2476769147       9.0000000000
485 1       7.0488684224      10.0000000000
486 1       7.5198918300       9.0000000000
487 1       6.9131825777       8.0000000000
488 1       7.3853354758      11.0000000000
489 1       7.2580313237      11.0000000000
490 1       6.6417123973       8.0000000000
491 1       7.5650041837       9.0000000000
492 1       7.0555784309       7.0000000000
493 1       7.4190381677       9.0000000000
494 1       7.2872736778       9.0000000000
495 1       7.9471731922      11.0000000000
496 1       7.0454401419       8.0000000000
497 1       7.7597797121       8.0000000000
498 1       7.4732971068       9.0000000000
499 1       6.9715286277       8.0000000000
500 1       7.2120231933       8.0000000000
501 1       7.4155418393      10.0000000000
502 1       7.1264266792       9.0000000000
503 1       7.6135646125       9.0000000000
504 1       7.3372161244      10.0000000000
505 1       7.7735670034       9.0000000000
506 1       7.0095004641       8.0000000000
507 1       7.4312272902      10.0000000000
508 1       7.2661723603      10.0000000000
509 1       6.8171554288       8.0000000000
510 1       7.3883681196       9.0000000000
511 1       7.6501340966       9.0000000000
512 1       6.7576668529      10.0000000000
513 1       6.8551533231      10.0000000000
514 1       6.5346466748       8.0000000000
515 1       7.1788083533       8.0000000000
516 1       6.9111227741       9.0000000000
517 1       8.1230180273       9.0000000000
518 1       6.7147417246      10.0000000000
519 1       7.4655865858       9.0000000000
520 1       8.1437165695      10.0000000000
521 1       7.0886449715       8.0000000000
522 1       7.6065443017      11.0000000000
523 1       7.1495770025       9.0000000000
524 1       6.8565872408      11.0000000000
525 1       7.0401952667       9.0000000000
526 1       7.5456918109       8.0000000000
527 1       8.2666023203      10.0000000000
528 1       7.1819803028       8.0000000000
529 1       7.0010580483       7.0000000000
530 1       7.1676346093      10.0000000000
531 1       7.3330481564      12.0000000000
532 1       7.3496305852       8.0000000000
533 1       7.0909862822       8.0000000000
534 1       7.1555776567       8.0000000000
535 1       7.0355873317      10.0000000000
536 1       7.2692901559       9.0000000000
537 1       7.2927719994       8.0000000000
538 1       7.7739999243       8.0000000000
539 1       7.8379735804      10.0000000000
540 1       7.5542626432       9.0000000000
541 1       6.9355586311       9.0000000000
542 1       6.7881743495       9.0000000000
543 1       7.1560094605      10.0000000000
544 1       6.9502100470       9.0000000000
545 1       7.3685321375       8.0000000000
546 1       8.1755053015      10.0000000000
547 1       6.9886993629       8.0000000000
548 1       7.2818326502      10.0000000000
549 1       7.6347853244       8.0000000000
550 1       7.4840926041       7.0000000000
551 1       7.5010635871      10.0000000000
552 1       6.9831587205       9.0000000000
553 1       7.1971581842       9.0000000000
554 1       7.3239602141       8.0000000000
555 1       7.8044558730       7.0000000000
556 1       7.3903943962      10.0000000000
557 1       8.0815121431      10.0000000000
558 1       7.2233559559       9.0000000000
559 1       6.8152089115       9.0000000000
560 1       7.0553456713       8.0000000000
561 1       7.3992763134       9.0000000000
562 1       7.3762662230       8.0000000000
563 1       7.6402012551       8.0000000000
564 1       7.3048915274       8.0000000000
565 1       8.1870254280      11.0000000000
566 1       7.5750040334      12.0000000000
567 1       7.1258989988       9.0000000000
568 1       7.3002031969      11.0000000000
569 1       7.2431992684       9.0000000000
570 1       7.8686498836      11.0000000000
571 1       7.4809760902       8.0000000000
572 1       7.7481085644      10.0000000000
573 1       7.0784462455       9.0000000000
574 1       7.8672183041       9.0000000000
575 1       7.4288057904       8.0000000000
576 1       6.8742030759       8.0000000000
577 1       7.4715374005      10.0000000000
578 1       7.0912128796       9.0000000000
579 1       7.4795708464       7.0000000000
580 1       8.2242150464       8.0000000000
581 1       8.7923707144      10.0000000000
582 1       7.4568521585      10.0000000000
583 1       6.8744342247      10.0000000000
584 1       7.3090846377       9.0000000000
585 1       7.1787173991       9.0000000000
586 1       7.5865706450       9.0000000000
587 1       7.3066807895       8.0000000000
588 1       7.1072869906       9.0000000000
589 1       7.2415278192       8.0000000000
590 1       7.3275424844      10.0000000000
591 1       6.8963584989      10.0000000000
592 1       7.0455455685       8.0000000000
593 1       7.2452018549      10.0000000000
594 1       7.0653355146       7.0000000000
595 1       7.3941681435       8.0000000000
596 1       7.9326685313       9.0000000000
597 1       7.3777690960       8.0000000000
598 1       7.8559573644      13.0000000000
599 1       7.3136993470       9.0000000000
600 1       6.8691306619       8.0000000000
601 1       6.8738659899       9.0000000000
602 1       7.4557682235       9.0000000000
603 1       7.5444797314      10.0000000000
604 1       7.4096643113      11.0000000000
605 1       7.1047097472       9.0000000000
606 1       8.1187422497       9.0000000000
607 1       7.3637823194       9.0000000000
608 1       7.2868002514       9.0000000000
609 1       7.1857378838       9.0000000000
610 1       7.2954421459       9.0000000000
611 1       7.8355909613       7.0000000000
612 1       7.5169038781      10.0000000000
613 1       7.1693078563       8.0000000000
614 1       7.2952431764       9.0000000000
615 1       7.7582686974      10.0000000000
616 1       8.1685427176      10.0000000000
617 1       7.8333600737      12.0000000000
618 1       6.9409251355       7.0000000000
619 1       7.8397103351      10.0000000000
620 1       8.0260552526       8.0000000000
621 1       7.3181905671       9.0000000000
622 1       6.9083912808      10.0000000000
623 1       7.4141890247       8.0000000000
624 1       7.2554352759       7.0000000000
625 1       7.4926523214       9.0000000000
626 1       7.1339668466       9.0000000000
627 1       7.2092230090       9.0000000000
628 1       6.9957804716       9.0000000000
629 1       7.9752159120      10.0000000000
630 1       7.4502556004       9.0000000000
631 1       8.0743130817       9.0000000000
632 1       7.0435475336       9.0000000000
633 1       7.1305453433      10.0000000000
634 1       7.5370540235       9.0000000000
635 1       7.3129482756       7.0000000000
636 1       7.1405455762       7.0000000000
637 1       7.2623977067       9.0000000000
638 1       7.4827113498      10.0000000000
639 1       7.0364133978       7.0000000000
640 1       7.2400527670       9.0000000000
641 1       7.8031994773       8.0000000000
642 1       7.0228634794       7.0000000000
643 1       7.2849445139      10.0000000000
644 1       7.2135131484       6.0000000000
645 1       6.8875708384       8.0000000000
646 1       7.8425576200       8.0000000000
647 1       7.5063716336       9.0000000000
648 1       7.3197763883       9.0000000000
649 1       6.9227124842       9.0000000000
650 1       6.8770584706       7.0000000000
651 1       7.2039871557       8.0000000000
652 1       7.5995482508       7.0000000000
653 1       7.3386677011       8.0000000000
654 1       7.6253927636       9.0000000000
655 1       7.0932632487       9.0000000000
656 1       7.4514966673       9.0000000000
657 1       7.9561170229      10.0000000000
658 1       7.8670182729       9.0000000000
659 1       7.7800006236       9.0000000000
660 1       7.5285946533      11.0000000000
661 1       7.4960225247       8.0000000000
662 1       7.2895967265       9.0000000000
663 1       7.6576161170       9.0000000000
664 1       7.4285332329       8.0000000000
665 1       7.5103333762       7.0000000000
666 1       7.4277844655      11.0000000000
667 1       7.2794417748      10.0000000000
668 1       7.2841964999      10.0000000000
669 1       7.7787423619      10.0000000000
670 1       7.2469560225       9.0000000000
671 1       7.2884228614       9.0000000000
672 1       7.5559497293       9.0000000000
673 1       7.5741480150       9.0000000000
674 1       7.1947718528       8.0000000000
675 1       7.3108918727      11.0000000000
676 1       6.9085452338      10.0000000000
677 1       6.7292553605       8.0000000000
678 1       7.1802259467       7.0000000000
679 1       7.8478195608      10.0000000000
680 1       7.8901296293       6.0000000000
681 1       7.1008256799       8.0000000000
682 1       7.5205645878       9.0000000000
683 1       6.7997854200       8.0000000000
684 1       7.2383749975       8.0000000000
685 1       7.1423267304       7.0000000000
686 1       7.9532292668      11.0000000000
687 1       7.9171610267       9.0000000000
688 1       7.0555453378       8.0000000000
689 1       7.0907884801       9.0000000000
690 1       8.7172348082      12.0000000000
691 1       7.4741922566       9.0000000000
692 1       6.8311713319       8.0000000000
693 1       7.3004875174       8.0000000000
694 1       7.1636931390       8.0000000000
695 1       7.5648541913      12.0000000000
696 1       7.6710715026      11.0000000000
697 1       7.8009972250       7.0000000000
698 1       6.9586022422       7.0000000000
699 1       6.6072308097       8.0000000000
700 1       8.0721138455      10.0000000000
701 1       7.4439677515      12.0000000000
702 1       6.9940476726      10.0000000000
703 1       7.5221513973       9.0000000000
704 1       7.2447481020      12.0000000000
705 1       7.2348178796       8.0000000000
706 1       7.7224977035       9.0000000000
707 1       7.9510514149       9.0000000000
708 1       7.4855440900       8.0000000000
709 1       7.6831465034       9.0000000000
710 1       7.0706110588       8.0000000000
711 1       7.7747710210       8.0000000000
712 1       7.2267495553      11.0000000000
713 1       7.1321336090       9.0000000000
714 1       7.6338080549       9.0000000000
715 1       7.7730142766      11.0000000000
716 1       6.9610945011      10.0000000000
717 1       6.9319649820       8.0000000000
718 1       7.2805357220       6.0000000000
719 1       7.4255443472       9.0000000000
720 1       7.4103756303       8.0000000000
721 1       6.8097083815       9.0000000000
722 1       7.4456548408       7.0000000000
723 1       7.2443585267       9.0000000000
724 1       7.3495799850       8.0000000000
725 1       7.2284559003      11.0000000000
726 1       7.0961136006       9.0000000000
727 1       6.9616219913       8.0000000000
728 1       7.6734258646       8.0000000000
729 1       8.0311841550      11.0000000000
730 1       7.2727018453       9.0000000000
731 1       8.2005048917       7.0000000000
732 1       7.0728083313       7.0000000000
733 1       6.8074388500       9.0000000000
734 1       6.8018491810       7.0000000000
735 1       8.1425327858      10.0000000000
736 1       7.6606938518      11.0000000000
737 1       7.6867846333       8.0000000000
738 1       6.7522712813       6.0000000000
739 1       7.5068568847       9.0000000000
740 1       6.6660514837       8.0000000000
741 1       7.5057301447      10.0000000000
742 1       7.3237675720       9.0000000000
743 1       7.0397032812       9.0000000000
744 1       7.6032486271       8.0000000000
745 1       7.5265610297      10.0000000000
746 1       7.2244348421       8.0000000000
747 1       7.4768812960       9.0000000000
748 1       7.0659616730       8.0000000000
749 1       7.5174188103       9.0000000000
750 1       7.6600575986      12.0000000000
751 1       6.8542168959       7.0000000000
752 1       6.8471477717      11.0000000000
753 1       7.2962742893       8.0000000000
754 1       7.7581055959       9.0000000000
755 1       6.9129743366       8.0000000000
756 1       7.1296529323       9.0000000000
757 1       7.7367017380      10.0000000000
758 1       7.6473347571       9.0000000000
759 1       7.1136814105      10.0000000000
760 1       7.1474407555       9.0000000000
761 1       7.9752917057       9.0000000000
762 1       7.2739925637       9.0000000000
763 1       7.4388605332      11.0000000000
764 1       7.1798615941       8.0000000000
765 1       7.4355976118      11.0000000000
766 1       6.8181939024       9.0000000000
767 1       7.1468059067       9.0000000000
768 1       7.5274071034       9.0000000000
769 1       7.6456705036       7.0000000000
770 1       6.9510175839       9.0000000000
771 1       7.1891713538      10.0000000000
772 1       7.1167385027       8.0000000000
773 1       7.1461204911      10.0000000000
774 1       7.3936476574      10.0000000000
775 1       7.5409293765       9.0000000000
776 1       7.4403967316       9.0000000000
777 1       7.0545560815      10.0000000000
778 1       7.5296781089       8.0000000000
779 1       7.3083419369       8.0000000000
780 1       7.5057471356      10.0000000000
781 1       7.6258520537       9.0000000000
782 1       7.4288493331      11.0000000000
783 1       8.0680998259      11.0000000000
784 1       7.7536449131      10.0000000000
785 1       7.8384735288       8.0000000000
786 1       7.8139154229       9.0000000000
787 1       7.2643883126      10.0000000000
788 1       7.3991078270       8.0000000000
789 1       7.5542550260       7.0000000000
790 1       6.9353271526      10.0000000000
791 1       7.4829880108       8.0000000000
792 1       7.1577464484      10.0000000000
793 1       7.3392594265      11.0000000000
794 1       7.6097601902       8.0000000000
795 1       7.2987753206       9.0000000000
796 1       7.6924166152      10.0000000000
797 1       7.2656304866       7.0000000000
798 1       7.6668195167       9.0000000000
799 1       7.3965872421       8.0000000000
800 1       7.2100032798      11.0000000000
801 1       7.6842123774      10.0000000000
802 1       7.6567206824       8.0000000000
803 1       7.2425356330       8.0000000000
804 1       7.3602962855      10.0000000000
805 1       7.3765602102      10.0000000000
806 1       7.3434097307       8.0000000000
807 1       7.7497226181       8.0000000000
808 1       7.3491963389      11.0000000000
809 1       6.8570941782       8.0000000000
810 1       7.3190699554      10.0000000000
811 1       7.0130828153      10.0000000000
812 1       7.0522714560       8.0000000000
813 1       7.4656976048       8.0000000000
814 1       6.8394802996       8.0000000000
815 1       7.0539278037      11.0000000000
816 1       7.1942597352       8.0000000000
817 1       7.7545630997       9.0000000000
818 1       7.6782845169      13.0000000000
819 1       7.0203884457       8.0000000000
820 1       6.8756492621       7.0000000000
821 1       7.4462870903      12.0000000000
822 1       7.7697023912      11.0000000000
823 1       7.8021115376      11.0000000000
824 1       7.8440047626      10.0000000000
825 1       7.1118091748       8.0000000000
826 1       7.5546304586       9.0000000000
827 1       6.8112609163       7.0000000000
828 1       7.0393670427      10.0000000000
829 1       7.4377153618      10.0000000000
830 1       7.8753259319      11.0000000000
831 1       7.4542430974      10.0000000000
832 1       6.9730876930       7.0000000000
833 1       7.2444449941       9.0000000000
834 1       7.5305338949      10.0000000000
835 1       7.2903619219      11.0000000000
836 1       7.2596462903       8.0000000000
837 1       7.4269702002       9.0000000000
838 1       7.9384530478      10.0000000000
839 1       7.3632346545      11.0000000000
840 1       6.8470618583      10.0000000000
841 1       7.4843886375       8.0000000000
842 1       7.3770505624       8.0000000000
843 1       7.0393264447       8.0000000000
844 1       7.1542743254       8.0000000000
845 1       7.0476395814      10.0000000000
846 1       7.1597474440       9.0000000000
847 1       7.5858100704       9.0000000000
848 1       7.3263280259      11.0000000000
849 1       7.5678217202      11.0000000000
850 1       7.4272107181       8.0000000000
851 1       7.8102770703       9.0000000000
852 1       6.9699278777       7.0000000000
853 1       7.8854119029      10.0000000000
854 1       7.3467005387       9.0000000000
855 1       7.1371373850       9.0000000000
856 1       7.3010481834       8.0000000000
857 1       6.6597537551       9.0000000000
858 1       7.2223113699       9.0000000000
859 1       7.2601928215      10.0000000000
860 1       8.0282900684       9.0000000000
861 1       7.3963597211       8.0000000000
862 1       7.4512711236       9.0000000000
863 1       7.5174444175      10.0000000000
864 1       7.5991015409       9.0000000000
865 1       6.7890502571      10.0000000000
866 1       7.6153026239      10.0000000000
867 1       7.8475861001       8.0000000000
868 1       7.1532396942      11.0000000000
869 1       7.1925212065       8.0000000000
870 1       8.1104737431      10.0000000000
871 1       7.1920959621       8.0000000000
872 1       7.4757129658      11.0000000000
873 1       7.2715161088       9.0000000000
874 1       7.3390773507       9.0000000000
875 1       7.2832517146       9.0000000000
876 1       7.1369758263      10.0000000000
877 1       7.2491970526       8.0000000000
878 1       6.9890468740       9.0000000000
879 1       7.1580440117       8.0000000000
880 1       7.9182697659       9.0000000000
881 1       7.3505722305       8.0000000000
882 1       7.4083278299       9.0000000000
883 1       7.0508515847       8.0000000000
884 1       7.5745786855       9.0000000000
885 1       6.9543907381       7.0000000000
886 1       7.7173106406      11.0000000000
887 1       7.1466888566      10.0000000000
888 1       6.7440739685       8.0000000000
889 1       7.1724520830       8.0000000000
890 1       7.2537501919      11.0000000000
891 1       7.3793610380       8.0000000000
892 1       7.6828535004       9.0000000000
893 1       7.1544622204       7.0000000000
894 1       7.5454175722      10.0000000000
895 1       7.1285630669       9.0000000000
896 1       7.4566717022       9.0000000000
897 1       7.3257080189       8.0000000000
898 1       7.3095343063      10.0000000000
899 1       7.4945885456       8.0000000000
900 1       7.4270342680       9.0000000000
901 1       7.5618009462      11.0000000000
902 1       7.3827441112       8.0000000000
903 1       6.9168966577       8.0000000000
904 1       7.8074950028       9.0000000000
905 1       7.3540118597       6.0000000000
906 1       7.6647295035       8.0000000000
907 1       7.3965353036      10.0000000000
908 1       6.8784778590       9.0000000000
909 1       7.3180994979       8.0000000000
910 1       7.4508421878      10.0000000000
911 1       7.3014800546       8.0000000000
912 1       7.5969435068       9.0000000000
913 1       7.2168707761       9.0000000000
914 1       7.6385724390      12.0000000000
915 1       7.7641708300       9.0000000000
916 1       7.2243701539      10.0000000000
917 1       6.9890757702      10.0000000000
918 1       7.2557431462      10.0000000000
919 1       7.0992849350       7.0000000000
920 1       7.3104529489       7.0000000000
921 1       7.4119571958      10.0000000000
922 1       7.6760523506       7.0000000000
923 1       7.3628774447       9.0000000000
924 1       7.4971633828      11.0000000000
925 1       7.9737250229      10.0000000000
926 1       7.3470611070       9.0000000000
927 1       7.0267954877       9.0000000000
928 1       7.6892417646      10.0000000000
929 1       7.4750714051      13.0000000000
930 1       7.4333996338      10.0000000000
931 1       7.3815604285      10.0000000000
932 1       7.9364654613      10.0000000000
933 1       7.2906612964       8.0000000000
934 1       7.4911856400      10.0000000000
935 1       7.3840961812       8.0000000000
936 1       7.4829540360      10.0000000000
937 1       7.2285498118       8.0000000000
938 1       7.4955642729       8.0000000000
939 1       6.8540953562       8.0000000000
940 1       6.7795995258       8.0000000000
941 1       7.1907430749       7.0000000000
942 1       7.4078313653       8.0000000000
943 1       7.4013185660       9.0000000000
944 1       7.5802920103       9.0000000000
945 1       6.9459102527       9.0000000000
946 1       6.9302375884       9.0000000000
947 1       7.7117763525      10.0000000000
948 1       7.9348513258      10.0000000000
949 1       7.3199467900       9.0000000000
950 1       7.1296726857       7.0000000000
951 1       7.0722756855       8.0000000000
952 1       7.7347088102       9.0000000000
953 1       7.3549684254      10.0000000000
954 1       8.0002210756       9.0000000000
955 1       7.2808808348       8.0000000000
956 1       6.8268306987       7.0000000000
957 1       7.2727037203       7.0000000000
958 1       7.4440403955       9.0000000000
959 1       7.1646008863       9.0000000000
960 1       7.1312666812       8.0000000000
961 1       6.7723845231       7.0000000000
962 1       6.9177228686      11.0000000000
963 1       7.4488419062      10.0000000000
964 1       7.3344121772       8.0000000000
965 1       7.6643641337       9.0000000000
966 1       7.3945253397       9.0000000000
967 1       7.0341483497      10.0000000000
968 1       7.4207594593       9.0000000000
969 1       7.3441455889       9.0000000000
970 1       7.9379198385       9.0000000000
971 1       8.3431864281      10.0000000000
972 1       6.6220214345       8.0000000000
973 1       7.4631825335       8.0000000000
974 1       7.4571269423      10.0000000000
975 1       7.5933683381       8.0000000000
976 1       7.6011333840      10.0000000000
977 1       6.7667718081      10.0000000000
978 1       6.8267425142       9.0000000000
979 1       7.4738540763       9.0000000000
980 1       7.3536645498       9.0000000000
981 1       7.3612609320       8.0000000000
982 1       7.2379975593       9.0000000000
983 1       6.9840563398       9.0000000000
984 1       6.9712285017       9.0000000000
985 1       7.1054036430      10.0000000000
986 1       7.3959764184      10.0000000000
987 1       6.9975914215       9.0000000000
988 1       6.8339182344       8.0000000000
989 1       7.7083166165      10.0000000000
990 1       7.3903709244       9.0000000000
991 1       7.1920942528       7.0000000000
992 1       8.2352665763      10.0000000000
993 1       7.3099483381       9.0000000000
994 1       7.4764976634       9.0000000000
995 1       7.1322808975       8.0000000000
996 1       6.8518915560       9.0000000000
997 1       7.5116199115       7.0000000000
998 1       8.4417267072       8.0000000000
999 1       7.0246792442       9.0000000000
1000 1       8.0471406872      10.0000000000
1001 1       6.9794879031      10.0000000000
1002 1       7.6457665274       9.0000000000
1003 1       7.9346995812      10.0000000000
1004 1       6.8666887448       9.0000000000
1005 1       7.8581063269      14.0000000000
1006 1       7.1061593254      11.0000000000
1007 1       6.9844888813       8.0000000000
1008 1       7.4491778479      10.0000000000
1009 1       6.9570853870       9.0000000000
1010 1       6.8463160413       9.0000000000
1011 1       7.7590266891      12.0000000000
1012 1       7.2480583362       9.0000000000
1013 1       7.9018651213       9.0000000000
1014 1       7.0156875475       9.0000000000
1015 1       7.2450241688       8.0000000000
1016 1       7.4752596331      10.0000000000
1017 1       7.4447263639       7.0000000000
1018 1       7.1097295060       7.0000000000
1019 1       7.3396002170       8.0000000000
1020 1       7.3169134572       7.0000000000
1021 1       7.3485150866       9.0000000000
1022 1       7.0744344554       9.0000000000
1023 1       7.5239772956       7.0000000000
1024 1       7.3188055137       8.0000000000
1025 1       7.4141945395      11.0000000000
1026 1       8.0841917346       8.0000000000
1027 1       7.0921323034      10.0000000000
1028 1       7.4834202630       9.0000000000
1029 1       7.6032202259       9.0000000000
1030 1       7.3168117601      11.0000000000
1031 1       6.8915341846       9.0000000000
1032 1       7.4245712161       9.0000000000
1033 1       7.4961039333       7.0000000000
1034 1       7.1461155873       8.0000000000
1035 1       7.3987184338       9.0000000000
1036 1       7.4330472272       8.0000000000
1037 1       6.9186771562      12.0000000000
1038 1       7.5787294140       9.0000000000
1039 1       6.9444641612      10.0000000000
1040 1       7.6716583674       8.0000000000
1041 1       7.2884524925       8.0000000000
1042 1       7.4143777778       9.0000000000
1043 1       7.7090322712      11.0000000000
1044 1       7.1329660697       9.0000000000
1045 1       7.1775580287      12.0000000000
1046 1       6.6679171302       9.0000000000
1047 1       7.5012286392       9.0000000000
1048 1       7.8069064289       9.0000000000
1049 1       7.1701243064       9.0000000000
1050 1       7.0392560680      10.0000000000
1051 1       7.5725327831       8.0000000000
1052 1       6.8549727818       8.0000000000
1053 1       7.2098445629       8.0000000000
1054 1       7.2662448185       8.0000000000
1055 1       7.2970838973       7.0000000000
1056 1       7.5731163346      11.0000000000
1057 1       7.5498753504       9.0000000000
1058 1       6.7688736764       9.0000000000
1059 1       7.1841000990      10.0000000000
1060 1       7.1258504793      11.0000000000
1061 1       7.4035215375       8.0000000000
1062 1       7.1342203978       6.0000000000
1063 1       7.4721647342       9.0000000000
1064 1       7.0631654032       8.0000000000
1065 1       7.6262890867      10.0000000000
1066 1       6.9209557155       9.0000000000
1067 1       6.5417278689       8.0000000000
1068 1       7.5659584057       8.0000000000
1069 1       8.0275553939       9.0000000000
1070 1       7.4935059652       7.0000000000
1071 1       7.6663281730       9.0000000000
1072 1       7.6148192789      10.0000000000
1073 1       7.5038442457       8.0000000000
1074 1       6.9237827934       8.0000000000
1075 1       7.2840030223       6.0000000000
1076 1       7.9614839478       9.0000000000
1077 1       7.1984317987       8.0000000000
1078 1       6.8951161541       9.0000000000
1079 1       6.9496239015       9.0000000000
1080 1       7.0399939863       8.0000000000
1081 1       7.3480915134       6.0000000000
1082 1       7.3590096938       8.0000000000
1083 1       7.6946600050      10.0000000000
1084 1       7.9327912971      10.0000000000
1085 1       7.2189664995       9.0000000000
1086 1       7.4157716508      11.0000000000
1087 1       7.1790108735       9.0000000000
1088 1       7.5951909602      10.0000000000
1089 1       7.1603490211       9.0000000000
1090 1       7.3738130237       9.0000000000
1091 1       7.2673530350       9.0000000000
1092 1       7.1479861107       8.0000000000
1093 1       7.3095931267       8.0000000000
1094 1       7.7326388510       9.0000000000
1095 1       7.5753186660       8.0000000000
1096 1       7.1792557407       7.0000000000
1097 1       7.8319767338      11.0000000000
1098 1       7.4888176455       8.0000000000
1099 1       6.8606264181      11.0000000000
1100 1       7.4377737560      12.0000000000
1101 1       7.6726277396       9.0000000000
1102 1       8.0324234479       7.0000000000
1103 1       7.0654299324       9.0000000000
1104 1       7.8464945353      11.0000000000
1105 1       7.6867249714       8.0000000000
1106 1       7.1909973760       9.0000000000
1107 1       7.3991632377      10.0000000000
1108 1       7.7835950846       9.0000000000
1109 1       7.3887962581       9.0000000000
1110 1       7.7404927245       7.0000000000
1111 1       7.6166864829      10.0000000000
1112 1       7.5257763861       9.0000000000
1113 1       7.1527583961      10.0000000000
1114 1       7.1061980757       7.0000000000
1115 1       7.1256764974       8.0000000000
1116 1       7.4433905612      11.0000000000
1117 1       7.9364210578      10.0000000000
1118 1       6.9479503298       9.0000000000
1119 1       7.5170324862      11.0000000000
1120 1       7.4514041398       9.0000000000
1121 1       7.3951949703       7.0000000000
1122 1       7.0532711223       8.0000000000
1123 1       7.7512682084       8.0000000000
1124 1       7.4241337367       7.0000000000
1125 1       8.0107682929      11.0000000000
1126 1       7.4613098803      11.0000000000
1127 1       7.2194584253      10.0000000000
1128 1       6.9299485787       9.0000000000
1129 1       7.4739771289      11.0000000000
1130 1       8.0103784245       9.0000000000
1131 1       7.6807536088       8.0000000000
1132 1       7.2984958035       8.0000000000
1133 1       7.6034700504       8.0000000000
1134 1       7.6252356990      10.0000000000
1135 1       7.5406302704      12.0000000000
1136 1       7.0327638348       8.0000000000
1137 1       7.0913069016      10.0000000000
1138 1       7.1421365461       8.0000000000
1139 1       7.7152838531       9.0000000000
1140 1       7.7103635616       9.0000000000
1141 1       6.9665066138       8.0000000000
1142 1       6.8449444011       9.0000000000
1143 1       7.8930772603      10.0000000000
1144 1       7.2639099514       9.0000000000
1145 1       7.1738442423       8.0000000000
1146 1       7.5435728272       9.0000000000
1147 1       7.9349478364      11.0000000000
1148 1       6.5714227859       8.0000000000
1149 1       7.3132778246       7.0000000000
1150 1       7.2601467323      10.0000000000
1151 1       7.6602710589       9.0000000000
1152 1       7.5512650142       8.0000000000
1153 1       7.3595808330      10.0000000000
1154 1       7.3929188849      10.0000000000
1155 1       7.2814708142       9.0000000000
1156 1       7.6847262813       7.0000000000
1157 1       7.7068988917      11.0000000000
1158 1       7.4827559987      10.0000000000
1159 1       7.3450469910       8.0000000000
1160 1       7.5126929844      10.0000000000
1161 1       6.7073234081      10.0000000000
1162 1       7.1991602801       8.0000000000
1163 1       7.3578741143      10.0000000000
1164 1       7.3933352365       9.0000000000
1165 1       7.4965367968       9.0000000000
1166 1       7.3982137329       9.0000000000
1167 1       7.3577167856       9.0000000000
1168 1       6.8996803292       9.0000000000
1169 1       7.1796510630       9.0000000000
1170 1       7.3312775404       8.0000000000
1171 1       6.8623355527       8.0000000000
1172 1       7.6923816630       8.0000000000
1173 1       6.8537758828       7.0000000000
1174 1       7.3337368548       8.0000000000
1175 1       7.2152491080       8.0000000000
1176 1       6.5185390458       8.0000000000
1177 1       7.2031659313      11.0000000000
1178 1       7.4995188661       9.0000000000
1179 1       7.6529326165       8.0000000000
1180 1       7.0772460318       8.0000000000
1181 1       7.3071423384       9.0000000000
1182 1       7.5188706663      11.0000000000
1183 1       7.7788107288       8.0000000000
1184 1       7.5554649515      10.0000000000
1185 1       7.4157728177      10.0000000000
1186 1       7.4085610840      10.0000000000
1187 1       7.2813118457      10.0000000000
1188 1       7.0888588000       7.0000000000
1189 1       7.4875507847       9.0000000000
1190 1       7.0644651149       8.0000000000
1191 1       7.3352162733       8.0000000000
1192 1       7.3811786650       7.0000000000
1193 1       6.8646880898       8.0000000000
1194 1       7.3749372183       6.0000000000
1195 1       6.8660598913       7.0000000000
1196 1       7.3692684138       9.0000000000
1197 1       7.5088180130       8.0000000000
1198 1       7.9092708689      11.0000000000
1199 1       7.0172621844      10.0000000000
1200 1       7.3464330926       8.0000000000
1201 1       7.3018823074       8.0000000000
1202 1       7.3145854580       9.0000000000
1203 1       7.5701082931       9.0000000000
1204 1       6.9681762837      12.0000000000
1205 1       7.0533613088      11.0000000000
1206 1       6.8850814464       8.0000000000
1207 1       7.0398747770      10.0000000000
1208 1       7.9653522773      11.0000000000
1209 1       7.7162307626      10.0000000000
1210 1       7.7652335665       9.0000000000
1211 1       7.2754017463       8.0000000000
1212 1       7.6651426860       9.0000000000
1213 1       7.0224995737      10.0000000000
1214 1       7.4280652267       9.0000000000
1215 1       7.4692446425       9.0000000000
1216 1       8.1943211412       8.0000000000
1217 1       7.3743412337      10.0000000000
1218 1       7.7902724549       7.0000000000
1219 1       7.3724869206       8.0000000000
1220 1       7.0454679965       9.0000000000
1221 1       7.3798271329       9.0000000000
1222 1       7.4267428132       8.0000000000
1223 1       7.7015642134      11.0000000000
1224 1       6.8792045697       9.0000000000
1225 1       7.7209150702       8.0000000000
1226 1       6.9963220983       9.0000000000
1227 1       6.9517584022       8.0000000000
1228 1       7.1006173149      10.0000000000
1229 1       7.4568587705      10.0000000000
1230 1       7.6100262782       9.0000000000
1231 1       7.5191674377       9.0000000000
1232 1       8.3439503041      10.0000000000
1233 1       7.6088074874      10.0000000000
1234 1       7.6380338651       8.0000000000
1235 1       7.8994954873      11.0000000000
1236 1       6.7616476819      12.0000000000
1237 1       7.0469420372       9.0000000000
1238 1       7.0116642137       8.0000000000
1239 1       7.3345371907       9.0000000000
1240 1       7.8402454079       6.0000000000
1241 1       7.4139976768       8.0000000000
1242 1       7.3483066796      12.0000000000
1243 1       7.1646008521       7.0000000000
1244 1       6.9827317967       9.0000000000
1245 1       7.1943985947       9.0000000000
1246 1       7.1627025625      10.0000000000
1247 1       7.6445278187      10.0000000000
1248 1       7.1867686166       9.0000000000
1249 1       7.3768430930       9.0000000000
1250 1       7.3041474130      11.0000000000
1251 1       7.8262311457       8.0000000000
1252 1       7.9007752883      12.0000000000
1253 1       7.7051353083       8.0000000000
1254 1       7.9243470229      11.0000000000
1255 1       7.8240799551       9.0000000000
1256 1       7.4769580327       7.0000000000
1257 1       7.1878039947       8.0000000000
1258 1       7.4705795128      10.0000000000
1259 1       7.4868751527       8.0000000000
1260 1       7.3592872734      10.0000000000
1261 1       7.0372015227       8.0000000000
1262 1       7.7904120662       9.0000000000
1263 1       7.0282665377       8.0000000000
1264 1       7.5630229910      12.0000000000
1265 1       7.7401557048       9.0000000000
1266 1       7.6621527751       9.0000000000
1267 1       7.0819592154       7.0000000000
1268 1       6.8699709547       9.0000000000
1269 1       7.3698332118      10.0000000000
1270 1       7.3676423206       9.0000000000
1271 1       7.5201875136      11.0000000000
1272 1       7.5079759054       9.0000000000
1273 1       7.7290777539      11.0000000000
1274 1       7.6405981454      10.0000000000
1275 1       7.4993709715       9.0000000000
1276 1       7.1751532324       9.0000000000
1277 1       7.3519899208       9.0000000000
1278 1       7.1391364073      10.0000000000
1279 1       7.7239788962      10.0000000000
1280 1       7.2854564173       9.0000000000
1281 1       6.8809601924      10.0000000000
1282 1       7.2461318398       9.0000000000
1283 1       6.8809592913       8.0000000000
1284 1       7.0812496860       9.0000000000
1285 1       7.2442091345       9.0000000000
1286 1       7.0803482959       8.0000000000
1287 1       7.0987901399       9.0000000000
1288 1       7.3925631357      11.0000000000
1289 1       7.3963003783      10.0000000000
1290 1       7.4340243918      10.0000000000
1291 1       7.0303216344       7.0000000000
1292 1       7.5860379951       7.0000000000
1293 1       7.2156378378       8.0000000000
1294 1       7.4568177822       8.0000000000
1295 1       7.3808715071       7.0000000000
1296 1       7.2209805946       9.0000000000
1297 1       7.2376243075      11.0000000000
1298 1       6.8398263369       8.0000000000
1299 1       7.1663484594       9.0000000000
1300 1       7.5928366552       9.0000000000
1301 1       7.4148717017      10.0000000000
1302 1       7.3704168527       9.0000000000
1303 1       6.6604632179       8.0000000000
1304 1       7.7802136029      10.0000000000
1305 1       7.3239979005      11.0000000000
1306 1       6.8888089545      10.0000000000
1307 1       8.1127437071       8.0000000000
1308 1       7.2662029938       9.0000000000
1309 1       7.7024659397       9.0000000000
1310 1       7.2656404258       8.0000000000
1311 1       7.8878906893       9.0000000000
1312 1       7.0353302537      10.0000000000
1313 1       7.5566420096       9.0000000000
1314 1       7.3057714035       9.0000000000
1315 1       7.1024708744       9.0000000000
1316 1       7.4371530231      10.0000000000
1317 1       7.5646207285       8.0000000000
1318 1       7.2240449486       8.0000000000
1319 1       7.7598925101       9.0000000000
1320 1       7.5345567909       9.0000000000
1321 1       7.3234713997      10.0000000000
1322 1       7.1434409846      11.0000000000
1323 1       7.7544823478       8.0000000000
1324 1       7.0431099153       9.0000000000
1325 1       8.0626518820       9.0000000000
1326 1       7.6666060768      11.0000000000
1327 1       7.2006581160      10.0000000000
1328 1       6.9373421599       7.0000000000
1329 1       8.3809686529      12.0000000000
1330 1       6.8778630841       9.0000000000
1331 1       7.7462027338      12.0000000000
1332 1       7.3339537004      11.0000000000
1333 1       8.0545862734      11.0000000000
1334 1       7.1593669368      10.0000000000
1335 1       7.0017011691       7.0000000000
1336 1       7.4387971338      10.0000000000
1337 1       7.6515987654      10.0000000000
1338 1       7.2557320826       7.0000000000
1339 1       7.1046719249       8.0000000000
1340 1       6.9264964712       9.0000000000
1341 1       7.4535456885       7.0000000000
1342 1       7.7901763569      10.0000000000
1343 1       7.0242764596       8.0000000000
1344 1       7.0644756048      10.0000000000
1345 1       8.1970880436       8.0000000000
1346 1       7.2806091108       9.0000000000
1347 1       7.1489985936       8.0000000000
1348 1       7.6852487379      11.0000000000
1349 1       7.0063038919       7.0000000000
1350 1       6.9259096615       8.0000000000
1351 1       6.6325503589       8.0000000000
1352 1       7.0242924399       9.0000000000
1353 1       7.0721069911       8.0000000000
1354 1       7.2096848237       9.0000000000
1355 1       7.3375702526       8.0000000000
1356 1       7.6692968367       8.0000000000
1357 1       7.4348415156      12.0000000000
1358 1       7.0045083715      10.0000000000
1359 1       7.4255239213      10.0000000000
1360 1       7.6959264491      11.0000000000
1361 1       7.1565865111       9.0000000000
1362 1       6.7738476609       9.0000000000
1363 1       7.2478396934       8.0000000000
1364 1       7.5751220109       9.0000000000
1365 1       7.4465079385      11.0000000000
1366 1       7.4964781161      10.0000000000
1367 1       7.6447552515       9.0000000000
1368 1       7.1119179719       8.0000000000
1369 1       6.7108670344       7.0000000000
1370 1       7.2630586135       8.0000000000
1371 1       7.4678432429      10.0000000000
1372 1       7.9771360298       7.0000000000
1373 1       7.2617028180       8.0000000000
1374 1       7.9170341068       9.0000000000
1375 1       7.5171774615       7.0000000000
1376 1       7.5044945514       8.0000000000
1377 1       6.3567636494      10.0000000000
1378 1       7.6315717743       9.0000000000
1379 1       7.1984643918      10.0000000000
1380 1       7.0867298675       9.0000000000
1381 1       7.6272871139      11.0000000000
1382 1       6.9487000620      10.0000000000
1383 1       7.6083217968       8.0000000000
1384 1       7.4421537979       8.0000000000
1385 1       6.7513367288       9.0000000000
1386 1       7.4537558268       9.0000000000
1387 1       7.4829461852       9.0000000000
1388 1       7.5181904345       8.0000000000
1389 1       7.8286939868       8.0000000000
1390 1       7.1450326280       9.0000000000
1391 1       7.3816536730       9.0000000000
1392 1       7.1136455622       8.0000000000
1393 1       7.0498220914       7.0000000000
1394 1       7.5529041964       9.0000000000
1395 1       8.4429205396       9.0000000000
1396 1       7.2485504802       9.0000000000
1397 1       7.3300421014       8.0000000000
1398 1       7.2080149152       9.0000000000
1399 1       7.0818432446       8.0000000000
1400 1       7.4198347658       9.0000000000
1401 1       7.5777480280      10.0000000000
1402 1       7.0775216942       8.0000000000
1403 1       8.0696188611       9.0000000000
1404 1       7.2181135840       9.0000000000
1405 1       7.6329836403       7.0000000000
1406 1       7.3644017101       8.0000000000
1407 1       7.2819806044      11.0000000000
1408 1       7.7799630495       8.0000000000
1409 1       8.1341489602      11.0000000000
1410 1       7.2740058645       7.0000000000
1411 1       7.6491778973      10.0000000000
1412 1       7.1450340512       9.0000000000
1413 1       7.8116417314       8.0000000000
1414 1       7.5751325155       8.0000000000
1415 1       6.9077539786       9.0000000000
1416 1       7.1511975772       7.0000000000
1417 1       7.5832828766       9.0000000000
1418 1       6.7760224651       9.0000000000
1419 1       7.8729595472      11.0000000000
1420 1       7.4925366002       9.0000000000
1421 1       7.6407316560       9.0000000000
1422 1       7.3147761725       8.0000000000
1423 1       6.9550521565       9.0000000000
1424 1       7.6737680968       7.0000000000
1425 1       7.1218355865      12.0000000000
1426 1       7.5531906214       9.0000000000
1427 1       8.1849479707       9.0000000000
1428 1       6.6942223165       9.0000000000
1429 1       7.6000065367      11.0000000000
1430 1       7.1861627534      10.0000000000
1431 1       7.4127003467       9.0000000000
1432 1       7.5840315092      10.0000000000
1433 1       7.2873930918      11.0000000000
1434 1       7.4503686181       8.0000000000
1435 1       7.3100983279      10.0000000000
1436 1       6.9419673902      11.0000000000
1437 1       7.2113884266       9.0000000000
1438 1       7.2581012170      11.0000000000
1439 1       7.4942358325       9.0000000000
1440 1       7.0334261192       9.0000000000
1441 1       7.1250302123       8.0000000000
1442 1       7.2766796350       8.0000000000
1443 1       6.9568633672       9.0000000000
1444 1       7.8865122684      11.0000000000
1445 1       7.8195471813       9.0000000000
1446 1       7.3621261010       8.0000000000
1447 1       7.1257828668       6.0000000000
1448 1       7.2386703432       7.0000000000
1449 1       7.2812132181      10.0000000000
1450 1       7.1136173587       8.0000000000
1451 1       7.3166044373       8.0000000000
1452 1       7.5631645562       9.0000000000
1453 1       7.2227558214      10.0000000000
1454 1       6.6767505587       8.0000000000
1455 1       7.7607503182      11.0000000000
1456 1       7.3857983790       9.0000000000
1457 1       7.7479949610       9.0000000000
1458 1       7.6883107011       8.0000000000
1459 1       7.6133011913       9.0000000000
1460 1       6.8680793540       7.0000000000
1461 1       7.2879897219       9.0000000000
1462 1       7.0749757006       9.0000000000
1463 1       7.5175260044       7.0000000000
1464 1       7.4333039558       7.0000000000
1465 1       7.4753614044      11.0000000000
1466 1       7.7102715803       8.0000000000
1467 1       8.1314439892       8.0000000000
1468 1       6.9231843572       8.0000000000
1469 1       6.6844074900       7.0000000000
1470 1       7.2338836070       9.0000000000
1471 1       7.3798163016       9.0000000000
1472 1       7.2026425421       8.0000000000
1473 1       6.9203045559       9.0000000000
1474 1       7.8874874626       9.0000000000
1475 1       7.1171990571      10.0000000000
1476 1       7.5436681899       7.0000000000
1477 1       7.7246271026       9.0000000000
1478 1       7.5037009883      10.0000000000
1479 1       7.5727235837       7.0000000000
1480 1       7.0145909341       9.0000000000
1481 1       7.1872498329       9.0000000000
1482 1       6.9834241523       7.0000000000
1483 1       7.5262943539       9.0000000000
1484 1       7.4139407408       7.0000000000
1485 1       7.3215760695       9.0000000000
1486 1       6.9731114222      10.0000000000
1487 1       7.1453554531       8.0000000000
1488 1       7.4413197250      11.0000000000
1489 1       7.2602280686      10.0000000000
1490 1       7.3652429411       9.0000000000
1491 1       7.4263322449       8.0000000000
1492 1       7.4228721311      10.0000000000
1493 1       6.8233642767      10.0000000000
1494 1       7.2866625141       9.0000000000
1495 1       8.0082641096      12.0000000000
1496 1       7.3707845955       6.0000000000
1497 1       7.2945021139       8.0000000000
1498 1       7.2488615978       9.0000000000
1499 1       7.1009934300      11.0000000000
1500 1       7.3760837935       9.0000000000
1501 1       7.9978584481       9.0000000000
1502 1       7.4337022397       7.0000000000
1503 1       6.9685791534      10.0000000000
1504 1       7.1292398159      10.0000000000
1505 1       7.4724513408       8.0000000000
1506 1       7.5237366801      10.0000000000
1507 1       7.1222315314       8.0000000000
1508 1       7.2692478085       8.0000000000
1509 1       7.0753148422       9.0000000000
1510 1       7.5093567379      12.0000000000
1511 1       7.4158834103      10.0000000000
1512 1       7.1721814389       8.0000000000
1513 1       7.5644942745       9.0000000000
1514 1       7.0535128216       8.0000000000
1515 1       7.0215194061       9.0000000000
1516 1       7.6585900639       7.0000000000
1517 1       6.9056317065       9.0000000000
1518 1       6.9171643449      10.0000000000
1519 1       7.0918710484      10.0000000000
1520 1       7.3552635198       9.0000000000
1521 1       7.2802036871      11.0000000000
1522 1       7.4978382252       9.0000000000
1523 1       7.6019347246       7.0000000000
1524 1       6.9786831698       9.0000000000
1525 1       6.5621200594       9.0000000000
1526 1       8.4452226132       9.0000000000
1527 1       7.1698874329       8.0000000000
1528 1       7.1347220287      10.0000000000
1529 1       7.2046933271       8.0000000000
1530 1       7.4407754430       8.0000000000
1531 1       7.0256823442       9.0000000000
1532 1       7.5781323007       9.0000000000
1533 1       7.2390933555      10.0000000000
1534 1       7.0882912091       7.0000000000
1535 1       7.3272411096       8.0000000000
1536 1       7.8660416431       9.0000000000
1537 1       7.4256948880       9.0000000000
1538 1       7.5451252038      10.0000000000
1539 1       7.4198223976       7.0000000000
1540 1       7.4730752322       9.0000000000
1541 1       7.0826096209       8.0000000000
1542 1       7.3465074436       9.0000000000
1543 1       7.2508937569       9.0000000000
1544 1       7.3295001278      10.0000000000
1545 1       7.1249915695      10.0000000000
1546 1       7.2845785889       8.0000000000
1547 1       7.1296045037       9.0000000000
1548 1       7.4148489473       9.0000000000
1549 1       7.2325070010       9.0000000000
1550 1       6.9174908574       8.0000000000
1551 1       7.2073863800       8.0000000000
1552 1       7.2510025832       7.0000000000
1553 1       6.9010314236       8.0000000000
1554 1       7.1234797515       8.0000000000
1555 1       7.2024898140       8.0000000000
1556 1       7.5716847695       8.0000000000
1557 1       7.3095788300      11.0000000000
1558 1       7.3043683572       6.0000000000
1559 1       7.2940046790      10.0000000000
1560 1       7.5512361503      10.0000000000
1561 1       7.1529554533       8.0000000000
1562 1       7.5652269518      11.0000000000
1563 1       7.4645230459       9.0000000000
1564 1       7.6224431103      10.0000000000
1565 1       7.4537233267      10.0000000000
1566 1       7.5531990797       9.0000000000
1567 1       7.7599760404      11.0000000000
1568 1       7.4487380628       9.0000000000
1569 1       7.5061375221      11.0000000000
1570 1       7.2212812215       9.0000000000
1571 1       7.2846482498       8.0000000000
1572 1       7.5142849529       9.0000000000
1573 1       7.6802361029       8.0000000000
1574 1       7.5655232442       9.0000000000
1575 1       7.2762326874      10.0000000000
1576 1       7.5591483469      10.0000000000
1577 1       6.8811633760      10.0000000000
1578 1       7.7504380279       9.0000000000
1579 1       7.8085079295      11.0000000000
1580 1       7.2746106275       9.0000000000
1581 1       7.4666840735       9.0000000000
1582 1       7.5324919541      10.0000000000
1583 1       7.2050061099       7.0000000000
1584 1       7.3939403647      11.0000000000
1585 1       7.3974722111      10.0000000000
1586 1       7.0836495537       8.0000000000
1587 1       7.1345110635       8.0000000000
1588 1       7.8526394981      10.0000000000
1589 1       6.8731510629       9.0000000000
1590 1       7.5789015186      10.0000000000
1591 1       6.8980710936      10.0000000000
1592 1       7.7485420328       8.0000000000
1593 1       7.4112397663       7.0000000000
1594 1       8.1147765359       8.0000000000
1595 1       7.2534648809      11.0000000000
1596 1       7.4776862812      10.0000000000
1597 1       7.4260389293       8.0000000000
1598 1       7.8300175387       9.0000000000
1599 1       7.2512410395       6.0000000000
1600 1       7.6962999687      12.0000000000
1601 1       7.5742501480      10.0000000000
1602 1       6.9505262310      10.0000000000
1603 1       6.7285408164       9.0000000000
1604 1       7.4209398518      11.0000000000
1605 1       7.7661760336      10.0000000000
1606 1       7.7176471332      13.0000000000
1607 1       7.2285132493       9.0000000000
1608 1       7.0903836432       8.0000000000
1609 1       7.6203366600      10.0000000000
1610 1       7.4453114277      11.0000000000
1611 1       7.2644001511       9.0000000000
1612 1       7.1621318539      10.0000000000
1613 1       7.3000216065       8.0000000000
1614 1       6.9623778202       9.0000000000
1615 1       7.6734061140       9.0000000000
1616 1       7.1296718559       8.0000000000
1617 1       6.9993910993      11.0000000000
1618 1       7.3687373689      10.0000000000
1619 1       7.1036124625      10.0000000000
1620 1       7.6034843267       9.0000000000
1621 1       6.9955149718       9.0000000000
1622 1       7.1821097058       8.0000000000
1623 1       7.6643924420       9.0000000000
1624 1       6.9307103650       9.0000000000
1625 1       7.5325685349       8.0000000000
1626 1       7.3984984564      10.0000000000
1627 1       8.0136957452      10.0000000000
1628 1       7.7091743975       9.0000000000
1629 1       7.6046119787      10.0000000000
1630 1       7.3662314246       7.0000000000
1631 1       7.5542831569       9.0000000000
1632 1       7.4140602567       8.0000000000
1633 1       7.1416417376      11.0000000000
1634 1       7.7284068115       7.0000000000
1635 1       7.5516141060       9.0000000000
1636 1       7.0261305552      10.0000000000
1637 1       7.2665122079      10.0000000000
1638 1       7.4852773633       8.0000000000
1639 1       7.4280644776      10.0000000000
1640 1       7.3096692823       8.0000000000
1641 1       7.0037676267       8.0000000000
1642 1       6.6422997430       8.0000000000
1643 1       7.3418464105       8.0000000000
1644 1       7.3540249838       8.0000000000
1645 1       7.1991437482      10.0000000000
1646 1       7.3108092777      10.0000000000
1647 1       7.4771103201      10.0000000000
1648 1       6.8290185894       8.0000000000
1649 1       6.6929899669       8.0000000000
1650 1       7.0253163941       9.0000000000
1651 1       7.6696224327      10.0000000000
1652 1       7.3357878827      11.0000000000
1653 1       7.0005320475       9.0000000000
1654 1       7.3432274449       8.0000000000
1655 1       7.7736413830       8.0000000000
1656 1       7.2955965369       8.0000000000
1657 1       6.8629821021      10.0000000000
1658 1       6.9651441956      10.0000000000
1659 1       7.2799983753      10.0000000000
1660 1       7.3811955444       9.0000000000
1661 1       7.5101422909      10.0000000000
1662 1       7.1935924048       9.0000000000
1663 1       6.7870267086       8.0000000000
1664 1       6.4542696359       8.0000000000
1665 1       7.0045412875       9.0000000000
1666 1       7.3118483261       9.0000000000
1667 1       7.3761996142      11.0000000000
1668 1       8.1524055393      14.0000000000
1669 1       7.4525947693       9.0000000000
1670 1       7.3033634361      10.0000000000
1671 1       7.6335974236       9.0000000000
1672 1       7.4757131848      11.0000000000
1673 1       7.3230152229       9.0000000000
1674 1       7.1587838631      10.0000000000
1675 1       6.7282774836       8.0000000000
1676 1       7.2029717661      10.0000000000
1677 1       6.9863335866       9.0000000000
1678 1       7.3796399845      11.0000000000
1679 1       7.5204034647      12.0000000000
1680 1       6.9709933258       9.0000000000
1681 1       7.3445398482       9.0000000000
1682 1       8.1101565651       9.0000000000
1683 1       8.0643528382      10.0000000000
1684 1       7.2037842372       7.0000000000
1685 1       7.3035169104       9.0000000000
1686 1       7.4652650310       8.0000000000
1687 1       6.9732516768      10.0000000000
1688 1       6.9883220207       9.0000000000
1689 1       7.0648517283       8.0000000000
1690 1       7.2168394373       7.0000000000
1691 1       7.5552723503      10.0000000000
1692 1       7.3798636119       8.0000000000
1693 1       7.4201354054      10.0000000000
1694 1       7.4573835276      10.0000000000
1695 1       7.2175606854      10.0000000000
1696 1       7.3225997423       9.0000000000
1697 1       7.2729060703      11.0000000000
1698 1       6.9734333325       9.0000000000
1699 1       7.2232461702      10.0000000000
1700 1       7.4324572932      10.0000000000
1701 1       7.1308928332       8.0000000000
1702 1       7.5177907805       9.0000000000
1703 1       7.2620934840       8.0000000000
1704 1       7.2015445455       7.0000000000
1705 1       7.6787932307       9.0000000000
1706 1       6.9484877831      10.0000000000
1707 1       7.1421171079      10.0000000000
1708 1       7.0257034897      10.0000000000
1709 1       7.2893862468       9.0000000000
1710 1       7.8322646296      12.0000000000
1711 1       7.2487061492      10.0000000000
1712 1       7.5060904495       9.0000000000
1713 1       6.9151518498       8.0000000000
1714 1       7.1675404827      10.0000000000
1715 1       7.3621791608       7.0000000000
1716 1       7.3048989573       7.0000000000
1717 1       6.8102370865       8.0000000000
1718 1       6.8677983969      11.0000000000
1719 1       7.6825379407      12.0000000000
1720 1       7.6373505811      11.0000000000
1721 1       7.8678676263       8.0000000000
1722 1       7.0499266958       9.0000000000
1723 1       7.4905156526       8.0000000000
1724 1       7.2995594668       8.0000000000
1725 1       7.2730810525      10.0000000000
1726 1       7.7335328572       8.0000000000
1727 1       7.2047958523       8.0000000000
1728 1       7.2742530595      10.0000000000
1729 1       6.9766371348       9.0000000000
1730 1       7.8506924428      10.0000000000
1731 1       7.5215551295       8.0000000000
1732 1       7.1733796338      10.0000000000
1733 1       7.7531826086      11.0000000000
1734 1       7.1156966757      10.0000000000
1735 1       8.0011453516      11.0000000000
1736 1       7.6148746067       8.0000000000
1737 1       7.5355789159       9.0000000000
1738 1       7.2205093666       9.0000000000
1739 1       6.8791343924       9.0000000000
1740 1       7.4369507852       9.0000000000
1741 1       6.8314547038      10.0000000000
1742 1       7.0274185271       8.0000000000
1743 1       7.1595665397       9.0000000000
1744 1       7.2716127917       8.0000000000
1745 1       7.3477861345       8.0000000000
1746 1       7.1126236314       9.0000000000
1747 1       7.3389488032       9.0000000000
1748 1       7.2842253493       9.0000000000
1749 1       7.8316499695      11.0000000000
1750 1       7.6142234090      10.0000000000
1751 1       6.9824847679       9.0000000000
1752 1       7.4045044653      10.0000000000
1753 1       7.6655942343      11.0000000000
1754 1       7.8150592776       8.0000000000
1755 1       7.3734398270       8.0000000000
1756 1       7.4649217824       9.0000000000
1757 1       7.2856194272       7.0000000000
1758 1       7.4285778241       9.0000000000
1759 1       7.6031277111      11.0000000000
1760 1       7.2760641135       9.0000000000
1761 1       7.6585545677       8.0000000000
1762 1       6.8693216370      10.0000000000
1763 1       7.1923757157       7.0000000000
1764 1       7.0430635247       8.0000000000
1765 1       7.2788560492       6.0000000000
1766 1       7.3990003528       7.0000000000
1767 1       7.4392354396      10.0000000000
1768 1       7.5533517463      11.0000000000
1769 1       7.2665710076       7.0000000000
1770 1       6.8315724628       9.0000000000
1771 1       7.3755685991       8.0000000000
1772 1       7.5310267416      10.0000000000
1773 1       6.9520526773      11.0000000000
1774 1       7.0206033198       8.0000000000
1775 1       7.5669080340      10.0000000000
1776 1       7.3730029978      10.0000000000
1777 1       7.1228628904      11.0000000000
1778 1       7.3553125160       8.0000000000
1779 1       7.0057065883       8.0000000000
1780 1       7.3260653903       8.0000000000
1781 1       7.0287829946      10.0000000000
1782 1       7.6699551601      10.0000000000
1783 1       7.8256389564      11.0000000000
1784 1       7.5806809523       9.0000000000
1785 1       7.3712587402       9.0000000000
1786 1       7.0649240268      11.0000000000
1787 1       7.6156946712       8.0000000000
1788 1       7.3441078549       9.0000000000
1789 1       7.8488283459      11.0000000000
1790 1       6.8229002169       6.0000000000
1791 1       6.6708547452       8.0000000000
1792 1       6.8887032571       8.0000000000
1793 1       7.3062656347      10.0000000000
1794 1       7.3755837328       7.0000000000
1795 1       7.4833353237       7.0000000000
1796 1       7.2201541863       9.0000000000
1797 1       7.0713480744      11.0000000000
1798 1       8.1705662260       8.0000000000
1799 1       7.6505506727       8.0000000000
1800 1       7.4428622128      10.0000000000
1801 1       7.4605567816       7.0000000000
1802 1       7.1713634181       8.0000000000
1803 1       7.3710444111       9.0000000000
1804 1       8.0171213575      10.0000000000
1805 1       7.0061904788       8.0000000000
1806 1       7.6690182010      11.0000000000
1807 1       7.2692769900       9.0000000000
1808 1       7.4120128600      11.0000000000
1809 1       7.3394867630       9.0000000000
1810 1       7.0058465371       8.0000000000
1811 1       7.5793232403       8.0000000000
1812 1       7.1216249048       9.0000000000
1813 1       6.9601832115      10.0000000000
1814 1       7.2562988162      10.0000000000
1815 1       7.0695764948       8.0000000000
1816 1       6.7066729371       8.0000000000
1817 1       6.9187907670       9.0000000000
1818 1       7.0726449420       9.0000000000
1819 1       7.0894092724       9.0000000000
1820 1       7.3443757184       8.0000000000
1821 1       7.8841385046       9.0000000000
1822 1       7.5991455895       7.0000000000
1823 1       7.9492857483      10.0000000000
1824 1       7.1060621922       8.0000000000
1825 1       7.0500970757       7.0000000000
1826 1       7.5641885525       8.0000000000
1827 1       7.3187572929      10.0000000000
1828 1       7.1560279230       8.0000000000
1829 1       7.7995880955      10.0000000000
1830 1       7.6487249831       9.0000000000
1831 1       7.1905912673       8.0000000000
1832 1       6.9235865542       7.0000000000
1833 1       8.1164442286       9.0000000000
1834 1       7.8816815073       9.0000000000
1835 1       7.1852975869      11.0000000000
1836 1       7.0362766150       9.0000000000
1837 1       7.3573529414       9.0000000000
1838 1       7.5610298483       8.0000000000
1839 1       7.9697258936      10.0000000000
1840 1       7.2461030920       6.0000000000
1841 1       7.0641959725      10.0000000000
1842 1       7.3200700417       8.0000000000
1843 1       7.3134269787       9.0000000000
1844 1       7.7371306250       8.0000000000
1845 1       7.4109659326      10.0000000000
1846 1       7.2302944687       6.0000000000
1847 1       7.5014606080      12.0000000000
1848 1       7.7924196912       9.0000000000
1849 1       8.1455502947      11.0000000000
1850 1       7.3961217081      10.0000000000
1851 1       7.7070094122       9.0000000000
1852 1       6.9659951816       8.0000000000
1853 1       7.4936221017       9.0000000000
1854 1       7.1632777071       8.0000000000
1855 1       6.9272626060       9.0000000000
1856 1       7.9512845262       8.0000000000
1857 1       7.2773908233       9.0000000000
1858 1       7.3575242341       7.0000000000
1859 1       7.1284520558       7.0000000000
1860 1       7.2742539992       9.0000000000
1861 1       7.2819764225       9.0000000000
1862 1       7.4006033977      11.0000000000
1863 1       7.2567307125       9.0000000000
1864 1       7.3070043775      10.0000000000
1865 1       7.4932263311      10.0000000000
1866 1       7.4167092023       6.0000000000
1867 1       6.8309127571       9.0000000000
1868 1       7.1152999262       8.0000000000
1869 1       7.3768940350       8.0000000000
1870 1       7.6384754749       7.0000000000
1871 1       7.3602391494       9.0000000000
1872 1       7.1492883729       8.0000000000
1873 1       7.4708606300      11.0000000000
1874 1       7.4326452727       8.0000000000
1875 1       7.5379758244       8.0000000000
1876 1       7.8034475553       9.0000000000
1877 1       7.0718253475       9.0000000000
1878 1       7.4114279799       9.0000000000
1879 1       6.6925767358       9.0000000000
1880 1       7.8053476514      10.0000000000
1881 1       7.7376508116      11.0000000000
1882 1       7.1140610562      10.0000000000
1883 1       7.0345523789      11.0000000000
1884 1       6.6376110513       8.0000000000
1885 1       6.9065973517       8.0000000000
1886 1       7.4934990434       9.0000000000
1887 1       7.6107878718      11.0000000000
1888 1       7.7226214027      10.0000000000
1889 1       7.9722572663       9.0000000000
1890 1       7.4031526878      11.0000000000
1891 1       7.3980068497       7.0000000000
1892 1       7.3179849197      10.0000000000
1893 1       7.4210638622      11.0000000000
1894 1       7.2002739984       6.0000000000
1895 1       7.3762728498       8.0000000000
1896 1       6.8439330063       8.0000000000
1897 1       7.2659856844      10.0000000000
1898 1       7.6216772902      10.0000000000
1899 1       7.0959636153       9.0000000000
1900 1       7.0973003745       8.0000000000
1901 1       7.1497112947       8.0000000000
1902 1       7.4452549870       8.0000000000
1903 1       7.2402348472       7.0000000000
1904 1       6.9183285525       9.0000000000
1905 1       7.3033249349      11.0000000000
1906 1       7.5457497268       9.0000000000
1907 1       7.4724205609       9.0000000000
1908 1       8.3488366856      10.0000000000
1909 1       7.4284364685       9.0000000000
1910 1       7.4932580927       7.0000000000
1911 1       6.8878092592       8.0000000000
1912 1       7.3700449833       9.0000000000
1913 1       7.5778126284      10.0000000000
1914 1       6.9250216514       9.0000000000
1915 1       7.1990806188       9.0000000000
1916 1       7.2143806962       9.0000000000
1917 1       7.3170686346      10.0000000000
1918 1       7.7717066572       7.0000000000
1919 1       7.2531741412       7.0000000000
1920 1       7.4712942991       9.0000000000
1921 1       7.4418218986      10.0000000000
1922 1       7.4957170127       8.0000000000
1923 1       7.1273336410       9.0000000000
1924 1       7.0321462636       7.0000000000
1925 1       7.3495283406       9.0000000000
1926 1       7.1844288272       7.0000000000
1927 1       7.1460611868       9.0000000000
1928 1       7.0132319286       8.0000000000
1929 1       7.4333844645       7.0000000000
1930 1       7.7865275226       9.0000000000
1931 1       7.5574572559       8.0000000000
1932 1       7.2033507853       8.0000000000
1933 1       7.9507441642       9.0000000000
1934 1       7.7081620930      10.0000000000
1935 1       7.3888096792       9.0000000000
1936 1       7.6683347039      10.0000000000
1937 1       7.3613304588       9.0000000000
1938 1       7.5715791345      11.0000000000
1939 1       7.1996530014       9.0000000000
1940 1       6.6803682986       9.0000000000
1941 1       7.3148297088       8.0000000000
1942 1       7.8746437476       8.0000000000
1943 1       7.2369147378       9.0000000000
1944 1       6.9207148784       8.0000000000
1945 1       6.9750396866       8.0000000000
1946 1       7.3146977133       6.0000000000
1947 1       7.2345779239       8.0000000000
1948 1       6.9658609629       8.0000000000
1949 1       7.1889925551      12.0000000000
1950 1       7.0558887948       8.0000000000
1951 1       6.9662137580      10.0000000000
1952 1       7.0976756314       8.0000000000
1953 1       7.3946589380       8.0000000000
1954 1       7.4928190803       9.0000000000
1955 1       7.7302968249       8.0000000000
1956 1       7.8749134694      10.0000000000
1957 1       7.0715514848       9.0000000000
1958 1       6.9312273349       9.0000000000
1959 1       7.5503851110      11.0000000000
1960 1       7.0894449286       7.0000000000
1961 1       8.0305375901       9.0000000000
1962 1       7.1537365524       9.0000000000
1963 1       7.2277227217       8.0000000000
1964 1       7.6949594564      10.0000000000
1965 1       7.2277273930       8.0000000000
1966 1       7.1039987396       9.0000000000
1967 1       7.2025767715      11.0000000000
1968 1       7.3778898059       8.0000000000
1969 1       8.1281163313       9.0000000000
1970 1       7.5712478276       8.0000000000
1971 1       7.2054370684       9.0000000000
1972 1       7.1071823699      10.0000000000
1973 1       6.7708930591       7.0000000000
1974 1       6.9605888035       9.0000000000
1975 1       7.3716043618      13.0000000000
1976 1       7.3840927042       8.0000000000
1977 1       7.4408508656       9.0000000000
1978 1       7.0082738182       8.0000000000
1979 1       7.1967411173       7.0000000000
1980 1       7.2290752778      10.0000000000
1981 1       8.0556847051       9.0000000000
1982 1       7.9947664496      11.0000000000
1983 1       6.9499608755      10.0000000000
1984 1       6.7324954773       6.0000000000
1985 1       7.0541600913       9.0000000000
1986 1       7.3703621802       9.0000000000
1987 1       7.3724028784       8.0000000000
1988 1       7.3384474837       8.0000000000
1989 1       7.2421883894       8.0000000000
1990 1       7.4951787275       8.0000000000
1991 1       7.0465151852      11.0000000000
1992 1       6.8136558675       9.0000000000
1993 1       7.3835878632      10.0000000000
1994 1       6.9674930370       8.0000000000
1995 1       7.4371745135       9.0000000000
1996 1       7.5005889498       9.0000000000
1997 1       7.2634984651      11.0000000000
1998 1       7.7228160655      11.0000000000
1999 1       7.3413504711      10.0000000000
2000 1       6.7540100498      10.0000000000
2001 1       7.5274392684       7.0000000000
2002 1       7.0048013870       6.0000000000
2003 1       7.3916963524       8.0000000000
2004 1       7.1021373155       9.0000000000
2005 1       7.3994907620      10.0000000000
2006 1       7.4111998081       9.0000000000
2007 1       7.5411239610       9.0000000000
2008 1       7.4281834992      10.0000000000
2009 1       7.2067329330       7.0000000000
2010 1       7.2308784980       9.0000000000
2011 1       7.6939068690       8.0000000000
2012 1       7.4143694117      10.0000000000
2013 1       7.3594336245       9.0000000000
2014 1       7.4305319064      11.0000000000
2015 1       7.2049181727      10.0000000000
2016 1       7.2893234443      11.0000000000
2017 1       7.5933627539      10.0000000000
2018 1       7.1630485692       7.0000000000
2019 1       7.2611531055       8.0000000000
2020 1       7.0527584665      10.0000000000
2021 1       7.7764165144       9.0000000000
2022 1       7.5483427004       9.0000000000
2023 1       7.6939728274      10.0000000000
2024 1       7.8394393260       7.0000000000
2025 1       7.0615528729      10.0000000000
2026 1       7.5616985591       9.0000000000
2027 1       7.4135974749      10.0000000000
2028 1       6.9432441991       9.0000000000
2029 1       7.4083529328       9.0000000000
2030 1       7.4267975814       8.0000000000
2031 1       7.7612994140      10.0000000000
2032 1       8.1219742863      10.0000000000
2033 1       7.0704829990       7.0000000000
2034 1       7.0257095952      11.0000000000
2035 1       7.5026704469       8.0000000000
2036 1       7.6767167090       8.0000000000
2037 1       7.1620629223       8.0000000000
2038 1       7.3592117794       7.0000000000
2039 1       7.2136005026       8.0000000000
2040 1       7.3866553069       9.0000000000
2041 1       7.4839074184       7.0000000000
2042 1       6.5738550690       9.0000000000
2043 1       7.1151818344       8.0000000000
2044 1       7.4065192349       8.0000000000
2045 1       7.3439377333       8.0000000000
2046 1       7.0987297793       6.0000000000
2047 1       7.0542574115       9.0000000000
2048 1       7.3281750022       9.0000000000
2049 1       6.9812352856       9.0000000000
2050 1       7.4093401350       8.0000000000
2051 1       7.3810895401       7.0000000000
2052 1       7.1530510076       7.0000000000
2053 1       6.9273327240       9.0000000000
2054 1       7.4630082506       8.0000000000
2055 1       7.0957505745       8.0000000000
2056 1       6.9236995198       6.0000000000
2057 1       7.6034690943      10.0000000000
2058 1       6.8380651263       9.0000000000
2059 1       7.3404699718       8.0000000000
2060 1       7.0380501188       7.0000000000
2061 1       7.1542731957       9.0000000000
2062 1       7.3884491754       9.0000000000
2063 1       6.9397424124       8.0000000000
2064 1       7.3308357138       8.0000000000
2065 1       7.3503346804       8.0000000000
2066 1       6.9470328324       8.0000000000
2067 1       8.1145768515      10.0000000000
2068 1       7.5844984490      10.0000000000
2069 1       7.0741041448       8.0000000000
2070 1       7.5919138266       9.0000000000
2071 1       7.2871488249       6.0000000000
2072 1       7.4020434491       9.0000000000
2073 1       7.5335326463       9.0000000000
2074 1       7.1809833572       8.0000000000
2075 1       7.1251757121       7.0000000000
2076 1       7.0851292274       9.0000000000
2077 1       7.7064004810       8.0000000000
2078 1       7.4084986994      10.0000000000
2079 1       6.9348076116       9.0000000000
2080 1       7.0684089990       9.0000000000
2081 1       7.1171750297       8.0000000000
2082 1       7.2154698821       9.0000000000
2083 1       7.4228792536       8.0000000000
2084 1       7.1121458562       7.0000000000
2085 1       6.7576174462      10.0000000000
2086 1       7.5808429377      12.0000000000
2087 1       7.9297972424       9.0000000000
2088 1       7.3719919582       9.0000000000
2089 1       6.9133176375      10.0000000000
2090 1       7.4805625637      10.0000000000
2091 1       7.6650795590       8.0000000000
2092 1       7.6382736255       8.0000000000
2093 1       7.0887466877      10.0000000000
2094 1       6.9092074329       9.0000000000
2095 1       6.9687849683       9.0000000000
2096 1       7.5390366020       8.0000000000
2097 1       7.1605756139      11.0000000000
2098 1       7.1676578552       9.0000000000
2099 1       7.2775286288      13.0000000000
2100 1       6.9408767708       9.0000000000
2101 1       7.3378991290       7.0000000000
2102 1       7.8487651842      12.0000000000
2103 1       7.3978259147      11.0000000000
2104 1       7.4680373076       8.0000000000
2105 1       7.0927570838       8.0000000000
2106 1       6.9104070018       8.0000000000
2107 1       6.8504262097       9.0000000000
2108 1       7.3460305642       9.0000000000
2109 1       7.7582385191       9.0000000000
2110 1       8.3150787094       9.0000000000
2111 1       7.7994506694       8.0000000000
2112 1       7.3147450419       8.0000000000
2113 1       7.7898949367      10.0000000000
2114 1       7.0814840305       9.0000000000
2115 1       7.2956879533       8.0000000000
2116 1       7.7625003426      10.0000000000
2117 1       7.1178827119      10.0000000000
2118 1       8.0317951335       9.0000000000
2119 1       7.2118746533       8.0000000000
2120 1       7.4616044635       9.0000000000
2121 1       7.0891652869       9.0000000000
2122 1       7.6021187802       8.0000000000
2123 1       7.0534448190      10.0000000000
2124 1       7.9433723524       9.0000000000
2125 1       7.0506009589       7.0000000000
2126 1       7.1714159094       7.0000000000
2127 1       7.0265512499       8.0000000000
2128 1       6.9137595549       8.0000000000
2129 1       7.3381170796       8.0000000000
2130 1       7.5417531000       8.0000000000
2131 1       7.8860747222       8.0000000000
2132 1       7.4608854991      10.0000000000
2133 1       7.8250752355       9.0000000000
2134 1       7.0919342956       9.0000000000
2135 1       7.0236050280       9.0000000000
2136 1       7.1229826567       7.0000000000
2137 1       7.4936974390      11.0000000000
2138 1       7.6918513684      10.0000000000
2139 1       7.2394371331       8.0000000000
2140 1       8.0152755319      10.0000000000
2141 1       7.7363210322       7.0000000000
2142 1       7.5710842175      11.0000000000
2143 1       6.9883826802       9.0000000000
2144 1       7.2327499467      11.0000000000
2145 1       7.1071253387      12.0000000000
2146 1       7.2042058921      10.0000000000
2147 1       8.0237720821      11.0000000000
2148 1       6.9103504554       7.0000000000
2149 1       7.4129429637       8.0000000000
2150 1       7.8575523440      10.0000000000
2151 1       6.9121531603       8.0000000000
2152 1       7.7485793979       7.0000000000
2153 1       6.9984294601       8.0000000000
2154 1       7.6287345199       9.0000000000
2155 1       7.5920489092      10.0000000000
2156 1       6.9512609211       8.0000000000
2157 1       7.1373609944       7.0000000000
2158 1       6.9028473158       8.0000000000
2159 1       7.4138130849       8.0000000000
2160 1       7.4011863989       7.0000000000
2161 1       7.4442664218      10.0000000000
2162 1       8.0921288562      12.0000000000
2163 1       6.9462183152      11.0000000000
2164 1       7.4558618085       8.0000000000
2165 1       7.2539030699       9.0000000000
2166 1       7.3454458032       9.0000000000
2167 1       7.4292922707      10.0000000000
2168 1       7.7703226791      10.0000000000
2169 1       7.3266911786       8.0000000000
2170 1       6.8794998409       8.0000000000
2171 1       7.8375475000       9.0000000000
2172 1       7.5739629298      10.0000000000
2173 1       7.2431595756       8.0000000000
2174 1       7.6797750180      11.0000000000
2175 1       7.3301679212       8.0000000000
2176 1       7.5349125905       9.0000000000
2177 1       7.2996215315      10.0000000000
2178 1       7.8844857190      10.0000000000
2179 1       7.7357132144       9.0000000000
2180 1       7.4163848994       9.0000000000
2181 1       7.8420128064       9.0000000000
2182 1       7.4470284000       8.0000000000
2183 1       7.5170362552       9.0000000000
2184 1       7.1512354212       9.0000000000
2185 1       7.1782525242       9.0000000000
2186 1       6.9863402816       9.0000000000
2187 1       7.3951410701       9.0000000000
2188 1       8.3752163407      10.0000000000
2189 1       7.6906562546      12.0000000000
2190 1       7.5710493795      11.0000000000
2191 1       7.0445833250       7.0000000000
2192 1       7.1132325237       7.0000000000
2193 1       7.3947032515      10.0000000000
2194 1       7.3649178338       9.0000000000
2195 1       7.2037481213       8.0000000000
2196 1       7.0627018693       7.0000000000
2197 1       7.1955362874       8.0000000000
2198 1       7.2796698082      10.0000000000
2199 1       7.3976601512       9.0000000000
2200 1       7.2187099688      10.0000000000
2201 1       7.8338548958       9.0000000000
2202 1       6.9428196899      11.0000000000
2203 1       7.6904482628      10.0000000000
2204 1       7.6452931794       9.0000000000
2205 1       7.2678215157       9.0000000000
2206 1       7.2369346528       8.0000000000
2207 1       7.6631777540       8.0000000000
2208 1       7.7062685664       8.0000000000
2209 1       7.1181103844      10.0000000000
2210 1       7.0781317688       9.0000000000
2211 1       7.1683818607       8.0000000000
2212 1       7.3296744638       7.0000000000
2213 1       7.1109081729       7.0000000000
2214 1       7.0341406009       9.0000000000
2215 1       7.1978099840       9.0000000000
2216 1       8.0317428955      10.0000000000
2217 1       8.2158101750      11.0000000000
2218 1       7.0199920192       7.0000000000
2219 1       7.7351008611      10.0000000000
2220 1       6.9585932813       8.0000000000
2221 1       7.2423450801       8.0000000000
2222 1       7.3408263919       9.0000000000
2223 1       6.9304411740       9.0000000000
2224 1       6.8871034664      11.0000000000
2225 1       7.0506508509       7.0000000000
2226 1       7.4475880032      10.0000000000
2227 1       7.1559288725       9.0000000000
2228 1       7.3049836764       9.0000000000
2229 1       7.2049520233       8.0000000000
2230 1       7.1244012527      11.0000000000
2231 1       7.3129303776       7.0000000000
2232 1       7.6692979613       9.0000000000
2233 1       6.7882062283       8.0000000000
2234 1       7.5228118801      10.0000000000
2235 1       7.9723442179       7.0000000000
2236 1       7.3763104085       8.0000000000
2237 1       7.6309560494      11.0000000000
2238 1       7.5388521767      12.0000000000
2239 1       7.3367145819       9.0000000000
2240 1       8.0173273416       9.0000000000
2241 1       6.7633189604      13.0000000000
2242 1       7.1437698574       9.0000000000
2243 1       7.3934291856       9.0000000000
2244 1       7.3198615834       9.0000000000
2245 1       7.4500060396       9.0000000000
2246 1       7.6729853175       8.0000000000
2247 1       6.7575254812       7.0000000000
2248 1       7.6793913691       9.0000000000
2249 1       7.3378520552       6.0000000000
2250 1       7.3822208539       8.0000000000
2251 1       7.4095607610      11.0000000000
2252 1       7.6210454755       9.0000000000
2253 1       7.5442649181       9.0000000000
2254 1       7.6883819809      10.0000000000
2255 1       7.1838309928      10.0000000000
2256 1       6.9904954849       8.0000000000
2257 1       7.4742759406       9.0000000000
2258 1       7.7286783257       9.0000000000
2259 1       7.4955162794       7.0000000000
2260 1       6.7379943759       9.0000000000
2261 1       7.1886189740       8.0000000000
2262 1       7.2989081401       7.0000000000
2263 1       7.7242454139       9.0000000000
2264 1       7.4917743872      10.0000000000
2265 1       7.3539045343       8.0000000000
2266 1       7.1177851643       9.0000000000
2267 1       6.7990313697       8.0000000000
2268 1       7.3378480384      10.0000000000
2269 1       7.3517867936      10.0000000000
2270 1       7.2476726500       9.0000000000
2271 1       7.2496069871      10.0000000000
2272 1       7.1783919609       7.0000000000
2273 1       7.5116193043       9.0000000000
2274 1       8.0613104785      10.0000000000
2275 1       7.4121724249      10.0000000000
2276 1       7.3344961735       9.0000000000
2277 1       7.9794460198       8.0000000000
2278 1       7.3983992235       6.0000000000
2279 1       7.5348238749      11.0000000000
2280 1       7.5567186515       9.0000000000
2281 1       6.6999160350       6.0000000000
2282 1       7.6472030608       8.0000000000
2283 1       6.9944082299       8.0000000000
2284 1       7.4981814256      11.0000000000
2285 1       7.8386031276       9.0000000000
2286 1       7.2705594695       9.0000000000
2287 1       7.6412667066       9.0000000000
2288 1       7.8185096538       9.0000000000
2289 1       7.8463479475      10.0000000000
2290 1       7.5465459473       8.0000000000
2291 1       7.5411879706       8.0000000000
2292 1       7.0532786899       9.0000000000
2293 1       7.1369260570       7.0000000000
2294 1       7.2551304052       9.0000000000
2295 1       7.7498907334       7.0000000000
2296 1       7.0145610092       8.0000000000
2297 1       7.1425290722       8.0000000000
2298 1       7.0357138591       8.0000000000
2299 1       7.1760145097       8.0000000000
2300 1       7.6563869206       8.0000000000
2301 1       7.0302109585       9.0000000000
2302 1       7.2698628752      11.0000000000
2303 1       7.2498402845      11.0000000000
2304 1       7.2211319860       9.0000000000
2305 1       6.9882777517       8.0000000000
2306 1       7.7443477225       9.0000000000
2307 1       7.1265402154       7.0000000000
2308 1       7.3736104668       9.0000000000
2309 1       7.3529816888      10.0000000000
2310 1       7.4512811716       8.0000000000
2311 1       6.7836466452       7.0000000000
2312 1       7.3459215412      10.0000000000
2313 1       7.4711007550      11.0000000000
2314 1       7.8934361090      10.0000000000
2315 1       7.1927504211       8.0000000000
2316 1       6.9009341991       9.0000000000
2317 1       7.2338232814       9.0000000000
2318 1       7.2060169874      10.0000000000
2319 1       7.4219962317       8.0000000000
2320 1       7.2386610913       8.0000000000
2321 1       8.3393649253      11.0000000000
2322 1       7.2855873828       9.0000000000
2323 1       7.8313509604       9.0000000000
2324 1       7.5820936847       9.0000000000
2325 1       7.5693811481       8.0000000000
2326 1       7.1209584769       8.0000000000
2327 1       7.3959191158       8.0000000000
2328 1       6.7310194723      10.0000000000
2329 1       7.3963609793       7.0000000000
2330 1       7.4420942128       8.0000000000
2331 1       7.2503527187       8.0000000000
2332 1       7.1027958219       8.0000000000
2333 1       6.9456191301      10.0000000000
2334 1       7.8588667513      11.0000000000
2335 1       7.6925505218       8.0000000000
2336 1       7.6095620763      12.0000000000
2337 1       6.7773327756       9.0000000000
2338 1       7.0300372478       9.0000000000
2339 1       7.5266859430       9.0000000000
2340 1       7.2978838521       9.0000000000
2341 1       7.1675309932      10.0000000000
2342 1       7.2881328192       8.0000000000
2343 1       7.5343864355       9.0000000000
2344 1       7.9655418179      11.0000000000
2345 1       7.4885253601       9.0000000000
2346 1       7.3719025423       8.0000000000
2347 1       7.9820758551      11.0000000000
2348 1       7.4891529291      11.0000000000
2349 1       7.9119927711      10.0000000000
2350 1       7.9176740843       9.0000000000
2351 1       7.0908470967       9.0000000000
2352 1       7.4264724571      10.0000000000
2353 1       7.5865570037       8.0000000000
2354 1       7.2076658112       9.0000000000
2355 1       7.4296313469       8.0000000000
2356 1       7.6070182263      10.0000000000
2357 1       7.5079488279      10.0000000000
2358 1       6.9191625706       8.0000000000
2359 1       7.7237420817      11.0000000000
2360 1       7.6990748097      10.0000000000
2361 1       7.7402460923      10.0000000000
2362 1       7.4442539384       8.0000000000
2363 1       7.3675226127       8.0000000000
2364 1       7.0766885652       8.0000000000
2365 1       7.6186765105       8.0000000000
2366 1       7.3259572108       7.0000000000
2367 1       7.2638067981       9.0000000000
2368 1       7.5060842022       8.0000000000
2369 1       7.0453501789       9.0000000000
2370 1       7.1549477003       9.0000000000
2371 1       7.2944515245       9.0000000000
2372 1       7.5083913307       8.0000000000
2373 1       7.4629923551       9.0000000000
2374 1       7.1805972529       8.0000000000
2375 1       7.3996547247      10.0000000000
2376 1       7.1692953545       9.0000000000
2377 1       7.5379129326       9.0000000000
2378 1       8.0811835433       8.0000000000
2379 1       6.7165653126       6.0000000000
2380 1       7.6161350923       7.0000000000
2381 1       6.8974691095       7.0000000000
2382 1       6.9860484308       9.0000000000
2383 1       6.6657244514       7.0000000000
2384 1       6.9859128990       8.0000000000
2385 1       7.5110474240      11.0000000000
2386 1       7.1003372273       8.0000000000
2387 1       6.9877302774      10.0000000000
2388 1       7.3244550746       9.0000000000
2389 1       7.5153386951       9.0000000000
2390 1       6.8386192296      10.0000000000
2391 1       7.2535257078       9.0000000000
2392 1       7.7937941768      12.0000000000
2393 1       7.0860029919       9.0000000000
2394 1       7.2472143989       9.0000000000
2395 1       7.3540828209       8.0000000000
2396 1       7.0907260533       8.0000000000
2397 1       7.1794594588      10.0000000000
2398 1       7.8477871946       9.0000000000
2399 1       7.2565388404      11.0000000000
2400 1       6.9870822322       8.0000000000
2401 1       7.5471572903       7.0000000000
2402 1       7.6278174738      10.0000000000
2403 1       7.6021379775      10.0000000000
2404 1       7.1686920181       8.0000000000
2405 1       7.4534779554      10.0000000000
2406 1       7.3280794098       8.0000000000
2407 1       7.6484778195       9.0000000000
2408 1       7.8982311520      10.0000000000
2409 1       6.9717470186       8.0000000000
2410 1       7.3052331399       8.0000000000
2411 1       7.5278293588       9.0000000000
2412 1       7.0951847657       9.0000000000
2413 1       7.1014330205       9.0000000000
2414 1       6.9766135522      10.0000000000
2415 1       7.2412704958       8.0000000000
2416 1       7.7500855491      11.0000000000
2417 1       7.2436454912       9.0000000000
2418 1       7.0734579605      11.0000000000
2419 1       6.7211017736       8.0000000000
2420 1       7.7343132764      12.0000000000
2421 1       7.1231744581       8.0000000000
2422 1       7.1436538913       8.0000000000
2423 1       7.1732341573      11.0000000000
2424 1       7.5389309576       9.0000000000
2425 1       7.2465572508       7.0000000000
2426 1       7.6069073419       8.0000000000
2427 1       7.8160197324      10.0000000000
2428 1       7.4919530405       9.0000000000
2429 1       7.1517577506       8.0000000000
2430 1       7.6978332356       9.0000000000
2431 1       7.0242844228       9.0000000000
2432 1       7.1607745716       9.0000000000
2433 1       7.4786982989      10.0000000000
2434 1       7.4375414731       8.0000000000
2435 1       8.1150178084       8.0000000000
2436 1       7.5350369074       8.0000000000
2437 1       6.8717109656       9.0000000000
2438 1       7.9341309482      10.0000000000
2439 1       7.1794366931      11.0000000000
2440 1       7.7483075593       9.0000000000
2441 1       7.3223933878      10.0000000000
2442 1       7.1030558888       8.0000000000
2443 1       7.2997267623      11.0000000000
2444 1       7.3666754232       7.0000000000
2445 1       7.0415331182       9.0000000000
2446 1       7.2453419480       8.0000000000
2447 1       7.2125468237       8.0000000000
2448 1       7.1273789794      10.0000000000
2449 1       7.7219434747      11.0000000000
2450 1       7.6605608879      10.0000000000
2451 1       8.2119942056       9.0000000000
2452 1       7.1996710518       7.0000000000
2453 1       7.1674203811       9.0000000000
2454 1       7.6100346766       8.0000000000
2455 1       7.7884848715       9.0000000000
2456 1       7.7654163153      12.0000000000
2457 1       6.9885409444       8.0000000000
2458 1       6.8374362846       8.0000000000
2459 1       7.0482828822       9.0000000000
2460 1       6.9708372019       8.0000000000
2461 1       7.2585638382       9.0000000000
2462 1       7.1218578211       8.0000000000
2463 1       7.1881017683      10.0000000000
2464 1       6.9078977642       9.0000000000
2465 1       7.4859456910      11.0000000000
2466 1       7.5437112853       8.0000000000
2467 1       7.6437723954       8.0000000000
2468 1       7.1199478830       9.0000000000
2469 1       7.5849914626      10.0000000000
2470 1       7.8790689418      10.0000000000
2471 1       6.9766559527       7.0000000000
2472 1       6.8337392901       8.0000000000
2473 1       7.3102547166      11.0000000000
2474 1       7.2271504830      10.0000000000
2475 1       7.1529301536      10.0000000000
2476 1       7.7864770341       8.0000000000
2477 1       7.4171304131       8.0000000000
2478 1       6.8476790862      10.0000000000
2479 1       7.1305464755       8.0000000000
2480 1       7.4059007951      10.0000000000
2481 1       7.2767739455      10.0000000000
2482 1       6.6855134432      11.0000000000
2483 1       7.3834804866       7.0000000000
2484 1       7.1564259663       9.0000000000
2485 1       7.6996769546      10.0000000000
2486 1       7.8301460615       8.0000000000
2487 1       6.9469535680       9.0000000000
2488 1       7.6729627464       9.0000000000
2489 1       7.0534549943      11.0000000000
2490 1       7.1888290342       8.0000000000
2491 1       6.8374736724       8.0000000000
2492 1       7.9676535612       8.0000000000
2493 1       7.4368512687      10.0000000000
2494 1       7.6196782794      12.0000000000
2495 1       7.4464290566      10.0000000000
2496 1       8.2118255630      10.0000000000
2497 1       7.6313283433       8.0000000000
2498 1       7.3811865651      10.0000000000
2499 1       7.3277597121       9.0000000000
2500 1       7.0119315900       8.0000000000
2501 1       7.4806680639       9.0000000000
2502 1       7.9009194943       8.0000000000
2503 1       6.6032067799       9.0000000000
2504 1       7.4754088124       8.0000000000
2505 1       7.0927860170       9.0000000000
2506 1       7.3728140323       8.0000000000
2507 1       7.6835343186       9.0000000000
2508 1       7.1375101566      10.0000000000
2509 1       7.5560031693       9.0000000000
2510 1       7.7006546629       9.0000000000
2511 1       7.1688382720       9.0000000000
2512 1       6.7894715073       5.0000000000
2513 1       6.8809481967       8.0000000000
2514 1       6.9905332061       8.0000000000
2515 1       7.3885140908       9.0000000000
2516 1       7.8044067514      12.0000000000
2517 1       7.5798166701       9.0000000000
2518 1       7.1014770818       9.0000000000
2519 1       7.2044629012       8.0000000000
2520 1       7.0833875831       9.0000000000
2521 1       8.0149691499       9.0000000000
2522 1       7.2983691702       9.0000000000
2523 1       7.3972180273       8.0000000000
2524 1       7.3002088970       9.0000000000
2525 1       7.5514694149       8.0000000000
2526 1       6.5865741472       6.0000000000
2527 1       7.5959736000       8.0000000000
2528 1       7.4260937560       9.0000000000
2529 1       7.9066840058      12.0000000000
2530 1       6.6231632845      12.0000000000
2531 1       7.1242339193       8.0000000000
2532 1       7.5268064977      11.0000000000
2533 1       7.3595700536      10.0000000000
2534 1       7.1413312795       6.0000000000
2535 1       7.2615156967       8.0000000000
2536 1       7.2592148993      12.0000000000
2537 1       6.7831474280       7.0000000000
2538 1       7.2194270862      12.0000000000
2539 1       7.1182037117       9.0000000000
2540 1       7.0925615561       7.0000000000
2541 1       7.6851345873      10.0000000000
2542 1       7.0447098574       9.0000000000
2543 1       7.0107214974       7.0000000000
2544 1       7.1877966546       8.0000000000
2545 1       6.9221819889       9.0000000000
2546 1       7.1190372916       9.0000000000
2547 1       7.2738460851       7.0000000000
2548 1       7.3824022265       8.0000000000
2549 1       7.2722905309       9.0000000000
2550 1       7.0905689319       7.0000000000
2551 1       7.3773579268       8.0000000000
2552 1       7.6592583488      10.0000000000
2553 1       7.7224648306       7.0000000000
2554 1       6.8282457069      11.0000000000
2555 1       7.2597991969       7.0000000000
2556 1       7.2470162272       9.0000000000
2557 1       7.3785655768       8.0000000000
2558 1       7.4371809741       9.0000000000
2559 1       7.3874502639       9.0000000000
2560 1       7.3092071909       7.0000000000
2561 1       7.2826672816       7.0000000000
2562 1       7.8804478945       8.0000000000
2563 1       7.3263544977       9.0000000000
2564 1       7.3764217457       9.0000000000
2565 1       7.6660296043      11.0000000000
2566 1       7.3396981955       9.0000000000
2567 1       6.8324117094       7.0000000000
2568 1       7.6441360615       7.0000000000
2569 1       7.6708379374       8.0000000000
2570 1       7.7774671775      10.0000000000
2571 1       6.8848736180       9.0000000000
2572 1       6.9398204269      11.0000000000
2573 1       7.3191386555       9.0000000000
2574 1       7.5152360391       9.0000000000
2575 1       7.8601151093      11.0000000000
2576 1       7.1772301691      11.0000000000
2577 1       7.1191564803       8.0000000000
2578 1       7.3800458694       9.0000000000
2579 1       7.4158016490       8.0000000000
2580 1       7.3262355774      10.0000000000
2581 1       7.9324280857      11.0000000000
2582 1       7.3020462745       9.0000000000
2583 1       6.9425727649      10.0000000000
2584 1       7.3042711936      11.0000000000
2585 1       7.9530912323      10.0000000000
2586 1       7.7163860346       9.0000000000
2587 1       7.3174877834       8.0000000000
2588 1       6.7273243306      10.0000000000
2589 1       7.8345250677      10.0000000000
2590 1       8.6142684406      12.0000000000
2591 1       7.1197509674       7.0000000000
2592 1       7.2253480298      11.0000000000
2593 1       7.5391246343       9.0000000000
2594 1       7.2884404503       8.0000000000
2595 1       7.5558114630       9.0000000000
2596 1       7.1170727277       9.0000000000
2597 1       6.7846543772       9.0000000000
2598 1       7.8743019748      11.0000000000
2599 1       7.4194699520       9.0000000000
2600 1       7.7800323146      11.0000000000
2601 1       6.5182288708       8.0000000000
2602 1       7.6622097393       9.0000000000
2603 1       7.5943839861       9.0000000000
2604 1       7.5446880644      10.0000000000
2605 1       6.4382581425       8.0000000000
2606 1       7.3046854421      12.0000000000
2607 1       7.6341537061      10.0000000000
2608 1       7.0662660094       8.0000000000
2609 1       7.2293627370       9.0000000000
2610 1       7.0898703719      10.0000000000
2611 1       7.0278865285       9.0000000000
2612 1       7.4001062443      10.0000000000
2613 1       7.1105449736       9.0000000000
2614 1       7.0986028250       9.0000000000
2615 1       7.5622131702       9.0000000000
2616 1       6.7303238519       6.0000000000
2617 1       7.2860327214       9.0000000000
2618 1       7.1609637830       9.0000000000
2619 1       7.3760163587       8.0000000000
2620 1       6.5772301441       8.0000000000
2621 1       7.4888413901       9.0000000000
2622 1       6.9613578376       9.0000000000
2623 1       7.4136932618      11.0000000000
2624 1       7.6378289040       8.0000000000
2625 1       7.0276132494      11.0000000000
2626 1       7.6805186177       9.0000000000
2627 1       6.9760213103       9.0000000000
2628 1       7.1892300217       8.0000000000
2629 1       8.1636981280      11.0000000000
2630 1       6.9905828462      10.0000000000
2631 1       7.0679527269       8.0000000000
2632 1       7.4779363323      12.0000000000
2633 1       7.4938502150       7.0000000000
2634 1       7.0894026073       8.0000000000
2635 1       7.6649528354      11.0000000000
2636 1       7.0485890995       9.0000000000
2637 1       7.1555441744      10.0000000000
2638 1       7.5137222635       7.0000000000
2639 1       6.9265225404      10.0000000000
2640 1       6.7155765603      10.0000000000
2641 1       8.0124924306       9.0000000000
2642 1       7.1915757000       8.0000000000
2643 1       7.1218761106      10.0000000000
2644 1       8.0820649341       9.0000000000
2645 1       7.1044079228      10.0000000000
2646 1       7.4431052192       8.0000000000
2647 1       7.1156109582       9.0000000000
2648 1       6.9697729484       8.0000000000
2649 1       6.7413678844       8.0000000000
2650 1       7.1041389212       9.0000000000
2651 1       6.8798581158       9.0000000000
2652 1       7.5372471575       9.0000000000
2653 1       7.2673714132       9.0000000000
2654 1       7.3574122894       8.0000000000
2655 1       7.5177441118       9.0000000000
2656 1       7.4151893103       9.0000000000
2657 1       7.1903409161      10.0000000000
2658 1       7.2484586686      10.0000000000
2659 1       6.9544359444       7.0000000000
2660 1       7.0555766050      10.0000000000
2661 1       6.9101095036       8.0000000000
2662 1       7.5213301404      10.0000000000
2663 1       7.7766926358      10.0000000000
2664 1       7.3793883848       8.0000000000
2665 1       7.3706912699       9.0000000000
2666 1       7.6583541843       9.0000000000
2667 1       7.0398536169      10.0000000000
2668 1       7.1428891484       8.0000000000
2669 1       6.8842156841       8.0000000000
2670 1       7.1894552349       8.0000000000
2671 1       7.5525599469       8.0000000000
2672 1       7.9503310045      10.0000000000
2673 1       7.6283718385       9.0000000000
2674 1       7.3441288662      10.0000000000
2675 1       7.3191532344      11.0000000000
2676 1       7.6709293412       8.0000000000
2677 1       7.3888336970       7.0000000000
2678 1       7.5326821779       8.0000000000
2679 1       7.6548013391      10.0000000000
2680 1       7.0900002279      10.0000000000
2681 1       6.8957652689       8.0000000000
2682 1       7.3032757645       8.0000000000
2683 1       7.4516084175       9.0000000000
2684 1       7.8336287668       7.0000000000
2685 1       7.5108759660      10.0000000000
2686 1       7.6518492942       8.0000000000
2687 1       7.4765699979      10.0000000000
2688 1       7.0259062179       8.0000000000
2689 1       8.2782160838      11.0000000000
2690 1       7.3882013606      10.0000000000
2691 1       7.3053320433      11.0000000000
2692 1       7.2924499448       8.0000000000
2693 1       6.7019449874       8.0000000000
2694 1       7.5121786655       9.0000000000
2695 1       6.7885647497      10.0000000000
2696 1       7.1910281626       9.0000000000
2697 1       7.2936994534       8.0000000000
2698 1       7.2203924912       8.0000000000
2699 1       7.4004821968      12.0000000000
2700 1       6.8447105984       8.0000000000
2701 1       7.5337295418       9.0000000000
2702 1       7.5280795196       7.0000000000
2703 1       7.3989261904       8.0000000000
2704 1       7.5261029226       9.0000000000
2705 1       7.4136365233       9.0000000000
2706 1       7.5763664047      10.0000000000
2707 1       7.3590741152       7.0000000000
2708 1       7.5850922306       9.0000000000
2709 1       7.8197461554      11.0000000000
2710 1       7.2704408880       8.0000000000
2711 1       7.7744212542       7.0000000000
2712 1       6.9877896825       8.0000000000
2713 1       6.9478765367       9.0000000000
2714 1       7.7018000165       9.0000000000
2715 1       7.0381558256       6.0000000000
2716 1       7.1183565913       9.0000000000
2717 1       7.0667934587      10.0000000000
2718 1       7.7767437991       8.0000000000
2719 1       6.9835835935       8.0000000000
2720 1       7.1608506567      10.0000000000
2721 1       7.0918863771       9.0000000000
2722 1       6.9926472986      11.0000000000
2723 1       7.5195293163       9.0000000000
2724 1       7.3993657132      10.0000000000
2725 1       7.2527222470       7.0000000000
2726 1       7.6893816876      11.0000000000
2727 1       7.3909938697      11.0000000000
2728 1       7.3002859405       9.0000000000
2729 1       7.0316534185       7.0000000000
2730 1       7.5787878633      11.0000000000
2731 1       7.2310914392       9.0000000000
2732 1       7.2273054905       8.0000000000
2733 1       7.3061953316       7.0000000000
2734 1       7.4791849931       9.0000000000
2735 1       7.2280213274       8.0000000000
2736 1       7.4393099519       9.0000000000
2737 1       8.1533770869       9.0000000000
2738 1       7.6307484330       8.0000000000
2739 1       7.1994564750       8.0000000000
2740 1       6.8689015401      10.0000000000
2741 1       7.1910099407       8.0000000000
2742 1       7.1625053882       9.0000000000
2743 1       7.7243461566       9.0000000000
2744 1       6.7721272102       8.0000000000
2745 1       7.2022114465       9.0000000000
2746 1       7.3630497628       8.0000000000
2747 1       7.4915687439      11.0000000000
2748 1       6.8898203282       9.0000000000
2749 1       7.3848279417       8.0000000000
2750 1       7.2660080098       7.0000000000
2751 1       6.8918821372       9.0000000000
2752 1       7.8745281045      10.0000000000
2753 1       7.1746457421      10.0000000000
2754 1       7.2379975113       9.0000000000
2755 1       7.8052548769      11.0000000000
2756 1       7.7673135621      11.0000000000
2757 1       7.9711850940      10.0000000000
2758 1       7.3391812435      10.0000000000
2759 1       6.8212792258       8.0000000000
2760 1       7.1906105909       8.0000000000
2761 1       7.4977445698       8.0000000000
2762 1       6.9988778930       8.0000000000
2763 1       7.7448573327       9.0000000000
2764 1       7.5834632571       8.0000000000
2765 1       7.4747017427       9.0000000000
2766 1       7.1696374284      10.0000000000
2767 1       7.2613468255       9.0000000000
2768 1       7.6808772300      10.0000000000
2769 1       7.2628782631       9.0000000000
2770 1       7.4237304529       9.0000000000
2771 1       7.4263535567       7.0000000000
2772 1       7.1311166019      10.0000000000
2773 1       7.6006422593      11.0000000000
2774 1       7.2582028756       8.0000000000
2775 1       7.4816353083      10.0000000000
2776 1       7.2548453575       8.0000000000
2777 1       7.2938205484      11.0000000000
2778 1       8.1598225577      11.0000000000
2779 1       6.9855465641       8.0000000000
2780 1       7.1397772996       9.0000000000
2781 1       6.6963867348       6.0000000000
2782 1       7.6435238998       8.0000000000
2783 1       7.7891370143       9.0000000000
2784 1       7.0914610650       9.0000000000
2785 1       7.1791357249      10.0000000000
2786 1       7.2594738819       8.0000000000
2787 1       7.2591758259       8.0000000000
2788 1       7.8391146997      12.0000000000
2789 1       7.1060415643      10.0000000000
2790 1       7.7520151222       8.0000000000
2791 1       6.9757085748       7.0000000000
2792 1       7.8457844514       8.0000000000
2793 1       7.1470779864       6.0000000000
2794 1       6.8157293743       8.0000000000
2795 1       7.6468207500       9.0000000000
2796 1       6.9626875735      10.0000000000
2797 1       8.1428058330       9.0000000000
2798 1       7.6195610953       7.0000000000
2799 1       6.9803014378      10.0000000000
2800 1       7.6337204659       9.0000000000
2801 1       6.8465449965       8.0000000000
2802 1       7.4708483653      10.0000000000
2803 1       7.3062063802      11.0000000000
2804 1       7.6265068625       9.0000000000
2805 1       7.9027297243      12.0000000000
2806 1       6.9555218727      10.0000000000
2807 1       6.7351069059      10.0000000000
2808 1       7.0719180564       8.0000000000
2809 1       7.5490454704      10.0000000000
2810 1       7.1185674629       7.0000000000
2811 1       7.1082084661       9.0000000000
2812 1       7.1456510067       8.0000000000
2813 1       7.6255090472       9.0000000000
2814 1       7.0744994082      10.0000000000
2815 1       7.5833478430       9.0000000000
2816 1       7.4277890431      11.0000000000
2817 1       6.7353082957       8.0000000000
2818 1       7.0474674215       7.0000000000
2819 1       7.8748545942       8.0000000000
2820 1       7.0962437544       9.0000000000
2821 1       6.9806513579       9.0000000000
2822 1       7.7706143778       9.0000000000
2823 1       7.0323193707       7.0000000000
2824 1       7.0467212459      10.0000000000
2825 1       7.9092694918      10.0000000000
2826 1       6.9298855689      10.0000000000
2827 1       7.3470539773      10.0000000000
2828 1       7.2305993093       8.0000000000
2829 1       7.4041857721       8.0000000000
2830 1       6.7145576975       8.0000000000
2831 1       7.5270797740      11.0000000000
2832 1       7.6155989829       9.0000000000
2833 1       7.9356989648       9.0000000000
2834 1       7.4151185364      10.0000000000
2835 1       7.7121885498       9.0000000000
2836 1       6.9872138935       7.0000000000
2837 1       7.1939731032       8.0000000000
2838 1       7.1987779486       9.0000000000
2839 1       7.0609498149      10.0000000000
2840 1       7.3325200110       9.0000000000
2841 1       7.2966530426      10.0000000000
2842 1       7.4740937972      11.0000000000
2843 1       7.0653148960       9.0000000000
2844 1       7.1412369532       9.0000000000
2845 1       7.1031541794       7.0000000000
2846 1       7.4354028332       9.0000000000
2847 1       7.2403176456       7.0000000000
2848 1       7.3991593972       9.0000000000
2849 1       8.1003990038       9.0000000000
2850 1       7.2624449143      10.0000000000
2851 1       7.1232613644       9.0000000000
2852 1       6.6538464931       9.0000000000
2853 1       7.6722794176       8.0000000000
2854 1       7.3305452054       9.0000000000
2855 1       7.1314150071       9.0000000000
2856 1       7.5005022421       9.0000000000
2857 1       7.0675580523       9.0000000000
2858 1       7.4842261506      10.0000000000
2859 1       7.0778805299       7.0000000000
2860 1       7.2203138115       8.0000000000
2861 1       7.6461450348       7.0000000000
2862 1       7.2256002526      10.0000000000
2863 1       7.1032040311       9.0000000000
2864 1       7.4910220617       9.0000000000
2865 1       7.4411727025       9.0000000000
2866 1       7.5062601425      10.0000000000
2867 1       7.1377087835       7.0000000000
2868 1       7.1732411156       7.0000000000
2869 1       7.4765537390       9.0000000000
2870 1       7.7252045032       8.0000000000
2871 1       6.6077368687      11.0000000000
2872 1       7.9491385642      11.0000000000
2873 1       7.0651999452       8.0000000000
2874 1       6.8366965006       8.0000000000
2875 1       7.5549843264      11.0000000000
2876 1       7.1559962865      10.0000000000
2877 1       7.0823186502       8.0000000000
2878 1       7.5111706110       8.0000000000
2879 1       7.4578213603       8.0000000000
2880 1       7.7646024174      11.0000000000
2881 1       7.2747400448      10.0000000000
2882 1       7.3645996929       9.0000000000
2883 1       7.2502827692       9.0000000000
2884 1       7.1397602479      15.0000000000
2885 1       7.0317635929      10.0000000000
2886 1       7.4838963866       9.0000000000
2887 1       7.5194655699       8.0000000000
2888 1       7.1006723814       9.0000000000
2889 1       7.1905582384      11.0000000000
2890 1       7.8586831561      10.0000000000
2891 1       7.3358222654       9.0000000000
2892 1       7.1577822955      10.0000000000
2893 1       6.8503750447       8.0000000000
2894 1       7.0511209710      10.0000000000
2895 1       7.3936272643       8.0000000000
2896 1       8.0441015716       8.0000000000
2897 1       8.0843524183      10.0000000000
2898 1       7.7197086195      12.0000000000
2899 1       7.8929958689       8.0000000000
2900 1       6.9469957931       8.0000000000
2901 1       7.3743099689       9.0000000000
2902 1       7.3162941479       8.0000000000
2903 1       7.0562583352       9.0000000000
2904 1       7.8520209257       9.0000000000
2905 1       7.0581962217       8.0000000000
2906 1       6.8466376885       8.0000000000
2907 1       7.7540077087       8.0000000000
2908 1       7.5857965629       9.0000000000
2909 1       7.0918895499       7.0000000000
2910 1       6.7386267834       8.0000000000
2911 1       7.1722969979       9.0000000000
2912 1       7.2233639837       9.0000000000
2913 1       7.6051414186       9.0000000000
2914 1       7.1128062598       8.0000000000
2915 1       7.4502502067      10.0000000000
2916 1       7.4362449560       9.0000000000
2917 1       7.1006805924       9.0000000000
2918 1       7.6341679627       7.0000000000
2919 1       7.1569779423       7.0000000000
2920 1       7.4456358023      10.0000000000
2921 1       7.2219957289      13.0000000000
2922 1       8.2190879546      11.0000000000
2923 1       7.0855676675       9.0000000000
2924 1       7.0562551982      10.0000000000
2925 1       7.8371160747      10.0000000000
2926 1       7.0797687346      10.0000000000
2927 1       7.5221953928       9.0000000000
2928 1       7.5240943728       8.0000000000
2929 1       7.1085384928       8.0000000000
2930 1       7.3760840282       8.0000000000
2931 1       6.8730615092       9.0000000000
2932 1       7.1109947150       9.0000000000
2933 1       7.2047181425       8.0000000000
2934 1       7.5184374488       9.0000000000
2935 1       7.3731916245       8.0000000000
2936 1       7.9171327777      11.0000000000
2937 1       7.2030774160       8.0000000000
2938 1       7.4438081858       8.0000000000
2939 1       8.1188765218      10.0000000000
2940 1       7.2597870249       8.0000000000
2941 1       7.9292291689      10.0000000000
2942 1       7.0779751623      10.0000000000
2943 1       6.9238387533       9.0000000000
2944 1       7.8489086427       8.0000000000
2945 1       7.2036135911      10.0000000000
2946 1       7.1946174249       8.0000000000
2947 1       7.3915461180      11.0000000000
2948 1       6.7569784703       8.0000000000
2949 1       6.7899593796       8.0000000000
2950 1       7.9220765224       9.0000000000
2951 1       7.6021626032       9.0000000000
2952 1       7.4894012292       7.0000000000
2953 1       7.8492630290      12.0000000000
2954 1       7.5289936947       8.0000000000
2955 1       7.9018218750       9.0000000000
2956 1       7.1724949563       9.0000000000
2957 1       7.2846088944      10.0000000000
2958 1       7.4854183787      10.0000000000
2959 1       7.7220963803      10.0000000000
2960 1       6.8181466704       7.0000000000
2961 1       7.7549459579       8.0000000000
2962 1       7.5064836625      10.0000000000
2963 1       7.6765216019       9.0000000000
2964 1       7.3266209433       9.0000000000
2965 1       7.2981587765       9.0000000000
2966 1       7.2290277423      10.0000000000
2967 1       7.9802095026       9.0000000000
2968 1       7.8464487539       8.0000000000
2969 1       8.5047078092      10.0000000000
2970 1       7.6963767468       9.0000000000
2971 1       7.9897430919      10.0000000000
2972 1       7.3421653056       9.0000000000
2973 1       7.5732322459       8.0000000000
2974 1       7.3437678913       9.0000000000
2975 1       7.1406685691       8.0000000000
2976 1       7.1699150018      10.0000000000
2977 1       7.6140174318       7.0000000000
2978 1       6.8504589433       9.0000000000
2979 1       7.4647389848      13.0000000000
2980 1       7.4215589735       9.0000000000
2981 1       7.7369012216      10.0000000000
2982 1       7.7304165474       9.0000000000
2983 1       7.4272017808       8.0000000000
2984 1       7.5741244166       9.0000000000
2985 1       7.7706748739      10.0000000000
2986 1       7.2395368092      10.0000000000
2987 1       7.5284886961       7.0000000000
2988 1       8.3523574694       8.0000000000
2989 1       7.7459043724       9.0000000000
2990 1       6.8928154014       9.0000000000
2991 1       7.1893661696      10.0000000000
2992 1       7.6713846275       8.0000000000
2993 1       7.1817393481      12.0000000000
2994 1       8.4132608973       8.0000000000
2995 1       7.3713470211       9.0000000000
2996 1       7.0202919340       8.0000000000
2997 1       7.2184875483       7.0000000000
2998 1       7.3351369947       8.0000000000
2999 1       7.7552152348       8.0000000000
3000 1       7.4522691404       8.0000000000
3001 1       7.5887189318       9.0000000000
3002 1       7.5857575868       9.0000000000
3003 1       7.1047206445       8.0000000000
3004 1       7.6505515081       9.0000000000
3005 1       7.3171145225       9.0000000000
3006 1       7.1512792127      11.0000000000
3007 1       7.6737337130      10.0000000000
3008 1       7.4207253825       9.0000000000
3009 1       7.5542998829      10.0000000000
3010 1       7.3186336167       8.0000000000
3011 1       7.2180988006       7.0000000000
3012 1       7.3536517032       9.0000000000
3013 1       8.1516752592       9.0000000000
3014 1       7.2145092211       8.0000000000
3015 1       7.4542958666      11.0000000000
3016 1       7.4034273663       7.0000000000
3017 1       7.3541172056       7.0000000000
3018 1       7.7052099088       8.0000000000
3019 1       7.5084346122       8.0000000000
3020 1       6.8732659121       8.0000000000
3021 1       6.8745709788       8.0000000000
3022 1       7.7416882600       7.0000000000
3023 1       7.2474856959       9.0000000000
3024 1       7.4766438193       8.0000000000
3025 1       7.3431126775       8.0000000000
3026 1       7.0830383695       8.0000000000
3027 1       7.0935600414      10.0000000000
3028 1       7.7934646892       9.0000000000
3029 1       7.1750804790      10.0000000000
3030 1       7.7746042582       7.0000000000
3031 1       7.1837273712      10.0000000000
3032 1       7.1180052513       9.0000000000
3033 1       7.2942396795       8.0000000000
3034 1       7.4972813969       9.0000000000
3035 1       7.9414740768      10.0000000000
3036 1       7.6240822115      10.0000000000
3037 1       7.3365807067       8.0000000000
3038 1       7.2151453096       9.0000000000
3039 1       8.1253143336       7.0000000000
3040 1       7.9028364595      11.0000000000
3041 1       7.8481727830       8.0000000000
3042 1       6.6391290516       8.0000000000
3043 1       7.4381609876       9.0000000000
3044 1       7.0386853543       8.0000000000
3045 1       8.1229927383      11.0000000000
3046 1       7.2588933350      10.0000000000
3047 1       7.4218477738       7.0000000000
3048 1       7.1359763126       9.0000000000
3049 1       7.3857795710       9.0000000000
3050 1       8.1264180037       8.0000000000
3051 1       7.2144496706       7.0000000000
3052 1       7.7100499147       9.0000000000
3053 1       7.9202924331      11.0000000000
3054 1       7.7427222463       9.0000000000
3055 1       7.4268350853      10.0000000000
3056 1       6.9855915352       8.0000000000
3057 1       7.3910791013       8.0000000000
3058 1       7.3055200798      10.0000000000
3059 1       7.0323471889       8.0000000000
3060 1       7.6175964405       8.0000000000
3061 1       7.6933929284       9.0000000000
3062 1       7.3564989323      10.0000000000
3063 1       7.1941762802      11.0000000000
3064 1       7.3953206607       8.0000000000
3065 1       7.1111229225      12.0000000000
3066 1       7.7346478004       9.0000000000
3067 1       7.2997326734      12.0000000000
3068 1       6.7648132344       7.0000000000
3069 1       7.4954921939       8.0000000000
3070 1       7.8671964658       8.0000000000
3071 1       7.0687445360      10.0000000000
3072 1       7.1708196636       7.0000000000
3073 1       7.0042057852       8.0000000000
3074 1       7.1302736137       9.0000000000
3075 1       7.1610388979       8.0000000000
3076 1       7.3444350834      10.0000000000
3077 1       8.0646813422      10.0000000000
3078 1       6.6910529404       9.0000000000
3079 1       7.5711958715       9.0000000000
3080 1       7.3233434522       9.0000000000
3081 1       7.4823931451       7.0000000000
3082 1       7.2001753654       8.0000000000
3083 1       8.2267960693       9.0000000000
3084 1       7.2664373921      11.0000000000
3085 1       7.6060582322       9.0000000000
3086 1       7.4716337101       9.0000000000
3087 1       7.4141326435       9.0000000000
3088 1       6.9777006603       9.0000000000
3089 1       7.3949355709       7.0000000000
3090 1       7.1515739394       9.0000000000
3091 1       7.2061350324       8.0000000000
3092 1       7.1869165139       8.0000000000
3093 1       7.4243319957      10.0000000000
3094 1       7.5415959206       9.0000000000
3095 1       7.5290610844       6.0000000000
3096 1       7.5792795201       9.0000000000
3097 1       7.5729292033       8.0000000000
3098 1       7.7908091599       9.0000000000
3099 1       7.8766917903       9.0000000000
3100 1       7.5948843136       7.0000000000
3101 1       7.4585243522       8.0000000000
3102 1       7.1009235096      10.0000000000
3103 1       7.4528651475       8.0000000000
3104 1       7.2436635819       9.0000000000
3105 1       7.4318568996       9.0000000000
3106 1       7.8721990470       8.0000000000
3107 1       7.2039973866       9.0000000000
3108 1       7.8029884511      10.0000000000
3109 1       7.1725129507      10.0000000000
3110 1       7.1934035845      10.0000000000
3111 1       6.8773788099       9.0000000000
3112 1       7.0640380702      10.0000000000
3113 1       7.3391203469       9.0000000000
3114 1       7.3334172127       8.0000000000
3115 1       7.1130916904       8.0000000000
3116 1       7.2389537802      11.0000000000
3117 1       7.0725551943       9.0000000000
3118 1       6.8583037569       9.0000000000
3119 1       7.4255418918       8.0000000000
3120 1       6.9771882736       9.0000000000
3121 1       7.5184221763      10.0000000000
3122 1       7.4558844521       8.0000000000
3123 1       7.1110759569       7.0000000000
3124 1       7.8977763881       7.0000000000
3125 1       7.4277585013       8.0000000000
3126 1       6.9667908301      10.0000000000
3127 1       6.7901617393       9.0000000000
3128 1       7.4797429658       9.0000000000
3129 1       7.3366475462       8.0000000000
3130 1       7.4083423920       7.0000000000
3131 1       6.8486360216      11.0000000000
3132 1       7.8195661419       9.0000000000
3133 1       7.3604060335       8.0000000000
3134 1       7.3216337882      10.0000000000
3135 1       7.5964711150      10.0000000000
3136 1       6.7077841552      11.0000000000
3137 1       7.1902976139       7.0000000000
3138 1       7.0985994152       9.0000000000
3139 1       8.0876699219      11.0000000000
3140 1       7.8012799265      10.0000000000
3141 1       7.8041683014      11.0000000000
3142 1       7.4353469756       7.0000000000
3143 1       7.0199709525       7.0000000000
3144 1       7.1354363430       9.0000000000
3145 1       7.1313619106      10.0000000000
3146 1       7.3291075418       9.0000000000
3147 1       7.2781122630       7.0000000000
3148 1       7.7986239729       8.0000000000
3149 1       7.5685747408       8.0000000000
3150 1       6.9839960416       7.0000000000
3151 1       7.5141140254       9.0000000000
3152 1       7.2858026270       8.0000000000
3153 1       7.2721019988       9.0000000000
3154 1       7.9837559489      11.0000000000
3155 1       7.1495407833       9.0000000000
3156 1       7.3920305811      11.0000000000
3157 1       7.3674495324      11.0000000000
3158 1       6.8980786498      10.0000000000
3159 1       7.1890136450       9.0000000000
3160 1       7.1982386339       7.0000000000
3161 1       7.2593451702       9.0000000000
3162 1       7.0072749323       8.0000000000
3163 1       7.1609969852      10.0000000000
3164 1       7.4091979610       8.0000000000
3165 1       7.8387968813      10.0000000000
3166 1       6.9850730019       9.0000000000
3167 1       7.5636578102       8.0000000000
3168 1       6.8504786856       8.0000000000
3169 1       7.2880982644       8.0000000000
3170 1       7.4537693335      10.0000000000
3171 1       8.1974905581       8.0000000000
3172 1       6.9664152536       9.0000000000
3173 1       7.6333119728      11.0000000000
3174 1       6.8531087188       9.0000000000
3175 1       7.2927611102      10.0000000000
3176 1       7.4533955397       8.0000000000
3177 1       8.0176778655      11.0000000000
3178 1       8.0202952609       8.0000000000
3179 1       7.0740850609       9.0000000000
3180 1       7.2704621396       7.0000000000
3181 1       6.9138593620       8.0000000000
3182 1       7.3210433933       8.0000000000
3183 1       7.4553374736       7.0000000000
3184 1       7.9578994892       8.0000000000
3185 1       7.4050458671       8.0000000000
3186 1       7.0369874299       8.0000000000
3187 1       7.1144323502       8.0000000000
3188 1       7.4234787670      11.0000000000
3189 1       7.6165617171      11.0000000000
3190 1       7.0385698587       8.0000000000
3191 1       7.1251108399       9.0000000000
3192 1       6.8528956889      10.0000000000
3193 1       6.9718079817       8.0000000000
3194 1       7.5861380465      10.0000000000
3195 1       7.1239713081       7.0000000000
3196 1       7.3997364534       9.0000000000
3197 1       7.4719471989       9.0000000000
3198 1       7.0687568302       9.0000000000
3199 1       7.9718230243       9.0000000000
3200 1       7.5293347650       9.0000000000
3201 1       7.0428052079       9.0000000000
3202 1       7.4147086158       9.0000000000
3203 1       7.8181982200      10.0000000000
3204 1       7.3300719048       9.0000000000
3205 1       7.3601959073      11.0000000000
3206 1       7.0357200173      12.0000000000
3207 1       7.4324463416       8.0000000000
3208 1       7.7127568576       8.0000000000
3209 1       7.0511961822       8.0000000000
3210 1       7.2616389506       7.0000000000
3211 1       7.7797776737      10.0000000000
3212 1       7.4769641182       9.0000000000
3213 1       7.4810990521       9.0000000000
3214 1       7.3624094817       9.0000000000
3215 1       7.7171017698      11.0000000000
3216 1       7.7756143778      12.0000000000
3217 1       7.8496612448       8.0000000000
3218 1       7.2228972588       8.0000000000
3219 1       7.5084478631       8.0000000000
3220 1       7.3474832215       8.0000000000
3221 1       7.6449932261       9.0000000000
3222 1       7.2342430872       9.0000000000
3223 1       7.0861521034       7.0000000000
3224 1       7.1664535551       9.0000000000
3225 1       6.8641665019       9.0000000000
3226 1       7.1730944232       9.0000000000
3227 1       6.9179749072       8.0000000000
3228 1       6.9718875467       8.0000000000
3229 1       7.0888841926       9.0000000000
3230 1       6.9166687779       9.0000000000
3231 1       7.3154860685       9.0000000000
3232 1       7.2921809646      10.0000000000
3233 1       7.4676029808       9.0000000000
3234 1       7.7991794276       9.0000000000
3235 1       7.2882809117       9.0000000000
3236 1       7.5026194508       9.0000000000
3237 1       7.3425712309      11.0000000000
3238 1       7.7167274669      10.0000000000
3239 1       7.3970543581       7.0000000000
3240 1       7.1306363194       9.0000000000
3241 1       7.2489704360      10.0000000000
3242 1       7.2548622590       7.0000000000
3243 1       7.7297677150      11.0000000000
3244 1       6.9327041189       8.0000000000
3245 1       7.4668052659      11.0000000000
3246 1       7.6577983318      10.0000000000
3247 1       7.1487549487       8.0000000000
3248 1       8.1489553012       9.0000000000
3249 1       7.5502284914      11.0000000000
3250 1       6.9045899530       9.0000000000
3251 1       7.7113907989      10.0000000000
3252 1       7.4007609904       9.0000000000
3253 1       7.3892646454       9.0000000000
3254 1       7.2040258137       9.0000000000
3255 1       6.7465853632       9.0000000000
3256 1       7.5491244155       8.0000000000
3257 1       7.6170972207       9.0000000000
3258 1       7.0308041609       8.0000000000
3259 1       7.0462282627       8.0000000000
3260 1       7.8677158241       9.0000000000
3261 1       7.9271757173      10.0000000000
3262 1       6.9163335661      10.0000000000
3263 1       7.5913312908       9.0000000000
3264 1       7.5754462498       9.0000000000
3265 1       7.7768512454       9.0000000000
3266 1       7.3978216156       8.0000000000
3267 1       7.6492225656       9.0000000000
3268 1       7.0391034530       8.0000000000
3269 1       7.6662448494      11.0000000000
3270 1       7.8668923997       9.0000000000
3271 1       7.9029528723       9.0000000000
3272 1       7.4096695360      10.0000000000
3273 1       6.7540964635       8.0000000000
3274 1       7.8281799362       9.0000000000
3275 1       7.6318168342       9.0000000000
3276 1       7.2367504884       8.0000000000
3277 1       6.8006295408      10.0000000000
3278 1       7.7908446671       8.0000000000
3279 1       7.2504138304      10.0000000000
3280 1       7.9679411062       9.0000000000
3281 1       7.3998658041       9.0000000000
3282 1       7.6432926904       9.0000000000
3283 1       7.5159177153       9.0000000000
3284 1       7.0703102339       8.0000000000
3285 1       7.4698037639       9.0000000000
3286 1       6.8268825279       8.0000000000
3287 1       7.6699432534       7.0000000000
3288 1       7.2210873461      10.0000000000
3289 1       7.0649639505       9.0000000000
3290 1       7.7659325264      12.0000000000
3291 1       7.8827823134      10.0000000000
3292 1       7.2630190081       7.0000000000
3293 1       7.1799589964       9.0000000000
3294 1       7.4213975144      11.0000000000
3295 1       7.5008962399       9.0000000000
3296 1       7.6050491230       8.0000000000
3297 1       7.3410693236       9.0000000000
3298 1       7.3621308608      11.0000000000
3299 1       7.5996151596      11.0000000000
3300 1       7.4045656663      10.0000000000
3301 1       7.4197413055       9.0000000000
3302 1       7.1342973974       6.0000000000
3303 1       7.2743671463       9.0000000000
3304 1       6.8399193496       9.0000000000
3305 1       7.4293798497      11.0000000000
3306 1       7.3673725979       8.0000000000
3307 1       7.3294394420       9.0000000000
3308 1       7.6641597367       8.0000000000
3309 1       7.7401225143       9.0000000000
3310 1       7.3321514395       8.0000000000
3311 1       7.4908965941       9.0000000000
3312 1       6.9012624307      11.0000000000
3313 1       7.4729135907       9.0000000000
3314 1       7.5709308482      10.0000000000
3315 1       7.5619560155      10.0000000000
3316 1       6.8455319430       8.0000000000
3317 1       7.0485654353       8.0000000000
3318 1       7.1101155637      10.0000000000
3319 1       7.2315232100       8.0000000000
3320 1       7.4265090793       8.0000000000
3321 1       7.3292875828      11.0000000000
3322 1       7.3578353666      10.0000000000
3323 1       7.2935766727       7.0000000000
3324 1       7.5346870791      12.0000000000
3325 1       7.9095720873       9.0000000000
3326 1       7.4718200646       8.0000000000
3327 1       7.4354132241       9.0000000000
3328 1       6.8572705411      10.0000000000
3329 1       7.3889561176       8.0000000000
3330 1       7.2433933256       8.0000000000
3331 1       7.3963780104      11.0000000000
3332 1       7.4466827965       8.0000000000
3333 1       7.7743690214       8.0000000000
3334 1       7.5466234760      10.0000000000
3335 1       7.0491830590       8.0000000000
3336 1       8.0996719878      11.0000000000
3337 1       7.4049061978      10.0000000000
3338 1       7.0957099690       7.0000000000
3339 1       7.1224205667      10.0000000000
3340 1       6.7576565143       9.0000000000
3341 1       7.1839050085       7.0000000000
3342 1       7.4775416993      10.0000000000
3343 1       7.8668065181      11.0000000000
3344 1       7.3690388044       9.0000000000
3345 1       7.5339145361       9.0000000000
3346 1       7.2273068084       9.0000000000
3347 1       7.5688565551      10.0000000000
3348 1       7.3509866423       9.0000000000
3349 1       7.5830167299       8.0000000000
3350 1       7.3759459565       9.0000000000
3351 1       8.1407477934       8.0000000000
3352 1       7.4098740112       8.0000000000
3353 1       6.9711986311      11.0000000000
3354 1       7.3035370179       7.0000000000
3355 1       7.8786312622      10.0000000000
3356 1       6.9419886911       9.0000000000
3357 1       7.6145991782       9.0000000000
3358 1       7.5728111921       9.0000000000
3359 1       7.5713183116       7.0000000000
3360 1       7.2049563823       8.0000000000
3361 1       7.2509702184       9.0000000000
3362 1       7.4527415929       8.0000000000
3363 1       7.1911642191      10.0000000000
3364 1       7.7015350434       8.0000000000
3365 1       6.9798221505       9.0000000000
3366 1       7.0565607572       9.0000000000
3367 1       7.3077058041       8.0000000000
3368 1       7.0221034126      10.0000000000
3369 1       7.4703866628      10.0000000000
3370 1       7.5706957091       8.0000000000
3371 1       7.7294590115       9.0000000000
3372 1       7.2484903617       9.0000000000
3373 1       7.6415329823       8.0000000000
3374 1       6.6799581126       8.0000000000
3375 1       7.8675826375       8.0000000000
3376 1       7.2832814350       9.0000000000
3377 1       7.4911599851      10.0000000000
3378 1       7.5301852187       9.0000000000
3379 1       7.3351208786       8.0000000000
3380 1       7.3861014192       9.0000000000
3381 1       7.6822587680       9.0000000000
3382 1       7.2213310209       8.0000000000
3383 1       7.4450605674      11.0000000000
3384 1       7.3967505860      10.0000000000
3385 1       7.8291395710       9.0000000000
3386 1       7.2257507186      11.0000000000
3387 1       7.9912423568       8.0000000000
3388 1       7.7570381853      10.0000000000
3389 1       7.1785172560       9.0000000000
3390 1       7.1460670558      10.0000000000
3391 1       8.1223364638       7.0000000000
3392 1       7.1137434362       7.0000000000
3393 1       6.7103204021       7.0000000000
3394 1       7.5694479953       8.0000000000
3395 1       6.9812916180       8.0000000000
3396 1       7.6487890716       9.0000000000
3397 1       7.3715486416       7.0000000000
3398 1       7.6203970043       9.0000000000
3399 1       7.9065007080      10.0000000000
3400 1       7.1717559607       7.0000000000
3401 1       7.1389300685       8.0000000000
3402 1       7.2768990369      11.0000000000
3403 1       7.6851508637       9.0000000000
3404 1       7.0097543161      11.0000000000
3405 1       7.2368830904       9.0000000000
3406 1       7.6532108805       9.0000000000
3407 1       7.3067374647      10.0000000000
3408 1       7.9215017570       8.0000000000
3409 1       7.3519776353      11.0000000000
3410 1       7.1345465081      11.0000000000
3411 1       7.7899561130      11.0000000000
3412 1       8.0231495585       7.0000000000
3413 1       7.1083711033       9.0000000000
3414 1       7.6245233610       9.0000000000
3415 1       7.3210860760       8.0000000000
3416 1       7.3701752804      11.0000000000
3417 1       7.3154347651       9.0000000000
3418 1       7.2310051952       8.0000000000
3419 1       7.3364628208      10.0000000000
3420 1       7.0470118369      12.0000000000
3421 1       7.3631470190       8.0000000000
3422 1       7.3413748866       9.0000000000
3423 1       7.3473239634       9.0000000000
3424 1       7.6505590961       9.0000000000
3425 1       7.8750803815      10.0000000000
3426 1       7.1488404988      10.0000000000
3427 1       7.4238551795      10.0000000000
3428 1       7.3703168738       8.0000000000
3429 1       7.3566615428       8.0000000000
3430 1       7.8221952671      10.0000000000
3431 1       7.8086268983      10.0000000000
3432 1       7.0496213555       8.0000000000
3433 1       7.8313369004      12.0000000000
3434 1       7.8572526056      11.0000000000
3435 1       7.5251700700       9.0000000000
3436 1       7.7191411259      11.0000000000
3437 1       7.4340249168       9.0000000000
3438 1       6.9632894319       9.0000000000
3439 1       7.5947018480       9.0000000000
3440 1       8.0754929756       8.0000000000
3441 1       7.2322883587       9.0000000000
3442 1       7.7428743840      10.0000000000
3443 1       7.5630290881       9.0000000000
3444 1       7.5553202452      10.0000000000
3445 1       7.5584814345       9.0000000000
3446 1       7.2561694268       8.0000000000
3447 1       7.1432193370      10.0000000000
3448 1       7.2966175524       9.0000000000
3449 1       7.2783573835       9.0000000000
3450 1       7.2754012031      10.0000000000
3451 1       7.6982537961      11.0000000000
3452 1       6.8308507510       8.0000000000
3453 1       7.3738906092       8.0000000000
3454 1       7.3286593827       9.0000000000
3455 1       7.9611652303       9.0000000000
3456 1       6.5230294576       8.0000000000
3457 1       7.2403527097       6.0000000000
3458 1       7.5627350493      10.0000000000
3459 1       6.9568741390       8.0000000000
3460 1       7.3333936402      11.0000000000
3461 1       6.9323948264       7.0000000000
3462 1       7.4134526083       9.0000000000
3463 1       6.8864202806       7.0000000000
3464 1       7.1693245906      11.0000000000
3465 1       7.6280545350       8.0000000000
3466 1       7.5982102473      11.0000000000
3467 1       7.0195846690       8.0000000000
3468 1       7.3259846193       8.0000000000
3469 1       7.3148714891      11.0000000000
3470 1       7.5466219748       9.0000000000
3471 1       7.2643548888       9.0000000000
3472 1       6.9807805605       9.0000000000
3473 1       7.6333168959       9.0000000000
3474 1       7.3698765137       8.0000000000
3475 1       7.0506451956       8.0000000000
3476 1       7.2915263907       9.0000000000
3477 1       7.5975760860       9.0000000000
3478 1       7.3374011996      10.0000000000
3479 1       7.2588979875       9.0000000000
3480 1       7.3719371139      10.0000000000
3481 1       7.6022663802      10.0000000000
3482 1       7.3664996048       9.0000000000
3483 1       7.9745953497      10.0000000000
3484 1       8.3801519383       8.0000000000
3485 1       7.4550675475       9.0000000000
3486 1       7.2630160896      10.0000000000
3487 1       6.9513111572      10.0000000000
3488 1       7.2165235025      11.0000000000
3489 1       7.9699898282       9.0000000000
3490 1       7.7264337612      10.0000000000
3491 1       7.5126461844       9.0000000000
3492 1       6.9230156551       8.0000000000
3493 1       7.4623691333      10.0000000000
3494 1       7.4039640229      10.0000000000
3495 1       7.9719267269      10.0000000000
3496 1       7.0748664059       9.0000000000
3497 1       7.9008678795      10.0000000000
3498 1       7.9532877235      10.0000000000
3499 1       6.8524882916       9.0000000000
3500 1       7.5593802437       9.0000000000
3501 1       6.8941852364       8.0000000000
3502 1       7.3613050643       9.0000000000
3503 1       7.8175198043       9.0000000000
3504 1       7.4164394445       8.0000000000
3505 1       7.0698158568       9.0000000000
3506 1       7.8210883736       8.0000000000
3507 1       6.9307991717       9.0000000000
3508 1       7.4449013608      10.0000000000
3509 1       7.5958042615       9.0000000000
3510 1       6.8412617735      10.0000000000
3511 1       7.2435179751       8.0000000000
3512 1       6.9332148441       8.0000000000
3513 1       6.9675598339       6.0000000000
3514 1       7.6446925351       8.0000000000
3515 1       6.9007751369       9.0000000000
3516 1       6.9848496717       8.0000000000
3517 1       7.2465279514      10.0000000000
3518 1       7.0222641408       8.0000000000
3519 1       7.1801962186       8.0000000000
3520 1       7.6094397703      10.0000000000
3521 1       7.7438962920       8.0000000000
3522 1       7.4408825424       8.0000000000
3523 1       7.7082443868       9.0000000000
3524 1       7.1986508482       9.0000000000
3525 1       7.1505257517       7.0000000000
3526 1       7.1759808215       8.0000000000
3527 1       7.3661103134      10.0000000000
3528 1       7.3945644839       7.0000000000
3529 1       7.5500614434       8.0000000000
3530 1       7.0167775946       9.0000000000
3531 1       7.0358114695       7.0000000000
3532 1       7.0078195996       9.0000000000
3533 1       7.0355992713       8.0000000000
3534 1       6.9845466949       7.0000000000
3535 1       7.4003741551      10.0000000000
3536 1       7.0204184811       9.0000000000
3537 1       7.1833745311       8.0000000000
3538 1       6.8951454535       8.0000000000
3539 1       7.3427578000      13.0000000000
3540 1       7.6132033961       9.0000000000
3541 1       7.9408007965       8.0000000000
3542 1       7.8377708577       8.0000000000
3543 1       7.0407077951       9.0000000000
3544 1       7.1969172721       8.0000000000
3545 1       7.3828628220      11.0000000000
3546 1       7.4241032993      11.0000000000
3547 1       7.5174363513       9.0000000000
3548 1       7.2265794160      10.0000000000
3549 1       7.5681050959      10.0000000000
3550 1       7.3538988781       9.0000000000
3551 1       7.1963404760       9.0000000000
3552 1       7.3006379985       8.0000000000
3553 1       7.2584517060       9.0000000000
3554 1       7.1710763760      11.0000000000
3555 1       7.2529613756       9.0000000000
3556 1       7.4638296403      10.0000000000
3557 1       7.5458934713       9.0000000000
3558 1       6.8192401867       9.0000000000
3559 1       7.0402596213       9.0000000000
3560 1       6.7075908798       8.0000000000
3561 1       7.3367352970       9.0000000000
3562 1       7.8429430219      11.0000000000
3563 1       6.9419243904       9.0000000000
3564 1       7.4547843778      10.0000000000
3565 1       6.9604526672       8.0000000000
3566 1       7.2147942834       8.0000000000
3567 1       7.2229661620       9.0000000000
3568 1       7.3513855567      10.0000000000
3569 1       7.9184231640       9.0000000000
3570 1       7.9997877878       7.0000000000
3571 1       7.3794728884      13.0000000000
3572 1       7.0096279831       8.0000000000
3573 1       7.0754489533      10.0000000000
3574 1       7.2513636165      11.0000000000
3575 1       7.2225907521       8.0000000000
3576 1       7.0825962663       7.0000000000
3577 1       7.7144284078       9.0000000000
3578 1       7.5166424340       8.0000000000
3579 1       7.1857337622       7.0000000000
3580 1       7.2225725420      12.0000000000
3581 1       7.1358891972       8.0000000000
3582 1       7.2987032609       9.0000000000
3583 1       7.0786166942       9.0000000000
3584 1       7.0567656584       6.0000000000
3585 1       7.4201037810       8.0000000000
3586 1       7.4973947822      10.0000000000
3587 1       8.1731648972      10.0000000000
3588 1       6.6093068392       7.0000000000
3589 1       6.8823357248      10.0000000000
3590 1       7.7899368765       8.0000000000
3591 1       7.6240974332      11.0000000000
3592 1       7.3532976379       9.0000000000
3593 1       7.2161270200       9.0000000000
3594 1       6.9678552521      11.0000000000
3595 1       7.4083222866      10.0000000000
3596 1       7.3272126696       9.0000000000
3597 1       7.4154611380       8.0000000000
3598 1       7.0184646624      11.0000000000
3599 1       7.2155966943       6.0000000000
3600 1       7.5779267396       9.0000000000
3601 1       7.7843296249       6.0000000000
3602 1       7.4142533992      12.0000000000
3603 1       7.4870884554      11.0000000000
3604 1       6.7744472556       9.0000000000
3605 1       7.1677768133       8.0000000000
3606 1       7.5737108514      12.0000000000
3607 1       6.8327949874       9.0000000000
3608 1       8.3617302439       9.0000000000
3609 1       7.2650418692       8.0000000000
3610 1       7.1047733554       9.0000000000
3611 1       7.1554076916       8.0000000000
3612 1       7.2190826914       9.0000000000
3613 1       7.5360061004      10.0000000000
3614 1       6.9239237723       8.0000000000
3615 1       7.3057704192      11.0000000000
3616 1       7.4609994356      10.0000000000
3617 1       7.4750269994       8.0000000000
3618 1       7.7063046999      11.0000000000
3619 1       7.1524163886       9.0000000000
3620 1       7.2407191954      10.0000000000
3621 1       7.6341443825      10.0000000000
3622 1       7.3395440972       7.0000000000
3623 1       7.5240125817       9.0000000000
3624 1       7.8125303439       9.0000000000
3625 1       6.7379266583       7.0000000000
3626 1       6.9485870560       9.0000000000
3627 1       7.2747612804      11.0000000000
3628 1       7.1836420442       9.0000000000
3629 1       6.6203231654       8.0000000000
3630 1       6.9339120499       8.0000000000
3631 1       7.3026824027       9.0000000000
3632 1       7.0626964754       8.0000000000
3633 1       7.1834700102       9.0000000000
3634 1       7.1634031425       8.0000000000
3635 1       7.6157381665       8.0000000000
3636 1       7.3029430665       8.0000000000
3637 1       7.6234385848       9.0000000000
3638 1       7.4888437576      10.0000000000
3639 1       7.4151072689      11.0000000000
3640 1       7.1138578372       7.0000000000
3641 1       7.8364205937       9.0000000000
3642 1       7.1753046320       9.0000000000
3643 1       7.0772135607       9.0000000000
3644 1       6.8721002956       9.0000000000
3645 1       7.5185362169      10.0000000000
3646 1       7.5076324153       9.0000000000
3647 1       7.4646329966       8.0000000000
3648 1       7.5291059284      10.0000000000
3649 1       7.2800585291       7.0000000000
3650 1       7.5529249274       9.0000000000
3651 1       7.7736292384       8.0000000000
3652 1       7.2046876585      10.0000000000
3653 1       6.7219439902       8.0000000000
3654 1       7.1681717167       9.0000000000
3655 1       7.3360777405      10.0000000000
3656 1       7.2547876072       9.0000000000
3657 1       7.3927729904       9.0000000000
3658 1       6.6073709352       7.0000000000
3659 1       7.0800619458      10.0000000000
3660 1       7.3673041711       8.0000000000
3661 1       7.5256562757      11.0000000000
3662 1       7.1298944780       8.0000000000
3663 1       7.6037561643      10.0000000000
3664 1       7.3463906406       9.0000000000
3665 1       7.3876504813       8.0000000000
3666 1       7.5883496641      10.0000000000
3667 1       7.1380918522       8.0000000000
3668 1       7.4248118661      11.0000000000
3669 1       7.6392319727      11.0000000000
3670 1       7.8075608060       9.0000000000
3671 1       7.3751964601       8.0000000000
3672 1       8.2513657462      13.0000000000
3673 1       7.7184175102       8.0000000000
3674 1       7.3187233213      11.0000000000
3675 1       7.4601675816       9.0000000000
3676 1       7.3997983007      10.0000000000
3677 1       6.9351138271      10.0000000000
3678 1       7.6152107062       8.0000000000
3679 1       7.3931600529      10.0000000000
3680 1       7.9309149718       9.0000000000
3681 1       7.3525207674       7.0000000000
3682 1       7.9968338846       8.0000000000
3683 1       7.3274900555       9.0000000000
3684 1       7.7415011046       9.0000000000
3685 1       7.3829275968       9.0000000000
3686 1       7.5435227430      11.0000000000
3687 1       7.1461734004       9.0000000000
3688 1       7.2057593211       8.0000000000
3689 1       7.7105496265       7.0000000000
3690 1       6.6947799388       8.0000000000
3691 1       7.0010230143       7.0000000000
3692 1       6.9273703756       8.0000000000
3693 1       7.7359995078      11.0000000000
3694 1       7.0779935265       9.0000000000
3695 1       7.5519185268       8.0000000000
3696 1       7.4219647008       9.0000000000
3697 1       7.1310624658       8.0000000000
3698 1       7.4565819525       8.0000000000
3699 1       7.2472449831       8.0000000000
3700 1       6.8198009563      11.0000000000
3701 1       7.3291539717       8.0000000000
3702 1       7.2028605126      12.0000000000
3703 1       7.0566090896       8.0000000000
3704 1       7.0642244149       9.0000000000
3705 1       7.1505533984      10.0000000000
3706 1       7.4786794851      11.0000000000
3707 1       7.5869786496       8.0000000000
3708 1       7.5935272562      12.0000000000
3709 1       7.6972928814      10.0000000000
3710 1       7.8330794071       9.0000000000
3711 1       7.5967037480       8.0000000000
3712 1       7.1373698669       9.0000000000
3713 1       7.3940601045       8.0000000000
3714 1       7.2018283510      10.0000000000
3715 1       6.5950045827       8.0000000000
3716 1       6.7590029170      10.0000000000
3717 1       7.1040941720       9.0000000000
3718 1       7.3633336301       8.0000000000
3719 1       6.7958894184       8.0000000000
3720 1       7.2488306840       9.0000000000
3721 1       7.3338674733       8.0000000000
3722 1       7.8128866513       7.0000000000
3723 1       7.7745522197       9.0000000000
3724 1       7.3274903677       9.0000000000
3725 1       6.9635197378      10.0000000000
3726 1       7.2859514714      10.0000000000
3727 1       7.5212540664      10.0000000000
3728 1       6.6940917396       9.0000000000
3729 1       7.3764043854       7.0000000000
3730 1       7.4293534204       9.0000000000
3731 1       7.3710544864       8.0000000000
3732 1       7.5231776404       9.0000000000
3733 1       7.2826898005       9.0000000000
3734 1       8.1118949671       7.0000000000
3735 1       7.2489568493       8.0000000000
3736 1       7.5948706800       9.0000000000
3737 1       7.6201092590       8.0000000000
3738 1       7.0225890032       9.0000000000
3739 1       7.2914138210       9.0000000000
3740 1       7.3473867527       8.0000000000
3741 1       7.6021284718      11.0000000000
3742 1       7.2760969424      10.0000000000
3743 1       7.1019226022       8.0000000000
3744 1       6.7177517926       7.0000000000
3745 1       7.3178545156       7.0000000000
3746 1       7.7088587489       8.0000000000
3747 1       7.2809761453       9.0000000000
3748 1       7.3634703545      13.0000000000
3749 1       7.2208977418      10.0000000000
3750 1       6.8401626758       7.0000000000
3751 2      15.9376557079      17.0000000000
3752 2      15.4071040133      16.0000000000
3753 2      14.8460832687      16.0000000000
3754 2      15.0582242190      18.0000000000
3755 2      19.8056243390      18.0000000000
3756 2      14.8875604335      14.0000000000
3757 2      14.9810925526      17.0000000000
3758 2      12.9518835877      17.0000000000
3759 2      12.8640709087      14.0000000000
3760 2      14.8323965002      16.0000000000
3761 2      16.4526670913      19.0000000000
3762 2      20.2259294269      23.0000000000
3763 2      13.8438139364      17.0000000000
3764 2      15.5327828856      18.0000000000
3765 2      15.3166518953      16.0000000000
3766 2      15.4541095107      16.0000000000
3767 2      15.9962398281      16.0000000000
3768 2      15.3360120999      19.0000000000
3769 2      13.5777452534      18.0000000000
3770 2      16.9068657277      21.0000000000
3771 2      12.2258371657      15.0000000000
3772 2      20.9737805968      23.0000000000
3773 2      19.1425815608      22.0000000000
3774 2      15.7688856513      17.0000000000
3775 2      13.8965603762      20.0000000000
3776 2      12.4450898773      14.0000000000
3777 2      16.5968216910      20.0000000000
3778 2      16.1651129417      20.0000000000
3779 2      14.3981470498      16.0000000000
3780 2      16.8924280886      20.0000000000
3781 2      15.1976422415      17.0000000000
3782 2      18.6438622432      20.0000000000
3783 2      13.3394537957      19.0000000000
3784 2      15.6885825574      17.0000000000
3785 2      15.2680778838      18.0000000000
3786 2      14.9981088462      15.0000000000
3787 2      16.8048747525      22.0000000000
3788 2      15.8676422096      17.0000000000
3789 2      14.5476222980      16.0000000000
3790 2      14.8970423765      19.0000000000
3791 2      15.0913377472      17.0000000000
3792 2      16.6481357786      19.0000000000
3793 2      14.3246475196      17.0000000000
3794 2      13.1685589236      13.0000000000
3795 2      12.5117345860      14.0000000000
3796 2      15.9906703678      17.0000000000
3797 2      17.1007637674      18.0000000000
3798 2      14.1299908743      16.0000000000
3799 2      17.2775741214      19.0000000000
3800 2      17.6196875200      15.0000000000
3801 2      16.4157465038      15.0000000000
3802 2      16.4728889494      20.0000000000
3803 2      15.3879834335      18.0000000000
3804 2      14.4075073439      21.0000000000
3805 2      13.7370555973      12.0000000000
3806 2      16.6718537498      15.0000000000
3807 2      15.9976572589      20.0000000000
3808 2      17.0182270777      22.0000000000
3809 2      17.3537406288      19.0000000000
3810 2      15.6765869375      14.0000000000
3811 2      14.2026640008      16.0000000000
3812 2      18.9134532926      22.0000000000
3813 2      16.1399891754      21.0000000000
3814 2      17.0723388971      18.0000000000
3815 2      18.1801171595      21.0000000000
3816 2      13.7606525613      20.0000000000
3817 2      15.7182472899      18.0000000000
3818 2      18.3307113924      18.0000000000
3819 2      16.6757351263      21.0000000000
3820 2      17.0101098760      14.0000000000
3821 2      12.1295866510      16.0000000000
3822 2      17.7849328594      17.0000000000
3823 2      14.7346460400      18.0000000000
3824 2      15.6277075948      17.0000000000
3825 2      13.8240497120      15.0000000000
3826 2      17.9255779444      16.0000000000
3827 2      17.6829694741      16.0000000000
3828 2      17.5903323476      20.0000000000
3829 2      20.5991220311      20.0000000000
3830 2      16.2524815683      19.0000000000
3831 2      15.1194161504      16.0000000000
3832 2      14.8081804926      19.0000000000
3833 2      17.0144772061      16.0000000000
3834 2      15.9435129682      20.0000000000
3835 2      14.9944298646      20.0000000000
3836 2      16.5546107266      22.0000000000
3837 2      16.0002687199      18.0000000000
3838 2      18.9778784763      21.0000000000
3839 2      16.9178324187      14.0000000000
3840 2      14.3201011755      15.0000000000
3841 2      17.3144818786      19.0000000000
3842 2      15.8076015796      19.0000000000
3843 2      14.9483892654      15.0000000000
3844 2      14.5573598176      15.0000000000
3845 2      14.6553983944      18.0000000000
3846 2      12.8474524661      13.0000000000
3847 2      15.5059324391      17.0000000000
3848 2      16.1314019542      12.0000000000
3849 2      15.6263249581      20.0000000000
3850 2      16.0591460887      20.0000000000
3851 2      15.6781501180      16.0000000000
3852 2      14.4205760403      18.0000000000
3853 2      15.4648349919      17.0000000000
3854 2      14.3627646108      20.0000000000
3855 2      14.0063177891      16.0000000000
3856 2      15.9205783793      19.0000000000
3857 2      15.6681004657      18.0000000000
3858 2      15.2571285238      15.0000000000
3859 2      15.3019014231      15.0000000000
3860 2      17.6933554748      17.0000000000
3861 2      14.5258702240      15.0000000000
3862 2      19.8323358496      21.0000000000
3863 2      13.5932352219      14.0000000000
3864 2      16.1020515810      17.0000000000
3865 2      13.6205606550      18.0000000000
3866 2      15.1355793331      18.0000000000
3867 2      16.7925986999      19.0000000000
3868 2      14.2366535983      17.0000000000
3869 2      19.3020385143      17.0000000000
3870 2      17.8510554935      20.0000000000
3871 2      14.6747356695      15.0000000000
3872 2      13.6439916387      15.0000000000
3873 2      15.7902004784      18.0000000000
3874 2      14.3002329381      17.0000000000
3875 2      16.3512383907      16.0000000000
3876 2      15.3759040126      18.0000000000
3877 2      15.4679968073      16.0000000000
3878 2      14.3328948788      14.0000000000
3879 2      13.5062980042      15.0000000000
3880 2      15.8334617082      15.0000000000
3881 2      14.5016103338      17.0000000000
3882 2      13.9728988423      18.0000000000
3883 2      13.9271618004      15.0000000000
3884 2      17.2915693333      15.0000000000
3885 2      13.1930582194      17.0000000000
3886 2      17.0283384978      19.0000000000
3887 2      14.4867088906      17.0000000000
3888 2      15.1295458400      18.0000000000
3889 2      13.8550361786      12.0000000000
3890 2      15.3146588194      18.0000000000
3891 2      13.2356512109      17.0000000000
3892 2      16.3042537354      21.0000000000
3893 2      16.2403166444      20.0000000000
3894 2      14.1675040382      17.0000000000
3895 2      17.6552858669      22.0000000000
3896 2      14.6325290930      18.0000000000
3897 2      14.8982894532      17.0000000000
3898 2      17.8159508168      14.0000000000
3899 2      16.7132776880      18.0000000000
3900 2      16.7714319866      20.0000000000
3901 2      19.1810524371      23.0000000000
3902 2      21.3361619306      23.0000000000
3903 2      17.5088548000      19.0000000000
3904 2      16.5993796022      17.0000000000
3905 2      19.5246783578      16.0000000000
3906 2      16.1522882700      19.0000000000
3907 2      16.2033074116      19.0000000000
3908 2      13.8135571828      18.0000000000
3909 2      17.6116224749      19.0000000000
3910 2      15.0178833956      16.0000000000
3911 2      18.2541731847      15.0000000000
3912 2      16.4176061287      16.0000000000
3913 2      14.7355930497      16.0000000000
3914 2      15.8049927068      18.0000000000
3915 2      16.2886156695      21.0000000000
3916 2      14.6626199024      15.0000000000
3917 2      13.9903615908      15.0000000000
3918 2      17.5637153868      21.0000000000
3919 2      16.4830584457      16.0000000000
3920 2      12.9227689591      14.0000000000
3921 2      15.2628601285      17.0000000000
3922 2      14.3779386919      17.0000000000
3923 2      16.1046186347      17.0000000000
3924 2      14.2848268690      14.0000000000
3925 2      13.5724929675      16.0000000000
3926 2      14.6689208699      18.0000000000
3927 2      15.6076284232      19.0000000000
3928 2      15.8678919735      18.0000000000
3929 2      14.3952992203      14.0000000000
3930 2      16.5448498289      20.0000000000
3931 2      12.8456449980      16.0000000000
3932 2      15.7998704698      20.0000000000
3933 2      16.0850293739      17.0000000000
3934 2      14.7815878710      19.0000000000
3935 2      15.4052448249      14.0000000000
3936 2      16.6290697152      18.0000000000
3937 2      17.6047319936      19.0000000000
3938 2      16.3821909321      21.0000000000
3939 2      14.4362977461      20.0000000000
3940 2      16.9011888612      22.0000000000
3941 2      12.6723189292      16.0000000000
3942 2      15.2012437701      20.0000000000
3943 2      17.5218011047      19.0000000000
3944 2      14.4905413483      19.0000000000
3945 2      15.8099741736      21.0000000000
3946 2      17.9504894769      19.0000000000
3947 2      14.1028798327      17.0000000000
3948 2      14.9514051292      22.0000000000
3949 2      18.2522048370      21.0000000000
3950 2      15.8302546858      22.0000000000
3951 2      13.3569161337      15.0000000000
3952 2      15.0224075629      17.0000000000
3953 2      18.3332634945      17.0000000000
3954 2      13.5788629240      17.0000000000
3955 2      17.1999505531      17.0000000000
3956 2      17.0249496556      17.0000000000
3957 2      17.6427812855      18.0000000000
3958 2      14.6329451327      16.0000000000
3959 2      13.7736085216      15.0000000000
3960 2      16.5151491857      17.0000000000
3961 2      14.4037199337      16.0000000000
3962 2      14.7395610559      17.0000000000
3963 2      16.0139047104      16.0000000000
3964 2      16.0961352018      18.0000000000
3965 2      16.5685936399      17.0000000000
3966 2      16.2387223877      20.0000000000
3967 2      16.1130062417      18.0000000000
3968 2      14.4225783525      18.0000000000
3969 2      14.8485287657      16.0000000000
3970 2      15.5621788153      17.0000000000
3971 2      17.0483194107      19.0000000000
3972 2      14.1125070145      19.0000000000
3973 2      18.3328057248      20.0000000000
3974 2      14.1139470900      13.0000000000
3975 2      20.1381136841      21.0000000000
3976 2      15.9702296094      18.0000000000
3977 2      17.6869100124      21.0000000000
3978 2      18.1459807193      20.0000000000
3979 2      15.6898853734      19.0000000000
3980 2      14.9591136053      17.0000000000
3981 2      16.0113813905      18.0000000000
3982 2      14.5688411524      19.0000000000
3983 2      14.1908885264      15.0000000000
3984 2      13.4738414137      17.0000000000
3985 2      19.0199262576      19.0000000000
3986 2      15.4376312933      18.0000000000
3987 2      13.7020557200      17.0000000000
3988 2      20.5076572638      21.0000000000
3989 2      17.4245828703      19.0000000000
3990 2      14.3880300034      17.0000000000
3991 2      16.6221394503      20.0000000000
3992 2      14.2259477827      21.0000000000
3993 2      13.5124488861      14.0000000000
3994 2      12.1591134406      15.0000000000
3995 2      15.1902372486      15.0000000000
3996 2      17.5318491992      19.0000000000
3997 2      13.1503798585      18.0000000000
3998 2      18.0091892543      16.0000000000
3999 2      19.0946097797      21.0000000000
4000 2      15.9430450958      19.0000000000
4001 2      13.5935943303      18.0000000000
4002 2      17.0779646844      22.0000000000
4003 2      18.4831260562      21.0000000000
4004 2      18.1426424273      18.0000000000
4005 2      19.4692513115      17.0000000000
4006 2      13.7960380325      17.0000000000
4007 2      15.4162794222      18.0000000000
4008 2      14.4285874327      20.0000000000
4009 2      15.6460270649      17.0000000000
4010 2      15.4922931559      19.0000000000
4011 2      15.4883028100      15.0000000000
4012 2      15.4110899540      22.0000000000
4013 2      15.3106611753      18.0000000000
4014 2      15.4975836763      20.0000000000
4015 2      15.9866353409      17.0000000000
4016 2      17.9221045518      21.0000000000
4017 2      16.8565247769      17.0000000000
4018 2      17.1980582782      21.0000000000
4019 2      18.8530861075      16.0000000000
4020 2      16.4905617337      16.0000000000
4021 2      15.5045194847      17.0000000000
4022 2      15.3911131228      13.0000000000
4023 2      16.6795693484      18.0000000000
4024 2      13.8004396666      19.0000000000
4025 2      15.5619814484      18.0000000000
4026 2      16.5329425240      19.0000000000
4027 2      11.9732597874      17.0000000000
4028 2      14.2274943462      17.0000000000
4029 2      17.1993829792      13.0000000000
4030 2      16.2967750605      15.0000000000
4031 2      14.5809454847      22.0000000000
4032 2      13.9896128505      15.0000000000
4033 2      18.7866427768      21.0000000000
4034 2      17.8505336231      22.0000000000
4035 2      15.4885025087      17.0000000000
4036 2      14.5536365301      17.0000000000
4037 2      16.7277069425      20.0000000000
4038 2      17.7388019895      17.0000000000
4039 2      15.1376847585      19.0000000000
4040 2      15.3969734542      19.0000000000
4041 2      17.9242909215      19.0000000000
4042 2      16.7227363959      16.0000000000
4043 2      16.1662993522      18.0000000000
4044 2      17.3730140555      18.0000000000
4045 2      17.0368716415      13.0000000000
4046 2      14.4764150100      14.0000000000
4047 2      16.3380864875      17.0000000000
4048 2      14.5358476487      17.0000000000
4049 2      15.4267072388      19.0000000000
4050 2      15.0169588497      16.0000000000
4051 2      14.0047821876      16.0000000000
4052 2      13.8080231011      18.0000000000
4053 2      15.7056449536      15.0000000000
4054 2      20.5685785998      17.0000000000
4055 2      15.9395954875      16.0000000000
4056 2      18.4091198623      18.0000000000
4057 2      11.9966829842      16.0000000000
4058 2      19.2849405842      20.0000000000
4059 2      17.4623469602      18.0000000000
4060 2      14.9396897212      19.0000000000
4061 2      15.6056392452      15.0000000000
4062 2      12.8629031625      17.0000000000
4063 2      15.5430697054      20.0000000000
4064 2      13.8421064997      14.0000000000
4065 2      17.0419887045      18.0000000000
4066 2      18.1923351733      18.0000000000
4067 2      15.6097760605      17.0000000000
4068 2      18.4708717511      23.0000000000
4069 2      14.9332625304      17.0000000000
4070 2      14.0612937626      14.0000000000
4071 2      16.2634082461      16.0000000000
4072 2      16.1696130270      18.0000000000
4073 2      17.0726109207      17.0000000000
4074 2      15.4832802112      15.0000000000
4075 2      15.5191422662      17.0000000000
4076 2      15.0702521700      18.0000000000
4077 2      14.5109552118      16.0000000000
4078 2      16.3299147464      16.0000000000
4079 2      17.5202296172      20.0000000000
4080 2      19.9256567912      20.0000000000
4081 2      14.6199646553      17.0000000000
4082 2      13.4561523802      17.0000000000
4083 2      15.8220918123      15.0000000000
4084 2      14.7659522797      17.0000000000
4085 2      15.4483324179      17.0000000000
4086 2      14.3024396453      19.0000000000
4087 2      16.5734021129      19.0000000000
4088 2      14.1525495489      20.0000000000
4089 2      16.8978160847      19.0000000000
4090 2      14.7104900716      16.0000000000
4091 2      16.6501240574      16.0000000000
4092 2      14.8245813528      20.0000000000
4093 2      14.7725664169      20.0000000000
4094 2      16.9545200364      16.0000000000
4095 2      15.2624774205      20.0000000000
4096 2      17.5721316734      16.0000000000
4097 2      15.3461259067      15.0000000000
4098 2      18.8505863826      19.0000000000
4099 2      15.9412881905      18.0000000000
4100 2      15.1168826296      17.0000000000
4101 2      17.2902729862      20.0000000000
4102 2      15.1941529123      16.0000000000
4103 2      14.1044001412      18.0000000000
4104 2      15.7667062244      16.0000000000
4105 2      15.5950653776      18.0000000000
4106 2      15.3204087617      19.0000000000
4107 2      16.6251663710      20.0000000000
4108 2      13.4758068725      16.0000000000
4109 2      17.8194286136      21.0000000000
4110 2      16.0192547698      15.0000000000
4111 2      21.2258450752      18.0000000000
4112 2      14.9874486855      18.0000000000
4113 2      18.2505559136      15.0000000000
4114 2      15.1621563041      18.0000000000
4115 2      15.6535229191      15.0000000000
4116 2      17.2063566159      20.0000000000
4117 2      16.2969149181      16.0000000000
4118 2      19.3792210585      18.0000000000
4119 2      14.4394678551      16.0000000000
4120 2      14.7908517465      16.0000000000
4121 2      15.7426622187      15.0000000000
4122 2      18.1577217005      19.0000000000
4123 2      16.7165022105      19.0000000000
4124 2      14.9741137308      15.0000000000
4125 2      14.4648928081      19.0000000000
4126 2      16.0967832876      20.0000000000
4127 2      15.1063776411      15.0000000000
4128 2      18.8602768147      16.0000000000
4129 2      16.8007736621      18.0000000000
4130 2      14.2761105829      17.0000000000
4131 2      15.5459816433      20.0000000000
4132 2      14.7999533225      16.0000000000
4133 2      15.1538145507      18.0000000000
4134 2      14.9415515468      14.0000000000
4135 2      15.2136161646      16.0000000000
4136 2      13.3334123573      16.0000000000
4137 2      16.9486842008      20.0000000000
4138 2      13.9476155984      16.0000000000
4139 2      14.6782588165      18.0000000000
4140 2      18.3721039237      20.0000000000
4141 2      15.7531635190      17.0000000000
4142 2      18.2744202543      19.0000000000
4143 2      15.4220847988      17.0000000000
4144 2      17.3365113990      19.0000000000
4145 2      14.9251839370      16.0000000000
4146 2      15.7749057100      15.0000000000
4147 2      16.6145503979      17.0000000000
4148 2      16.8483258113      20.0000000000
4149 2      13.8396525030      17.0000000000
4150 2      15.8783802349      17.0000000000
4151 2      18.1073591931      21.0000000000
4152 2      14.6298271009      17.0000000000
4153 2      15.9472136220      19.0000000000
4154 2      18.7332819543      21.0000000000
4155 2      18.1373127194      17.0000000000
4156 2      14.2560190009      18.0000000000
4157 2      14.1896245292      17.0000000000
4158 2      15.7629303616      17.0000000000
4159 2      14.4689297710      17.0000000000
4160 2      14.9228688753      17.0000000000
4161 2      15.3721066551      20.0000000000
4162 2      15.3144076745      18.0000000000
4163 2      16.9459589834      18.0000000000
4164 2      16.8285069016      16.0000000000
4165 2      13.3437925341      17.0000000000
4166 2      18.3502046236      15.0000000000
4167 2      17.6189047982      22.0000000000
4168 2      15.5357783359      19.0000000000
4169 2      15.3029066088      19.0000000000
4170 2      17.7876515342      17.0000000000
4171 2      13.7992923816      15.0000000000
4172 2      17.4713177872      16.0000000000
4173 2      15.6892415110      16.0000000000
4174 2      14.2426874190      15.0000000000
4175 2      15.5812983177      16.0000000000
4176 2      17.5587961178      16.0000000000
4177 2      14.5330016513      16.0000000000
4178 2      15.9952040320      16.0000000000
4179 2      15.4603801801      17.0000000000
4180 2      16.7054908842      18.0000000000
4181 2      14.2738385712      17.0000000000
4182 2      18.5047985205      18.0000000000
4183 2      18.7938914737      19.0000000000
4184 2      17.5530385187      19.0000000000
4185 2      13.4695043625      17.0000000000
4186 2      13.7655772560      16.0000000000
4187 2      14.2313858474      16.0000000000
4188 2      14.0522920774      16.0000000000
4189 2      16.2664872399      19.0000000000
4190 2      14.0407136692      19.0000000000
4191 2      15.0373031711      18.0000000000
4192 2      19.5180495730      22.0000000000
4193 2      16.7066588406      16.0000000000
4194 2      15.9792770300      16.0000000000
4195 2      15.8167178367      17.0000000000
4196 2      16.9759016383      11.0000000000
4197 2      17.4791398095      20.0000000000
4198 2      13.0743775570      18.0000000000
4199 2      18.6349410717      17.0000000000
4200 2      16.5095927424      19.0000000000
4201 2      14.0937416714      18.0000000000
4202 2      17.5412190026      19.0000000000
4203 2      14.3341806855      19.0000000000
4204 2      15.8787372139      13.0000000000
4205 2      16.3328022264      18.0000000000
4206 2      17.3527839929      21.0000000000
4207 2      15.4385767255      18.0000000000
4208 2      12.7775434960      15.0000000000
4209 2      14.7212799132      19.0000000000
4210 2      14.3363139802      18.0000000000
4211 2      18.8212216843      19.0000000000
4212 2      14.2808800359      15.0000000000
4213 2      15.9035239491      19.0000000000
4214 2      17.2289467174      21.0000000000
4215 2      16.3523562550      17.0000000000
4216 2      20.6855691665      18.0000000000
4217 2      15.6597854652      16.0000000000
4218 2      14.7231762692      18.0000000000
4219 2      14.2212960157      16.0000000000
4220 2      17.0744473554      18.0000000000
4221 2      14.5164727567      15.0000000000
4222 2      16.9664467202      16.0000000000
4223 2      15.3468761771      19.0000000000
4224 2      18.0932635567      21.0000000000
4225 2      15.0051614093      17.0000000000
4226 2      16.2579089040      21.0000000000
4227 2      16.7448566212      14.0000000000
4228 2      14.2278445013      16.0000000000
4229 2      13.3307924461      16.0000000000
4230 2      15.8379229545      23.0000000000
4231 2      16.7938726964      18.0000000000
4232 2      14.9258423954      17.0000000000
4233 2      18.1413097777      17.0000000000
4234 2      15.8750715505      16.0000000000
4235 2      14.2908361648      16.0000000000
4236 2      15.3904085150      20.0000000000
4237 2      14.8982276897      17.0000000000
4238 2      14.3879037076      17.0000000000
4239 2      16.5848358611      17.0000000000
4240 2      15.3486545793      15.0000000000
4241 2      15.4146917178      17.0000000000
4242 2      15.9324600407      18.0000000000
4243 2      15.8491003989      16.0000000000
4244 2      14.8473506962      15.0000000000
4245 2      15.9567468311      17.0000000000
4246 2      14.5286797953      18.0000000000
4247 2      16.7635171956      18.0000000000
4248 2      16.0834783770      19.0000000000
4249 2      14.8063711220      19.0000000000
4250 2      14.5495910583      19.0000000000
4251 2      14.9472312915      16.0000000000
4252 2      14.9861269616      17.0000000000
4253 2      15.9581814428      13.0000000000
4254 2      13.8918888110      14.0000000000
4255 2      14.8194708563      15.0000000000
4256 2      14.5670781435      16.0000000000
4257 2      18.0955030208      19.0000000000
4258 2      14.0866765937      19.0000000000
4259 2      14.7331981921      18.0000000000
4260 2      18.6746021626      21.0000000000
4261 2      21.5015791892      19.0000000000
4262 2      17.0158923420      17.0000000000
4263 2      15.9949689806      23.0000000000
4264 2      15.5562736386      18.0000000000
4265 2      16.9664806710      21.0000000000
4266 2      14.6797838646      18.0000000000
4267 2      16.5177169845      16.0000000000
4268 2      15.5905268352      17.0000000000
4269 2      16.0159891365      18.0000000000
4270 2      19.1237041883      16.0000000000
4271 2      17.4505017666      19.0000000000
4272 2      22.9369207790      21.0000000000
4273 2      13.5496451250      17.0000000000
4274 2      13.2865995207      13.0000000000
4275 2      16.4098313563      20.0000000000
4276 2      15.4022013247      14.0000000000
4277 2      16.8647475361      20.0000000000
4278 2      16.3989327714      19.0000000000
4279 2      16.7983585341      20.0000000000
4280 2      14.6127414193      20.0000000000
4281 2      17.7313479556      17.0000000000
4282 2      14.2642894575      14.0000000000
4283 2      17.2515218543      18.0000000000
4284 2      18.3893984437      20.0000000000
4285 2      15.3450929644      17.0000000000
4286 2      15.0848130606      19.0000000000
4287 2      16.1079425949      18.0000000000
4288 2      17.8487971856      22.0000000000
4289 2      14.9140468411      18.0000000000
4290 2      17.2089020279      15.0000000000
4291 2      15.8350026567      15.0000000000
4292 2      15.8550302176      18.0000000000
4293 2      13.6779605475      14.0000000000
4294 2      15.0786309470      13.0000000000
4295 2      15.4617551639      14.0000000000
4296 2      16.5524034149      21.0000000000
4297 2      13.9906323523      17.0000000000
4298 2      15.2995005341      18.0000000000
4299 2      15.2644834008      16.0000000000
4300 2      14.1539148093      18.0000000000
4301 2      17.3712149113      18.0000000000
4302 2      13.8446303611      17.0000000000
4303 2      14.4483207636      17.0000000000
4304 2      14.4884745565      17.0000000000
4305 2      16.8246515864      17.0000000000
4306 2      14.2472670031      17.0000000000
4307 2      13.8969949046      17.0000000000
4308 2      14.9638174822      17.0000000000
4309 2      14.8468442726      17.0000000000
4310 2      15.8578381942      17.0000000000
4311 2      15.0207219262      19.0000000000
4312 2      16.8746274685      20.0000000000
4313 2      13.4831756858      16.0000000000
4314 2      15.4127661081      19.0000000000
4315 2      17.3093494030      18.0000000000
4316 2      16.0581411888      16.0000000000
4317 2      17.1574808853      20.0000000000
4318 2      14.2886476712      17.0000000000
4319 2      14.1334322986      17.0000000000
4320 2      17.5614827578      18.0000000000
4321 2      15.3697659666      16.0000000000
4322 2      17.6115783738      17.0000000000
4323 2      14.5204702081      20.0000000000
4324 2      15.2792329300      17.0000000000
4325 2      17.3759737288      20.0000000000
4326 2      15.5828557192      18.0000000000
4327 2      15.1239504619      21.0000000000
4328 2      14.0641237819      15.0000000000
4329 2      15.7645415236      17.0000000000
4330 2      15.0375583651      19.0000000000
4331 2      15.2048361804      15.0000000000
4332 2      17.5395051109      18.0000000000
4333 2      13.4681605114      18.0000000000
4334 2      15.7718463014      18.0000000000
4335 2      19.3786953697      21.0000000000
4336 2      21.1780496994      16.0000000000
4337 2      14.4990456053      21.0000000000
4338 2      14.8842485497      15.0000000000
4339 2      14.0081542033      17.0000000000
4340 2      16.5223549571      23.0000000000
4341 2      16.2410072049      14.0000000000
4342 2      15.3943951968      17.0000000000
4343 2      14.2634558952      17.0000000000
4344 2      16.6770419761      21.0000000000
4345 2      15.3748001493      18.0000000000
4346 2      18.0915180632      16.0000000000
4347 2      16.0802960102      19.0000000000
4348 2      15.2951020903      18.0000000000
4349 2      15.0466351808      18.0000000000
4350 2      14.7388133271      16.0000000000
4351 2      15.2231573088      16.0000000000
4352 2      13.7129421858      15.0000000000
4353 2      15.4765222865      16.0000000000
4354 2      14.4462317287      18.0000000000
4355 2      20.7375730127      18.0000000000
4356 2      15.9255732386      19.0000000000
4357 2      15.5714978978      19.0000000000
4358 2      19.6627232288      22.0000000000
4359 2      18.1486619914      18.0000000000
4360 2      14.1484306816      19.0000000000
4361 2      17.7492236829      20.0000000000
4362 2      16.6769219889      19.0000000000
4363 2      17.1861862220      18.0000000000
4364 2      16.6490025699      16.0000000000
4365 2      16.9790391411      17.0000000000
4366 2      15.4044019278      15.0000000000
4367 2      15.8346974643      17.0000000000
4368 2      16.1268122527      17.0000000000
4369 2      16.8434208940      18.0000000000
4370 2      13.4869169542      16.0000000000
4371 2      14.4742606831      15.0000000000
4372 2      14.8555405360      16.0000000000
4373 2      17.9385949343      16.0000000000
4374 2      14.1394574519      19.0000000000
4375 2      15.8747706372      15.0000000000
4376 2      15.3850839687      17.0000000000
4377 2      14.0727573621      18.0000000000
4378 2      14.2386221636      15.0000000000
4379 2      16.6459532212      17.0000000000
4380 2      15.4034965495      22.0000000000
4381 2      12.2657186477      13.0000000000
4382 2      20.5040126787      18.0000000000
4383 2      18.5584573970      16.0000000000
4384 2      16.1309741459      17.0000000000
4385 2      15.7302105147      18.0000000000
4386 2      17.2025537112      14.0000000000
4387 2      14.6408873024      17.0000000000
4388 2      15.2597012661      17.0000000000
4389 2      16.2472030998      21.0000000000
4390 2      14.7453312069      16.0000000000
4391 2      17.0697610953      18.0000000000
4392 2      16.4389355396      17.0000000000
4393 2      13.9062709582      16.0000000000
4394 2      15.8332357067      19.0000000000
4395 2      15.0153530097      18.0000000000
4396 2      15.2434114473      12.0000000000
4397 2      17.4843557961      18.0000000000
4398 2      15.4619729635      19.0000000000
4399 2      14.6035405686      16.0000000000
4400 2      15.1839496038      22.0000000000
4401 2      15.5352518161      17.0000000000
4402 2      16.1376216251      19.0000000000
4403 2      12.9943391577      16.0000000000
4404 2      16.7121685506      16.0000000000
4405 2      13.6789179788      19.0000000000
4406 2      16.1148103720      18.0000000000
4407 2      15.6787391672      19.0000000000
4408 2      15.0737040080      21.0000000000
4409 2      15.7357342554      20.0000000000
4410 2      14.6273123398      15.0000000000
4411 2      16.6877533954      15.0000000000
4412 2      18.3728830475      20.0000000000
4413 2      19.5497351173      19.0000000000
4414 2      14.8308643147      16.0000000000
4415 2      16.9402116698      18.0000000000
4416 2      16.6331526966      18.0000000000
4417 2      15.4852892472      15.0000000000
4418 2      19.4544265433      16.0000000000
4419 2      17.8168227816      18.0000000000
4420 2      14.5174389872      19.0000000000
4421 2      17.2841101476      16.0000000000
4422 2      14.9447787341      17.0000000000
4423 2      15.1298231476      15.0000000000
4424 2      14.9050612206      19.0000000000
4425 2      15.3944365281      17.0000000000
4426 2      17.2321112531      16.0000000000
4427 2      17.9061023537      20.0000000000
4428 2      18.6061458757      16.0000000000
4429 2      16.3309036212      19.0000000000
4430 2      15.6001223854      19.0000000000
4431 2      14.0117040262      17.0000000000
4432 2      16.8164817431      17.0000000000
4433 2      13.6596855834      17.0000000000
4434 2      19.5621079006      18.0000000000
4435 2      16.5726163784      15.0000000000
4436 2      17.9181723289      21.0000000000
4437 2      16.0597010419      18.0000000000
4438 2      13.7113844442      14.0000000000
4439 2      16.5596843488      13.0000000000
4440 2      16.3399828362      18.0000000000
4441 2      15.4128052041      17.0000000000
4442 2      16.3184515370      18.0000000000
4443 2      19.2659734910      19.0000000000
4444 2      13.4923224823      17.0000000000
4445 2      17.7660834402      19.0000000000
4446 2      15.2069791154      17.0000000000
4447 2      13.1591382593      18.0000000000
4448 2      16.5660459935      19.0000000000
4449 2      15.6770773615      17.0000000000
4450 2      16.3862933347      16.0000000000
4451 2      15.5369493424      17.0000000000
4452 2      16.6328768619      20.0000000000
4453 2      16.8975258300      17.0000000000
4454 2      17.5553746940      18.0000000000
4455 2      20.9437441918      23.0000000000
4456 2      13.7993898676      15.0000000000
4457 2      15.8196904257      21.0000000000
4458 2      15.1837499100      14.0000000000
4459 2      14.2905530838      17.0000000000
4460 2      16.0774352046      18.0000000000
4461 2      16.5524027026      21.0000000000
4462 2      15.6109194531      19.0000000000
4463 2      14.0011994834      15.0000000000
4464 2      16.1676563998      19.0000000000
4465 2      15.6219701139      15.0000000000
4466 2      15.3570419901      22.0000000000
4467 2      17.4458340355      20.0000000000
4468 2      15.3474402640      18.0000000000
4469 2      13.0013195736      16.0000000000
4470 2      12.8750910736      14.0000000000
4471 2      16.1128844839      22.0000000000
4472 2      14.7768164445      18.0000000000
4473 2      14.0044965268      18.0000000000
4474 2      15.3932888154      15.0000000000
4475 2      16.4293541663      17.0000000000
4476 2      14.3539006393      14.0000000000
4477 2      15.5979071850      16.0000000000
4478 2      19.5230915048      19.0000000000
4479 2      14.3234378791      18.0000000000
4480 2      14.8983163297      16.0000000000
4481 2      13.7670829568      15.0000000000
4482 2      17.2222630232      17.0000000000
4483 2      18.3969344943      19.0000000000
4484 2      16.9237971751      18.0000000000
4485 2      17.4460900689      18.0000000000
4486 2      12.7378607091      16.0000000000
4487 2      16.4193013285      16.0000000000
4488 2      16.7896561825      16.0000000000
4489 2      18.2496800899      16.0000000000
4490 2      14.7595801179      16.0000000000
4491 2      20.0553383910      16.0000000000
4492 2      13.8462343568      15.0000000000
4493 2      12.5844177205      15.0000000000
4494 2      14.4733501032      14.0000000000
4495 2      15.2475415580      17.0000000000
4496 2      17.1726721922      14.0000000000
4497 2      16.9301208412      17.0000000000
4498 2      18.0258602206      21.0000000000
4499 2      16.8404258389      16.0000000000
4500 2      14.8260404513      14.0000000000
4501 2      14.4234643704      17.0000000000
4502 2      14.8867284767      12.0000000000
4503 2      18.4400749623      22.0000000000
4504 2      13.2522690530      16.0000000000
4505 2      19.0718992606      19.0000000000
4506 2      15.2868491598      20.0000000000
4507 2      14.9708265815      15.0000000000
4508 2      14.8805183043      15.0000000000
4509 2      15.1262123587      18.0000000000
4510 2      14.4248190001      20.0000000000
4511 2      16.0178625588      15.0000000000
4512 2      16.6738869733      17.0000000000
4513 2      13.1951876743      17.0000000000
4514 2      14.7894340316      13.0000000000
4515 2      17.4224331687      19.0000000000
4516 2      15.6435015793      15.0000000000
4517 2      14.8391578351      19.0000000000
4518 2      16.5556741284      18.0000000000
4519 2      16.1282669411      18.0000000000
4520 2      14.4370935978      15.0000000000
4521 2      15.6073576810      19.0000000000
4522 2      19.4103701542      17.0000000000
4523 2      16.2426332134      20.0000000000
4524 2      19.7794942555      17.0000000000
4525 2      13.7659714069      17.0000000000
4526 2      17.8771757734      20.0000000000
4527 2      14.4159146145      18.0000000000
4528 2      15.2595979589      18.0000000000
4529 2      15.5231469909      14.0000000000
4530 2      15.7805711303      16.0000000000
4531 2      15.3418302919      18.0000000000
4532 2      12.9189604553      17.0000000000
4533 2      16.0185507890      16.0000000000
4534 2      13.9608652610      17.0000000000
4535 2      15.3445507000      19.0000000000
4536 2      15.4795535060      19.0000000000
4537 2      16.2976837682      17.0000000000
4538 2      14.2022292048      17.0000000000
4539 2      19.4477026503      19.0000000000
4540 2      18.5487751715      15.0000000000
4541 2      17.3982212349      18.0000000000
4542 2      15.5198679495      18.0000000000
4543 2      16.8417708361      20.0000000000
4544 2      16.3849435358      17.0000000000
4545 2      14.5985649016      19.0000000000
4546 2      13.7259238843      18.0000000000
4547 2      16.9192850484      18.0000000000
4548 2      16.9382928746      20.0000000000
4549 2      17.3604327580      15.0000000000
4550 2      18.1054510575      17.0000000000
4551 2      16.3134719698      18.0000000000
4552 2      20.1031287285      14.0000000000
4553 2      18.6034809469      18.0000000000
4554 2      17.8321185929      17.0000000000
4555 2      18.0014516355      17.0000000000
4556 2      15.5599404793      19.0000000000
4557 2      14.4909942760      14.0000000000
4558 2      15.1024180285      17.0000000000
4559 2      19.4448304904      19.0000000000
4560 2      16.7594146729      16.0000000000
4561 2      15.4505100139      18.0000000000
4562 2      16.0759425847      19.0000000000
4563 2      14.2516976511      16.0000000000
4564 2      20.5565837232      25.0000000000
4565 2      12.6467704070      18.0000000000
4566 2      15.4213245476      18.0000000000
4567 2      15.3926841269      17.0000000000
4568 2      13.7013165275      15.0000000000
4569 2      12.5403747543      14.0000000000
4570 2      14.8174443453      19.0000000000
4571 2      16.1034668773      15.0000000000
4572 2      19.1070340151      18.0000000000
4573 2      14.8793799905      17.0000000000
4574 2      13.9767739700      17.0000000000
4575 2      15.9360241566      16.0000000000
4576 2      15.1256043100      16.0000000000
4577 2      15.4460761092      17.0000000000
4578 2      17.7114237169      21.0000000000
4579 2      16.0645701116      19.0000000000
4580 2      16.5439044714      20.0000000000
4581 2      14.0268738903      15.0000000000
4582 2      18.9259469449      17.0000000000
4583 2      13.4552772085      16.0000000000
4584 2      16.2277609676      22.0000000000
4585 2      18.4939326025      17.0000000000
4586 2      15.9347676137      18.0000000000
4587 2      15.3764727248      18.0000000000
4588 2      16.3141889447      19.0000000000
4589 2      15.6918373969      17.0000000000
4590 2      17.5261413272      19.0000000000
4591 2      15.4078476939      19.0000000000
4592 2      17.9984391178      18.0000000000
4593 2      16.6796290395      17.0000000000
4594 2      16.6702343295      19.0000000000
4595 2      18.2025308839      18.0000000000
4596 2      15.1950182820      16.0000000000
4597 2      16.0646167034      20.0000000000
4598 2      14.9749015498      17.0000000000
4599 2      16.8106744890      17.0000000000
4600 2      14.1324352131      14.0000000000
4601 2      14.8077943662      19.0000000000
4602 2      13.4834014959      16.0000000000
4603 2      12.6860141298      16.0000000000
4604 2      15.1290291330      17.0000000000
4605 2      19.8372286926      20.0000000000
4606 2      13.9832723465      19.0000000000
4607 2      14.5114423566      18.0000000000
4608 2      18.4416285053      20.0000000000
4609 2      13.8904069072      18.0000000000
4610 2      14.2233540222      16.0000000000
4611 2      16.9620990884      14.0000000000
4612 2      15.4713246039      15.0000000000
4613 2      15.6243351604      18.0000000000
4614 2      14.8804913527      21.0000000000
4615 2      14.7160356511      15.0000000000
4616 2      16.7846475240      16.0000000000
4617 2      14.4218221331      14.0000000000
4618 2      14.1624955581      17.0000000000
4619 2      12.8877153559      16.0000000000
4620 2      15.8495355718      17.0000000000
4621 2      15.2349646398      15.0000000000
4622 2      13.8974511697      18.0000000000
4623 2      12.9549408492      13.0000000000
4624 2      16.0825128997      15.0000000000
4625 2      15.2286240164      14.0000000000
4626 2      16.2301065264      18.0000000000
4627 2      16.4775314029      20.0000000000
4628 2      19.2425696341      20.0000000000
4629 2      14.0530918387      16.0000000000
4630 2      15.1567523210      18.0000000000
4631 2      14.7246404181      18.0000000000
4632 2      16.8206684512      16.0000000000
4633 2      13.9319643412      17.0000000000
4634 2      17.7626201902      18.0000000000
4635 2      15.6247866646      15.0000000000
4636 2      15.9161335830      15.0000000000
4637 2      14.3861713638      16.0000000000
4638 2      17.0008611930      19.0000000000
4639 2      15.4293224219      21.0000000000
4640 2      15.3139251666      19.0000000000
4641 2      13.3954239710      16.0000000000
4642 2      13.6633405066      15.0000000000
4643 2      14.6353800829      19.0000000000
4644 2      16.2100443927      20.0000000000
4645 2      21.0440180020      21.0000000000
4646 2      15.9220699891      17.0000000000
4647 2      14.8263037412      17.0000000000
4648 2      14.5646635310      15.0000000000
4649 2      13.1149354869      14.0000000000
4650 2      15.4850453474      12.0000000000
4651 2      15.3915852890      15.0000000000
4652 2      14.3022129220      16.0000000000
4653 2      13.3774216753      15.0000000000
4654 2      18.6905354166      17.0000000000
4655 2      14.6314272641      15.0000000000
4656 2      14.8745448293      18.0000000000
4657 2      17.8313978004      19.0000000000
4658 2      15.7644230185      17.0000000000
4659 2      15.0960557184      17.0000000000
4660 2      15.0534694601      17.0000000000
4661 2      13.9086616961      16.0000000000
4662 2      13.5460348760      14.0000000000
4663 2      15.9052089740      14.0000000000
4664 2      15.5556849443      15.0000000000
4665 2      14.9160696766      19.0000000000
4666 2      16.7610199102      19.0000000000
4667 2      15.0088328125      18.0000000000
4668 2      14.6294032253      19.0000000000
4669 2      16.8496222708      19.0000000000
4670 2      17.1309362978      18.0000000000
4671 2      14.2513108884      19.0000000000
4672 2      16.2663986828      20.0000000000
4673 2      13.4270451777      15.0000000000
4674 2      17.4582581002      22.0000000000
4675 2      18.7015999388      20.0000000000
4676 2      14.6254058692      16.0000000000
4677 2      16.0528594379      14.0000000000
4678 2      14.6903539109      17.0000000000
4679 2      17.4540048203      23.0000000000
4680 2      17.4301041717      17.0000000000
4681 2      15.1659615844      16.0000000000
4682 2      16.5282850939      18.0000000000
4683 2      12.9465310262      15.0000000000
4684 2      17.2774047112      21.0000000000
4685 2      14.7734600508      16.0000000000
4686 2      15.5743841548      16.0000000000
4687 2      18.0658474626      17.0000000000
4688 2      15.7666276312      19.0000000000
4689 2      12.1843268147      16.0000000000
4690 2      15.3705733839      18.0000000000
4691 2      16.1342756819      17.0000000000
4692 2      16.9468969210      15.0000000000
4693 2      14.4071126014      17.0000000000
4694 2      16.6210697036      16.0000000000
4695 2      13.3352217625      14.0000000000
4696 2      15.3790446251      16.0000000000
4697 2      19.0309596980      19.0000000000
4698 2      14.9148748284      19.0000000000
4699 2      16.4796294418      16.0000000000
4700 2      17.9457080604      21.0000000000
4701 2      17.5654343776      17.0000000000
4702 2      15.2784780904      20.0000000000
4703 2      18.1129943921      20.0000000000
4704 2      15.7098889682      18.0000000000
4705 2      14.8527692505      15.0000000000
4706 2      15.4286977959      16.0000000000
4707 2      12.0826171589      14.0000000000
4708 2      14.4597088226      18.0000000000
4709 2      14.9567836876      15.0000000000
4710 2      14.0988845838      18.0000000000
4711 2      14.6526378283      15.0000000000
4712 2      16.6634158592      17.0000000000
4713 2      18.8524957111      18.0000000000
4714 2      16.1769374507      19.0000000000
4715 2      12.4756644614      15.0000000000
4716 2      17.5052615214      25.0000000000
4717 2      15.6257665543      17.0000000000
4718 2      16.2089387784      20.0000000000
4719 2      17.2852298477      19.0000000000
4720 2      15.0931625210      18.0000000000
4721 2      16.0205744187      15.0000000000
4722 2      14.3326207659      16.0000000000
4723 2      13.4639371565      15.0000000000
4724 2      14.4018204750      14.0000000000
4725 2      14.8744455853      19.0000000000
4726 2      14.6906763073      18.0000000000
4727 2      15.3803682030      17.0000000000
4728 2      16.3139814004      18.0000000000
4729 2      15.3645338608      16.0000000000
4730 2      15.8431004581      15.0000000000
4731 2      13.2879376974      16.0000000000
4732 2      19.3854773271      24.0000000000
4733 2      18.7110762196      19.0000000000
4734 2      14.3513395400      15.0000000000
4735 2      16.3862918667      20.0000000000
4736 2      14.6112567421      17.0000000000
4737 2      15.1911480986      19.0000000000
4738 2      15.9590619726      13.0000000000
4739 2      16.6035101300      15.0000000000
4740 2      11.8279795946      15.0000000000
4741 2      13.8348623860      16.0000000000
4742 2      13.0757862524      16.0000000000
4743 2      17.2782169314      15.0000000000
4744 2      19.0657399822      18.0000000000
4745 2      14.6457756921      15.0000000000
4746 2      13.9576152750      13.0000000000
4747 2      14.5756565269      16.0000000000
4748 2      15.8174289489      15.0000000000
4749 2      16.3160149485      16.0000000000
4750 2      13.7597054836      14.0000000000
4751 2      18.2814775241      18.0000000000
4752 2      17.6229226635      19.0000000000
4753 2      15.3867875284      16.0000000000
4754 2      13.6695527756      16.0000000000
4755 2      19.1685782831      17.0000000000
4756 2      15.3871938349      15.0000000000
4757 2      13.0705089422      15.0000000000
4758 2      13.1696702866      18.0000000000
4759 2      15.1691365047      20.0000000000
4760 2      14.3284443546      18.0000000000
4761 2      13.2155482157      16.0000000000
4762 2      17.6161665958      17.0000000000
4763 2      17.0138660321      19.0000000000
4764 2      18.2153548633      18.0000000000
4765 2      14.4207690329      20.0000000000
4766 2      14.0819008808      15.0000000000
4767 2      13.6981182408      15.0000000000
4768 2      15.6592546193      18.0000000000
4769 2      15.0224894413      17.0000000000
4770 2      15.3023993668      18.0000000000
4771 2      13.9532651628      15.0000000000
4772 2      15.4383539334      21.0000000000
4773 2      15.7554452098      19.0000000000
4774 2      15.6315802569      15.0000000000
4775 2      15.8962081211      16.0000000000
4776 2      14.3799394262      18.0000000000
4777 2      19.1402170776      20.0000000000
4778 2      15.6130609027      20.0000000000
4779 2      18.0631353438      17.0000000000
4780 2      13.6661242014      16.0000000000
4781 2      15.3278207821      18.0000000000
4782 2      15.1908148212      18.0000000000
4783 2      15.4640382027      18.0000000000
4784 2      14.4241202357      19.0000000000
4785 2      18.2246432425      21.0000000000
4786 2      18.8011056895      16.0000000000
4787 2      14.2894685089      20.0000000000
4788 2      15.6506664307      16.0000000000
4789 2      15.6435018844      16.0000000000
4790 2      16.2289469130      17.0000000000
4791 2      15.3028042281      18.0000000000
4792 2      17.4428322465      19.0000000000
4793 2      14.2343707106      18.0000000000
4794 2      16.2927475716      18.0000000000
4795 2      13.9422570241      17.0000000000
4796 2      13.5927237213      19.0000000000
4797 2      14.6667864583      15.0000000000
4798 2      15.0162013929      18.0000000000
4799 2      14.9745266881      16.0000000000
4800 2      15.1239246256      20.0000000000
4801 2      15.7828776896      16.0000000000
4802 2      17.6723213976      18.0000000000
4803 2      16.0874165370      15.0000000000
4804 2      17.6725088056      22.0000000000
4805 2      18.6059032156      20.0000000000
4806 2      14.5259131156      16.0000000000
4807 2      18.2031068252      18.0000000000
4808 2      16.0488282943      21.0000000000
4809 2      18.0671303685      18.0000000000
4810 2      17.1583755028      16.0000000000
4811 2      16.9020359525      19.0000000000
4812 2      16.3194538412      21.0000000000
4813 2      17.1931411773      19.0000000000
4814 2      18.7062559847      21.0000000000
4815 2      14.1948317919      18.0000000000
4816 2      14.4510343083      13.0000000000
4817 2      20.9921738361      18.0000000000
4818 2      14.9040395391      13.0000000000
4819 2      18.0760808601      23.0000000000
4820 2      15.7945346464      19.0000000000
4821 2      19.3345846496      19.0000000000
4822 2      16.0051128639      17.0000000000
4823 2      14.5724501295      17.0000000000
4824 2      15.5714189239      17.0000000000
4825 2      17.0533800325      17.0000000000
4826 2      16.9862066182      18.0000000000
4827 2      17.6214327644      21.0000000000
4828 2      13.0367133638      13.0000000000
4829 2      15.8621550284      19.0000000000
4830 2      16.6201972911      15.0000000000
4831 2      18.1107828644      20.0000000000
4832 2      18.1813556997      21.0000000000
4833 2      17.4708436452      18.0000000000
4834 2      17.2538071224      19.0000000000
4835 2      14.5943706133      17.0000000000
4836 2      17.8001136404      18.0000000000
4837 2      15.6767717436      16.0000000000
4838 2      16.2901170642      17.0000000000
4839 2      17.3640261485      19.0000000000
4840 2      16.2124557106      16.0000000000
4841 2      18.2649407233      15.0000000000
4842 2      15.6979770449      18.0000000000
4843 2      15.5843176481      20.0000000000
4844 2      15.2775644899      18.0000000000
4845 2      14.1548102720      18.0000000000
4846 2      15.6185605215      19.0000000000
4847 2      14.7145098011      18.0000000000
4848 2      17.0848740899      21.0000000000
4849 2      14.8783445249      20.0000000000
4850 2      14.0647757132      17.0000000000
4851 2      13.3526005622      13.0000000000
4852 2      15.0224168551      17.0000000000
4853 2      14.3426322282      17.0000000000
4854 2      13.4423698532      18.0000000000
4855 2      15.7135921104      17.0000000000
4856 2      15.9796787573      14.0000000000
4857 2      18.4615678102      22.0000000000
4858 2      15.4261624999      17.0000000000
4859 2      17.8636888597      15.0000000000
4860 2      16.1644214830      18.0000000000
4861 2      15.5345749129      18.0000000000
4862 2      14.9077145849      15.0000000000
4863 2      15.3726248174      14.0000000000
4864 2      14.1168331693      17.0000000000
4865 2      13.7673452915      18.0000000000
4866 2      14.8280952026      18.0000000000
4867 2      15.1496095915      15.0000000000
4868 2      15.6668345831      17.0000000000
4869 2      14.2107491140      17.0000000000
4870 2      16.4278829460      16.0000000000
4871 2      18.0777314408      15.0000000000
4872 2      18.9379794708      22.0000000000
4873 2      14.7936344270      16.0000000000
4874 2      15.0870910592      18.0000000000
4875 2      15.5029983946      18.0000000000
4876 2      13.3705939310      15.0000000000
4877 2      16.4673420355      15.0000000000
4878 2      15.4487317924      17.0000000000
4879 2      14.0543461346      17.0000000000
4880 2      13.5972370262      17.0000000000
4881 2      15.8861285112      17.0000000000
4882 2      13.7679956355      16.0000000000
4883 2      14.2356131983      17.0000000000
4884 2      15.2647914638      22.0000000000
4885 2      18.0583438652      22.0000000000
4886 2      17.5640966201      13.0000000000
4887 2      18.0780657235      24.0000000000
4888 2      18.9171457562      22.0000000000
4889 2      16.3330112328      16.0000000000
4890 2      15.6256915893      16.0000000000
4891 2      15.9428048502      16.0000000000
4892 2      16.4118047823      18.0000000000
4893 2      13.4811858777      17.0000000000
4894 2      14.7437488084      16.0000000000
4895 2      16.5667627116      16.0000000000
4896 2      13.2658577705      12.0000000000
4897 2      14.5475862753      20.0000000000
4898 2      16.2666537719      19.0000000000
4899 2      17.6725765846      18.0000000000
4900 2      19.0842778461      18.0000000000
4901 2      16.3860844212      23.0000000000
4902 2      17.4852942670      21.0000000000
4903 2      16.6275483030      17.0000000000
4904 2      17.1479758019      19.0000000000
4905 2      14.6904966484      15.0000000000
4906 2      17.0724183120      21.0000000000
4907 2      16.8562096288      19.0000000000
4908 2      16.9889629367      16.0000000000
4909 2      14.8503725524      15.0000000000
4910 2      13.5027962765      14.0000000000
4911 2      15.3079117711      16.0000000000
4912 2      15.8846207009      20.0000000000
4913 2      15.8900313257      21.0000000000
4914 2      15.2028573044      14.0000000000
4915 2      15.4871543289      16.0000000000
4916 2      15.1594734285      17.0000000000
4917 2      13.7838170619      14.0000000000
4918 2      15.9652979149      17.0000000000
4919 2      15.9278509272      19.0000000000
4920 2      17.6454017390      20.0000000000
4921 2      14.8912260037      17.0000000000
4922 2      17.6647337532      17.0000000000
4923 2      19.1496319193      20.0000000000
4924 2      18.1736135544      18.0000000000
4925 2      15.3572514262      16.0000000000
4926 2      14.2901428873      15.0000000000
4927 2      15.9368709764      23.0000000000
4928 2      15.2307728119      17.0000000000
4929 2      17.0688991097      20.0000000000
4930 2      17.3209986117      19.0000000000
4931 2      16.4526771854      17.0000000000
4932 2      15.2811484326      20.0000000000
4933 2      15.6071146866      20.0000000000
4934 2      18.6188518857      15.0000000000
4935 2      18.4365897889      19.0000000000
4936 2      17.6205579905      18.0000000000
4937 2      14.7720632283      20.0000000000
4938 2      17.4643270994      16.0000000000
4939 2      18.2691654747      19.0000000000
4940 2      12.8361293042      18.0000000000
4941 2      18.5040053001      18.0000000000
4942 2      13.5878734851      14.0000000000
4943 2      17.0315913646      19.0000000000
4944 2      16.7534785358      23.0000000000
4945 2      15.4025916074      17.0000000000
4946 2      13.0559971601      14.0000000000
4947 2      14.7953396547      18.0000000000
4948 2      12.6714422956      16.0000000000
4949 2      15.1024239889      19.0000000000
4950 2      16.6651805879      19.0000000000
4951 2      16.3113321999      19.0000000000
4952 2      14.8671905594      17.0000000000
4953 2      13.3248458530      15.0000000000
4954 2      16.8011753364      18.0000000000
4955 2      14.7600899230      16.0000000000
4956 2      13.6911092952      14.0000000000
4957 2      15.5208667694      15.0000000000
4958 2      15.0895084361      20.0000000000
4959 2      13.4687579552      15.0000000000
4960 2      15.5953538390      18.0000000000
4961 2      14.5272099883      16.0000000000
4962 2      18.3463169652      17.0000000000
4963 2      16.9119630819      14.0000000000
4964 2      17.2091788082      17.0000000000
4965 2      13.7168471046      15.0000000000
4966 2      18.2244401741      18.0000000000
4967 2      13.5814225495      14.0000000000
4968 2      16.2558266863      22.0000000000
4969 2      20.5332510065      22.0000000000
4970 2      16.7895335179      14.0000000000
4971 2      17.2363866802      14.0000000000
4972 2      16.3205550588      19.0000000000
4973 2      14.0628127812      15.0000000000
4974 2      17.2627949501      15.0000000000
4975 2      18.0082571359      18.0000000000
4976 2      16.0725823430      18.0000000000
4977 2      17.9674152336      19.0000000000
4978 2      16.5051940406      21.0000000000
4979 2      19.3547628722      18.0000000000
4980 2      14.9215785608      17.0000000000
4981 2      14.7051664573      16.0000000000
4982 2      16.0156742080      17.0000000000
4983 2      17.0201130138      16.0000000000
4984 2      12.4524585915      12.0000000000
4985 2      16.3503189382      20.0000000000
4986 2      13.8322118974      16.0000000000
4987 2      16.9639214216      16.0000000000
4988 2      14.2412767511      17.0000000000
4989 2      18.1663658626      21.0000000000
4990 2      14.8953298734      23.0000000000
4991 2      16.3978759748      16.0000000000
4992 2      16.8660622313      21.0000000000
4993 2      18.6537652316      22.0000000000
4994 2      16.5882095611      12.0000000000
4995 2      14.9215510155      16.0000000000
4996 2      15.2239136745      17.0000000000
4997 2      15.3226596872      22.0000000000
4998 2      17.4666266436      19.0000000000
4999 2      16.8532867446      17.0000000000
5000 2      14.8021477793      18.0000000000
5001 2      15.6193169839      21.0000000000
5002 2      15.2683327420      17.0000000000
5003 2      18.4268131447      22.0000000000
5004 2      14.3457368717      15.0000000000
5005 2      16.1027450641      18.0000000000
5006 2      14.3928263137      16.0000000000
5007 2      18.9220486141      18.0000000000
5008 2      14.8544795961      18.0000000000
5009 2      18.0488573057      20.0000000000
5010 2      14.6858586395      17.0000000000
5011 2      15.3161007133      18.0000000000
5012 2      16.4113522799      19.0000000000
5013 2      16.9497831928      18.0000000000
5014 2      17.1059462824      20.0000000000
5015 2      14.8536331827      17.0000000000
5016 2      17.4363126874      19.0000000000
5017 2      13.7238607806      17.0000000000
5018 2      18.3020452876      17.0000000000
5019 2      13.9716249310      17.0000000000
5020 2      14.6463805968      18.0000000000
5021 2      16.2938539893      14.0000000000
5022 2      15.6112030422      16.0000000000
5023 2      16.8950330144      18.0000000000
5024 2      14.8222629948      17.0000000000
5025 2      14.3310913472      16.0000000000
5026 2      18.6178466747      20.0000000000
5027 2      16.2237869605      15.0000000000
5028 2      16.2548769759      21.0000000000
5029 2      15.0107739952      21.0000000000
5030 2      14.7420128760      16.0000000000
5031 2      13.5676914919      16.0000000000
5032 2      14.4935458588      13.0000000000
5033 2      14.5672574922      17.0000000000
5034 2      16.4537330363      19.0000000000
5035 2      13.2376222908      20.0000000000
5036 2      16.7420616000      19.0000000000
5037 2      12.7871387321      16.0000000000
5038 2      15.4338078368      14.0000000000
5039 2      13.6208922278      18.0000000000
5040 2      15.1674611886      19.0000000000
5041 2      17.7123925216      19.0000000000
5042 2      14.7451791138      15.0000000000
5043 2      14.2961030314      16.0000000000
5044 2      15.1320625059      15.0000000000
5045 2      15.7841187803      20.0000000000
5046 2      16.6146677920      20.0000000000
5047 2      17.8958646569      18.0000000000
5048 2      15.7258369422      19.0000000000
5049 2      17.1670683294      19.0000000000
5050 2      13.2696303294      17.0000000000
5051 2      17.6546215287      16.0000000000
5052 2      17.0440605032      17.0000000000
5053 2      15.8762110868      17.0000000000
5054 2      13.5378201842      15.0000000000
5055 2      15.0380053938      15.0000000000
5056 2      13.7607032503      15.0000000000
5057 2      16.5191894094      18.0000000000
5058 2      17.1899636047      16.0000000000
5059 2      14.9057720234      20.0000000000
5060 2      20.2650542443      21.0000000000
5061 2      14.8120843361      17.0000000000
5062 2      14.6842058696      18.0000000000
5063 2      16.8180390632      21.0000000000
5064 2      15.0961761173      17.0000000000
5065 2      17.3541073174      15.0000000000
5066 2      21.1064525214      17.0000000000
5067 2      16.2473158996      18.0000000000
5068 2      15.6681788292      17.0000000000
5069 2      15.7590712554      15.0000000000
5070 2      17.2365757338      17.0000000000
5071 2      17.5645903900      19.0000000000
5072 2      17.6502701534      17.0000000000
5073 2      15.0472369280      19.0000000000
5074 2      18.3592455285      19.0000000000
5075 2      14.5417549908      18.0000000000
5076 2      18.7611884713      19.0000000000
5077 2      17.6824971452      16.0000000000
5078 2      18.5887944339      18.0000000000
5079 2      15.7783533061      20.0000000000
5080 2      19.4970114604      19.0000000000
5081 2      17.3472753747      21.0000000000
5082 2      17.3543314738      19.0000000000
5083 2      15.5545390156      17.0000000000
5084 2      16.3424227592      18.0000000000
5085 2      16.2540466740      18.0000000000
5086 2      17.6585026823      16.0000000000
5087 2      15.0271094384      17.0000000000
5088 2      16.5846041006      17.0000000000
5089 2      15.8225448555      18.0000000000
5090 2      16.1903762789      20.0000000000
5091 2      13.0154959430      16.0000000000
5092 2      17.4507355493      18.0000000000
5093 2      15.1923306488      14.0000000000
5094 2      19.8105682453      22.0000000000
5095 2      14.0906415209      18.0000000000
5096 2      18.4705183827      19.0000000000
5097 2      13.6503017948      15.0000000000
5098 2      14.0908823345      20.0000000000
5099 2      14.3631331219      18.0000000000
5100 2      12.9648820721      13.0000000000
5101 2      15.2711248999      16.0000000000
5102 2      15.3363973083      16.0000000000
5103 2      15.4929364628      20.0000000000
5104 2      16.6286617526      18.0000000000
5105 2      15.4631396518      13.0000000000
5106 2      16.7947408856      17.0000000000
5107 2      15.2092482082      16.0000000000
5108 2      14.9285600441      16.0000000000
5109 2      13.9286772763      18.0000000000
5110 2      16.7370129906      18.0000000000
5111 2      16.3170821626      20.0000000000
5112 2      18.5547651634      20.0000000000
5113 2      15.7996618938      14.0000000000
5114 2      19.3671860257      21.0000000000
5115 2      16.6652073212      19.0000000000
5116 2      17.9831389812      19.0000000000
5117 2      15.8329976746      19.0000000000
5118 2      16.6509657778      19.0000000000
5119 2      16.6006093719      20.0000000000
5120 2      16.3153759260      17.0000000000
5121 2      12.9080478861      15.0000000000
5122 2      17.4790423604      19.0000000000
5123 2      17.3487101895      20.0000000000
5124 2      17.1742946807      17.0000000000
5125 2      15.5269650575      16.0000000000
5126 2      13.0990717201      14.0000000000
5127 2      14.1083714944      16.0000000000
5128 2      15.0486134961      20.0000000000
5129 2      18.2195286528      23.0000000000
5130 2      13.3810952536      16.0000000000
5131 2      15.3540302707      16.0000000000
5132 2      16.1819531917      19.0000000000
5133 2      16.6417347505      17.0000000000
5134 2      18.4661261876      18.0000000000
5135 2      14.2876330907      16.0000000000
5136 2      15.3168144690      19.0000000000
5137 2      14.8516507459      17.0000000000
5138 2      15.1100651684      17.0000000000
5139 2      13.9140730869      15.0000000000
5140 2      16.8796827166      21.0000000000
5141 2      16.3035094335      22.0000000000
5142 2      12.9559626392      14.0000000000
5143 2      16.3662616210      18.0000000000
5144 2      14.1545985798      14.0000000000
5145 2      17.1316989004      16.0000000000
5146 2      14.3263504455      14.0000000000
5147 2      16.5264390687      16.0000000000
5148 2      15.3759304856      19.0000000000
5149 2      18.1859452116      18.0000000000
5150 2      18.0165571246      21.0000000000
5151 2      15.8972269102      16.0000000000
5152 2      14.4146831316      16.0000000000
5153 2      14.0587294071      16.0000000000
5154 2      17.1216318499      17.0000000000
5155 2      16.9383366425      20.0000000000
5156 2      15.2864137803      17.0000000000
5157 2      13.7562749882      12.0000000000
5158 2      15.7202965155      18.0000000000
5159 2      14.6891236567      18.0000000000
5160 2      14.0063979962      17.0000000000
5161 2      17.9221498428      17.0000000000
5162 2      16.8504641607      17.0000000000
5163 2      17.2002017214      17.0000000000
5164 2      15.9548862803      17.0000000000
5165 2      15.6856669851      14.0000000000
5166 2      17.4365550215      16.0000000000
5167 2      17.1906033526      19.0000000000
5168 2      15.4845663654      16.0000000000
5169 2      17.5729031197      18.0000000000
5170 2      15.9735482075      18.0000000000
5171 2      14.6866914883      19.0000000000
5172 2      14.9432035123      17.0000000000
5173 2      17.1291623866      22.0000000000
5174 2      14.5285025987      15.0000000000
5175 2      15.1888697357      17.0000000000
5176 2      17.3207507386      16.0000000000
5177 2      13.9388035451      16.0000000000
5178 2      14.1255539516      18.0000000000
5179 2      16.4878510000      22.0000000000
5180 2      15.6014770559      21.0000000000
5181 2      14.3957807668      15.0000000000
5182 2      14.6651328460      17.0000000000
5183 2      15.2651642345      22.0000000000
5184 2      18.6746282690      21.0000000000
5185 2      15.8914548729      17.0000000000
5186 2      15.3456316110      19.0000000000
5187 2      16.3894554399      23.0000000000
5188 2      13.6769337729      20.0000000000
5189 2      14.6275201609      15.0000000000
5190 2      17.7156567674      18.0000000000
5191 2      14.8980377619      16.0000000000
5192 2      16.5117846693      20.0000000000
5193 2      16.2675215548      17.0000000000
5194 2      13.8822673926      14.0000000000
5195 2      17.4518687643      17.0000000000
5196 2      17.5398212342      22.0000000000
5197 2      16.7642104361      16.0000000000
5198 2      18.0231572642      20.0000000000
5199 2      17.0742401557      18.0000000000
5200 2      15.0325919009      16.0000000000
5201 2      15.3191989384      18.0000000000
5202 2      15.1093012236      18.0000000000
5203 2      15.6125557684      15.0000000000
5204 2      15.1599568052      19.0000000000
5205 2      16.1630711351      18.0000000000
5206 2      14.2278555960      16.0000000000
5207 2      15.8205061936      21.0000000000
5208 2      15.4768437868      18.0000000000
5209 2      13.6334433127      17.0000000000
5210 2      14.9280008128      21.0000000000
5211 2      16.4563525383      16.0000000000
5212 2      15.8920278862      20.0000000000
5213 2      17.6187788102      19.0000000000
5214 2      16.9699016553      19.0000000000
5215 2      15.6994105826      17.0000000000
5216 2      15.3177909099      15.0000000000
5217 2      15.0771275183      17.0000000000
5218 2      18.1062805570      22.0000000000
5219 2      17.7370861258      15.0000000000
5220 2      17.2232274344      17.0000000000
5221 2      14.7965415215      14.0000000000
5222 2      15.8442271382      18.0000000000
5223 2      12.5251040970      13.0000000000
5224 2      15.8193236776      21.0000000000
5225 2      12.9832562022      18.0000000000
5226 2      15.4871472404      18.0000000000
5227 2      18.7195800470      16.0000000000
5228 2      21.4657343354      19.0000000000
5229 2      16.0812837295      18.0000000000
5230 2      16.6650270304      14.0000000000
5231 2      18.2604305790      18.0000000000
5232 2      15.7772181462      16.0000000000
5233 2      16.2109987150      20.0000000000
5234 2      14.6834066726      17.0000000000
5235 2      16.6288651852      18.0000000000
5236 2      17.7635175193      17.0000000000
5237 2      18.3514625719      15.0000000000
5238 2      15.4327355362      17.0000000000
5239 2      13.9132876842      16.0000000000
5240 2      13.8076687000      14.0000000000
5241 2      14.3340072005      18.0000000000
5242 2      15.4267156238      18.0000000000
5243 2      16.8593024453      16.0000000000
5244 2      15.8380098066      14.0000000000
5245 2      14.6598613937      17.0000000000
5246 2      14.7612524629      14.0000000000
5247 2      16.4289091600      19.0000000000
5248 2      17.7366027877      22.0000000000
5249 2      15.0759981397      16.0000000000
5250 2      16.1054623283      17.0000000000
5251 2      15.4722960596      17.0000000000
5252 2      14.3236689636      16.0000000000
5253 2      16.3450107265      22.0000000000
5254 2      15.7147264679      18.0000000000
5255 2      14.0790997350      16.0000000000
5256 2      17.2250723514      16.0000000000
5257 2      15.4501526411      18.0000000000
5258 2      15.7069299485      19.0000000000
5259 2      16.3130670917      17.0000000000
5260 2      14.6215729220      17.0000000000
5261 2      16.6392890080      19.0000000000
5262 2      15.9901518738      14.0000000000
5263 2      15.5181422887      18.0000000000
5264 2      15.8576072853      19.0000000000
5265 2      17.2314388963      19.0000000000
5266 2      15.7406497593      20.0000000000
5267 2      16.2973964947      18.0000000000
5268 2      14.9201483386      17.0000000000
5269 2      14.0925390658      21.0000000000
5270 2      15.1577831558      20.0000000000
5271 2      15.5990780222      18.0000000000
5272 2      15.2136837765      16.0000000000
5273 2      17.1488371479      16.0000000000
5274 2      15.2499036257      16.0000000000
5275 2      15.6590888827      21.0000000000
5276 2      17.2431527080      18.0000000000
5277 2      14.8479166640      15.0000000000
5278 2      20.1734269494      19.0000000000
5279 2      17.3342223778      18.0000000000
5280 2      17.0125102657      22.0000000000
5281 2      19.4930892897      18.0000000000
5282 2      15.3148255690      17.0000000000
5283 2      14.6837212930      19.0000000000
5284 2      13.2457930004      15.0000000000
5285 2      14.2041521235      13.0000000000
5286 2      16.8826522739      18.0000000000
5287 2      15.9943576358      16.0000000000
5288 2      16.7697056511      21.0000000000
5289 2      19.8099677718      20.0000000000
5290 2      17.0429647464      19.0000000000
5291 2      16.0812343863      17.0000000000
5292 2      17.1428079667      18.0000000000
5293 2      13.0052343550      15.0000000000
5294 2      15.1543437892      13.0000000000
5295 2      17.8937702905      18.0000000000
5296 2      19.1733716544      15.0000000000
5297 2      15.1851817126      18.0000000000
5298 2      15.4603778924      17.0000000000
5299 2      17.6216049857      21.0000000000
5300 2      16.5498741860      20.0000000000
5301 2      16.0965965296      20.0000000000
5302 2      16.5262428887      19.0000000000
5303 2      20.0335622887      18.0000000000
5304 2      14.9162685541      15.0000000000
5305 2      15.2321100757      18.0000000000
5306 2      14.3300804818      15.0000000000
5307 2      14.7591570056      16.0000000000
5308 2      17.2989062728      17.0000000000
5309 2      15.3991022665      18.0000000000
5310 2      13.6277522133      14.0000000000
5311 2      15.0040932415      18.0000000000
5312 2      16.4475180749      18.0000000000
5313 2      15.7271358900      21.0000000000
5314 2      12.1572069826      15.0000000000
5315 2      17.4013966810      18.0000000000
5316 2      18.0452975888      22.0000000000
5317 2      14.2105019565      15.0000000000
5318 2      13.5766609770      15.0000000000
5319 2      15.7176816572      17.0000000000
5320 2      14.3861430873      18.0000000000
5321 2      14.9017682921      14.0000000000
5322 2      17.6108119947      19.0000000000
5323 2      15.9095686650      21.0000000000
5324 2      14.8822883835      19.0000000000
5325 2      21.3519894841      18.0000000000
5326 2      15.7298103802      19.0000000000
5327 2      13.2333437614      14.0000000000
5328 2      15.0320737660      17.0000000000
5329 2      14.5347301509      17.0000000000
5330 2      17.9771487930      14.0000000000
5331 2      16.2949908590      22.0000000000
5332 2      14.3733341753      16.0000000000
5333 2      13.5240660124      17.0000000000
5334 2      12.2741982875      15.0000000000
5335 2      15.3221953099      15.0000000000
5336 2      16.2873069964      19.0000000000
5337 2      15.5447459228      18.0000000000
5338 2      15.9304319612      21.0000000000
5339 2      16.8477009998      17.0000000000
5340 2      17.3959544626      16.0000000000
5341 2      13.6315371700      15.0000000000
5342 2      14.3930604983      17.0000000000
5343 2      16.9156952719      18.0000000000
5344 2      17.9254939953      16.0000000000
5345 2      18.8516767427      17.0000000000
5346 2      15.9066216525      15.0000000000
5347 2      14.7566060443      21.0000000000
5348 2      15.5965450702      18.0000000000
5349 2      14.9334248762      17.0000000000
5350 2      15.1546390245      19.0000000000
5351 2      13.6713104736      18.0000000000
5352 2      27.8804781499      22.0000000000
5353 2      14.3736634815      15.0000000000
5354 2      16.4492087737      17.0000000000
5355 2      16.7906600747      15.0000000000
5356 2      17.6990202561      15.0000000000
5357 2      15.4619836344      20.0000000000
5358 2      17.9524209609      15.0000000000
5359 2      15.7819022542      17.0000000000
5360 2      17.5750095580      16.0000000000
5361 2      18.7936583292      16.0000000000
5362 2      17.2465333317      15.0000000000
5363 2      18.8424763938      15.0000000000
5364 2      13.7557051440      16.0000000000
5365 2      18.9969601798      17.0000000000
5366 2      16.0003154522      20.0000000000
5367 2      15.8794167901      16.0000000000
5368 2      14.9292768523      14.0000000000
5369 2      14.0305553587      18.0000000000
5370 2      15.5051354106      16.0000000000
5371 2      13.2506697222      16.0000000000
5372 2      12.8880036789      15.0000000000
5373 2      15.6771610011      18.0000000000
5374 2      18.1453353910      15.0000000000
5375 2      16.7091707001      17.0000000000
5376 2      16.7584272008      16.0000000000
5377 2      15.1388797223      18.0000000000
5378 2      14.4197196778      17.0000000000
5379 2      14.6246431320      17.0000000000
5380 2      16.1014710817      16.0000000000
5381 2      16.1780030817      20.0000000000
5382 2      14.0815251820      16.0000000000
5383 2      13.6368579711      16.0000000000
5384 2      18.1017649968      16.0000000000
5385 2      16.1996457694      20.0000000000
5386 2      16.6424652957      18.0000000000
5387 2      16.1655854635      17.0000000000
5388 2      17.1498318671      18.0000000000
5389 2      16.0506324123      14.0000000000
5390 2      18.2217919965      18.0000000000
5391 2      16.7610899278      16.0000000000
5392 2      15.4277591461      16.0000000000
5393 2      13.8183604155      17.0000000000
5394 2      19.0834418381      15.0000000000
5395 2      15.9913822159      19.0000000000
5396 2      15.0989847957      15.0000000000
5397 2      15.5347565150      17.0000000000
5398 2      14.8928971811      19.0000000000
5399 2      14.5552047206      18.0000000000
5400 2      18.3719740338      17.0000000000
5401 2      15.3005245504      19.0000000000
5402 2      18.1965820322      14.0000000000
5403 2      14.9039920403      19.0000000000
5404 2      15.9118422574      18.0000000000
5405 2      12.6543021126      13.0000000000
5406 2      14.6950829451      15.0000000000
5407 2      17.8480121368      23.0000000000
5408 2      14.5799990121      17.0000000000
5409 2      15.5303462678      18.0000000000
5410 2      14.0045039663      15.0000000000
5411 2      14.3695375934      16.0000000000
5412 2      17.7536745595      17.0000000000
5413 2      12.8077168657      15.0000000000
5414 2      13.9829649397      14.0000000000
5415 2      16.0477039799      17.0000000000
5416 2      13.3659219334      16.0000000000
5417 2      14.4558147235      16.0000000000
5418 2      14.4005021635      15.0000000000
5419 2      14.7812372989      17.0000000000
5420 2      15.0355994326      17.0000000000
5421 2      16.4123852541      19.0000000000
5422 2      15.8280915241      18.0000000000
5423 2      15.4609389679      16.0000000000
5424 2      18.3226751601      20.0000000000
5425 2      20.3859684385      23.0000000000
5426 2      14.4465900521      16.0000000000
5427 2      15.7997010202      17.0000000000
5428 2      20.0589721375      18.0000000000
5429 2      13.2288806640      19.0000000000
5430 2      18.1183629810      17.0000000000
5431 2      14.4180857921      20.0000000000
5432 2      13.9707646539      15.0000000000
5433 2      13.4992149605      15.0000000000
5434 2      15.4922208309      16.0000000000
5435 2      14.8803739660      15.0000000000
5436 2      18.9963850587      19.0000000000
5437 2      15.6321429562      20.0000000000
5438 2      16.9173484711      14.0000000000
5439 2      15.8494253787      22.0000000000
5440 2      15.4070817429      16.0000000000
5441 2      13.4684548087      16.0000000000
5442 2      14.3882225618      18.0000000000
5443 2      13.3534004673      16.0000000000
5444 2      14.3706712225      18.0000000000
5445 2      14.1357072634      22.0000000000
5446 2      14.1932973400      20.0000000000
5447 2      18.2086373764      21.0000000000
5448 2      13.6727847974      16.0000000000
5449 2      14.6947549481      19.0000000000
5450 2      18.0426602592      23.0000000000
5451 2      14.6295053903      15.0000000000
5452 2      15.2268675191      14.0000000000
5453 2      14.9488333787      15.0000000000
5454 2      17.8134746510      16.0000000000
5455 2      13.5293238050      13.0000000000
5456 2      17.4139152768      15.0000000000
5457 2      15.6359483539      22.0000000000
5458 2      13.9002074532      17.0000000000
5459 2      15.4775616746      19.0000000000
5460 2      19.4110825152      17.0000000000
5461 2      15.7324176830      18.0000000000
5462 2      14.2826951839      16.0000000000
5463 2      17.7563403413      20.0000000000
5464 2      14.7387281875      18.0000000000
5465 2      14.9778680754      18.0000000000
5466 2      15.8525793571      18.0000000000
5467 2      14.4731900001      16.0000000000
5468 2      15.2043343728      19.0000000000
5469 2      13.6447950971      13.0000000000
5470 2      15.2993831473      20.0000000000
5471 2      17.8974858809      16.0000000000
5472 2      16.5752513918      14.0000000000
5473 2      19.1433617553      20.0000000000
5474 2      14.1264905058      20.0000000000
5475 2      16.5968082201      17.0000000000
5476 2      16.4689911579      19.0000000000
5477 2      14.0348539864      22.0000000000
5478 2      14.7995296795      18.0000000000
5479 2      17.2958364703      19.0000000000
5480 2      13.5913357083      14.0000000000
5481 2      15.3856666522      17.0000000000
5482 2      18.7667859602      16.0000000000
5483 2      16.8125205283      16.0000000000
5484 2      15.3124367028      19.0000000000
5485 2      14.8729360696      18.0000000000
5486 2      13.0557866740      15.0000000000
5487 2      17.2365462447      15.0000000000
5488 2      14.9970295975      15.0000000000
5489 2      18.7395649252      24.0000000000
5490 2      23.8479214752      21.0000000000
5491 2      15.4859936485      19.0000000000
5492 2      14.2015533263      17.0000000000
5493 2      17.2254449592      19.0000000000
5494 2      18.6043146657      18.0000000000
5495 2      14.1134697310      18.0000000000
5496 2      15.0090604777      20.0000000000
5497 2      16.2293385155      17.0000000000
5498 2      12.9739867203      16.0000000000
5499 2      15.6220317031      21.0000000000
5500 2      15.5295571918      17.0000000000
5501 2      16.8153757201      18.0000000000
5502 2      17.6543871294      20.0000000000
5503 2      15.0473476210      18.0000000000
5504 2      16.3603227580      17.0000000000
5505 2      13.4965489665      15.0000000000
5506 2      15.4223402415      18.0000000000
5507 2      16.8469862093      20.0000000000
5508 2      17.9999241571      19.0000000000
5509 2      14.2484068784      15.0000000000
5510 2      16.3009742614      18.0000000000
5511 2      21.2398469018      22.0000000000
5512 2      15.6103952311      18.0000000000
5513 2      14.4220260661      18.0000000000
5514 2      17.5227983709      18.0000000000
5515 2      14.9807392816      19.0000000000
5516 2      14.9862836170      17.0000000000
5517 2      14.0725307131      16.0000000000
5518 2      16.5763966622      18.0000000000
5519 2      15.6545013115      15.0000000000
5520 2      15.2987955137      17.0000000000
5521 2      15.2920619946      17.0000000000
5522 2      18.5375400699      17.0000000000
5523 2      16.5351722032      19.0000000000
5524 2      15.2730370534      15.0000000000
5525 2      15.8959704100      19.0000000000
5526 2      15.2577735302      15.0000000000
5527 2      14.8026008494      17.0000000000
5528 2      14.2939767617      17.0000000000
5529 2      18.7123690444      18.0000000000
5530 2      15.1420047336      14.0000000000
5531 2      14.6194721740      18.0000000000
5532 2      16.6725928679      15.0000000000
5533 2      16.4478793920      16.0000000000
5534 2      17.0104046462      20.0000000000
5535 2      16.8160884126      15.0000000000
5536 2      15.3286497980      19.0000000000
5537 2      14.7502171120      18.0000000000
5538 2      13.8042395405      19.0000000000
5539 2      14.2955110488      20.0000000000
5540 2      16.9552380196      20.0000000000
5541 2      14.4242100937      16.0000000000
5542 2      13.5807658108      17.0000000000
5543 2      15.2179128589      18.0000000000
5544 2      18.0939631466      18.0000000000
5545 2      15.3973437547      19.0000000000
5546 2      13.8069732711      15.0000000000
5547 2      14.3349492565      16.0000000000
5548 2      15.2479544580      19.0000000000
5549 2      16.0223310041      19.0000000000
5550 2      15.9336183993      17.0000000000
5551 2      12.6711673470      13.0000000000
5552 2      12.7698974201      16.0000000000
5553 2      12.0503325090      15.0000000000
5554 2      16.6866703959      16.0000000000
5555 2      19.2056743496      21.0000000000
5556 2      14.9955763833      14.0000000000
5557 2      14.2943754917      18.0000000000
5558 2      16.0395390613      16.0000000000
5559 2      13.4056062627      17.0000000000
5560 2      14.4658599393      15.0000000000
5561 2      21.8414134725      19.0000000000
5562 2      16.7652121031      21.0000000000
5563 2      16.1885777490      18.0000000000
5564 2      13.3299758010      17.0000000000
5565 2      14.5893180226      17.0000000000
5566 2      13.4813485303      16.0000000000
5567 2      19.1894928232      20.0000000000
5568 2      17.5159035557      16.0000000000
5569 2      17.2966414171      20.0000000000
5570 2      15.0893620669      18.0000000000
5571 2      17.6650118631      18.0000000000
5572 2      14.5206231851      17.0000000000
5573 2      15.5112577177      15.0000000000
5574 2      14.3871668175      19.0000000000
5575 2      14.8724495080      17.0000000000
5576 2      16.6625657458      18.0000000000
5577 2      16.8513277772      20.0000000000
5578 2      16.9193485705      18.0000000000
5579 2      15.7902961744      15.0000000000
5580 2      18.2327237885      18.0000000000
5581 2      15.1320678343      18.0000000000
5582 2      14.6780047156      16.0000000000
5583 2      16.4246148862      19.0000000000
5584 2      17.4883389043      19.0000000000
5585 2      19.7809430355      17.0000000000
5586 2      15.8855168931      18.0000000000
5587 2      15.4652174099      15.0000000000
5588 2      16.3161311306      22.0000000000
5589 2      15.8881026744      15.0000000000
5590 2      17.7807618755      18.0000000000
5591 2      21.6053955542      19.0000000000
5592 2      18.6970415350      19.0000000000
5593 2      17.7771643731      15.0000000000
5594 2      22.5652658260      16.0000000000
5595 2      13.8083509603      15.0000000000
5596 2      16.3440318561      16.0000000000
5597 2      16.0330650730      17.0000000000
5598 2      16.4382344930      21.0000000000
5599 2      17.4503613640      17.0000000000
5600 2      16.0921710565      15.0000000000
5601 2      15.3694458810      17.0000000000
5602 2      13.1935809584      15.0000000000
5603 2      15.9662703217      15.0000000000
5604 2      14.3218960591      15.0000000000
5605 2      17.9616539373      19.0000000000
5606 2      15.5558920881      20.0000000000
5607 2      15.1053420819      17.0000000000
5608 2      15.6798476963      19.0000000000
5609 2      14.8292045778      16.0000000000
5610 2      17.8032634019      14.0000000000
5611 2      16.8269122525      17.0000000000
5612 2      12.2878255502      12.0000000000
5613 2      13.8791286466      13.0000000000
5614 2      17.0322450164      17.0000000000
5615 2      16.3231951259      17.0000000000
5616 2      16.6404248449      20.0000000000
5617 2      13.7471476485      16.0000000000
5618 2      15.9560127633      16.0000000000
5619 2      16.1389134378      16.0000000000
5620 2      15.7541111703      17.0000000000
5621 2      20.6384274036      24.0000000000
5622 2      16.8935035291      20.0000000000
5623 2      15.7984472930      18.0000000000
5624 2      16.8028563836      19.0000000000
5625 2      14.7194492731      16.0000000000
5626 2      15.3508260922      18.0000000000
5627 2      18.3127430557      17.0000000000
5628 2      19.7568089614      20.0000000000
5629 2      13.4063700091      14.0000000000
5630 2      14.8785310381      18.0000000000
5631 2      14.0784273245      21.0000000000
5632 2      12.9752007476      19.0000000000
5633 2      13.7718452215      15.0000000000
5634 2      15.0690074924      15.0000000000
5635 2      13.4757950502      15.0000000000
5636 2      14.9564993752      18.0000000000
5637 2      19.2349220468      16.0000000000
5638 2      15.8328797118      17.0000000000
5639 2      18.8127185647      16.0000000000
5640 2      14.2346888124      17.0000000000
5641 2      14.2364856487      15.0000000000
5642 2      12.9709794387      16.0000000000
5643 2      13.9454246959      13.0000000000
5644 2      17.7492138915      16.0000000000
5645 2      14.0529658628      13.0000000000
5646 2      11.7152695546      16.0000000000
5647 2      15.4909709435      17.0000000000
5648 2      17.2830559945      15.0000000000
5649 2      16.7255938815      15.0000000000
5650 2      16.5402672639      19.0000000000
5651 2      15.7048080246      21.0000000000
5652 2      16.2211427673      18.0000000000
5653 2      13.7341881465      19.0000000000
5654 2      19.5973554729      17.0000000000
5655 2      16.2558068447      20.0000000000
5656 2      16.8934719061      17.0000000000
5657 2      14.0885891038      15.0000000000
5658 2      16.5889230176      19.0000000000
5659 2      14.1288239827      18.0000000000
5660 2      17.9083797055      17.0000000000
5661 2      14.0938148710      14.0000000000
5662 2      14.5345314897      14.0000000000
5663 2      16.9826782572      15.0000000000
5664 2      14.3117076905      19.0000000000
5665 2      15.1075899652      20.0000000000
5666 2      13.7138998737      17.0000000000
5667 2      15.3406170383      17.0000000000
5668 2      14.2909394090      16.0000000000
5669 2      17.6914896303      22.0000000000
5670 2      14.9262845512      16.0000000000
5671 2      15.0728955497      17.0000000000
5672 2      17.1372158282      17.0000000000
5673 2      12.4821326822      16.0000000000
5674 2      13.9451861709      17.0000000000
5675 2      17.8422733402      17.0000000000
5676 2      17.0612718854      17.0000000000
5677 2      17.9775459429      25.0000000000
5678 2      15.0332192428      18.0000000000
5679 2      17.4882725185      18.0000000000
5680 2      14.9528329907      19.0000000000
5681 2      14.3537508611      17.0000000000
5682 2      13.6395953211      18.0000000000
5683 2      16.7156599774      17.0000000000
5684 2      14.9890292702      19.0000000000
5685 2      17.8230399114      21.0000000000
5686 2      13.5386522223      18.0000000000
5687 2      17.7319762137      21.0000000000
5688 2      15.0063736172      20.0000000000
5689 2      13.5308266287      14.0000000000
5690 2      14.9435364185      20.0000000000
5691 2      15.8820147945      19.0000000000
5692 2      15.8363951831      17.0000000000
5693 2      14.5810312479      18.0000000000
5694 2      18.2014369419      16.0000000000
5695 2      16.7605882126      16.0000000000
5696 2      15.7430720852      20.0000000000
5697 2      23.1874414983      21.0000000000
5698 2      21.1555376713      21.0000000000
5699 2      16.0037837230      16.0000000000
5700 2      16.8392574508      20.0000000000
5701 2      15.7206504372      17.0000000000
5702 2      16.6564039624      19.0000000000
5703 2      15.0902203067      17.0000000000
5704 2      17.9476227825      19.0000000000
5705 2      18.5158283772      20.0000000000
5706 2      18.7531643172      19.0000000000
5707 2      19.7155011850      21.0000000000
5708 2      15.0598678510      15.0000000000
5709 2      16.2658504989      22.0000000000
5710 2      14.6784210400      18.0000000000
5711 2      17.7426192968      16.0000000000
5712 2      20.1464443497      21.0000000000
5713 2      14.2770940273      17.0000000000
5714 2      15.2883547904      21.0000000000
5715 2      15.9665971855      16.0000000000
5716 2      14.5949590889      18.0000000000
5717 2      19.3660065853      26.0000000000
5718 2      14.6751022674      12.0000000000
5719 2      16.2006991441      20.0000000000
5720 2      15.6224633229      16.0000000000
5721 2      15.3434685956      16.0000000000
5722 2      18.2515173857      16.0000000000
5723 2      14.3251351649      15.0000000000
5724 2      13.6799834801      18.0000000000
5725 2      15.4024293941      20.0000000000
5726 2      15.1812857254      15.0000000000
5727 2      16.0729174454      18.0000000000
5728 2      14.0408092150      18.0000000000
5729 2      17.0883482741      20.0000000000
5730 2      15.9600562716      16.0000000000
5731 2      16.4148883032      19.0000000000
5732 2      16.6044574554      19.0000000000
5733 2      13.2983440307      17.0000000000
5734 2      16.6069493996      17.0000000000
5735 2      15.9332894519      17.0000000000
5736 2      15.6413750935      19.0000000000
5737 2      15.9101966987      20.0000000000
5738 2      19.5048620251      22.0000000000
5739 2      14.9088299272      21.0000000000
5740 2      16.6311402706      17.0000000000
5741 2      19.0471957865      23.0000000000
5742 2      17.0243166469      18.0000000000
5743 2      15.3637879658      15.0000000000
5744 2      12.9988626072      17.0000000000
5745 2      14.6584581715      15.0000000000
5746 2      17.1442330735      17.0000000000
5747 2      17.6059366937      18.0000000000
5748 2      19.0814248295      18.0000000000
5749 2      14.9794721791      19.0000000000
5750 2      20.7028258667      23.0000000000
5751 2      14.1951497368      18.0000000000
5752 2      15.4208392741      19.0000000000
5753 2      13.1031733839      16.0000000000
5754 2      16.8176291298      17.0000000000
5755 2      13.8635916974      15.0000000000
5756 2      14.4548893679      17.0000000000
5757 2      18.8901707928      15.0000000000
5758 2      16.6845109444      19.0000000000
5759 2      18.1211565705      18.0000000000
5760 2      14.9517048785      17.0000000000
5761 2      15.9480122875      17.0000000000
5762 2      14.7115214902      16.0000000000
5763 2      18.1852689521      20.0000000000
5764 2      16.1564714325      21.0000000000
5765 2      16.8758805411      19.0000000000
5766 2      15.4085248660      17.0000000000
5767 2      13.7996759816      16.0000000000
5768 2      15.7082989430      15.0000000000
5769 2      14.2368626710      21.0000000000
5770 2      17.8976904107      16.0000000000
5771 2      15.1571796996      19.0000000000
5772 2      19.2901410744      17.0000000000
5773 2      16.0219721510      21.0000000000
5774 2      16.2150087164      17.0000000000
5775 2      14.2070176069      15.0000000000
5776 2      14.6812331821      15.0000000000
5777 2      16.7217937305      17.0000000000
5778 2      16.2865616076      19.0000000000
5779 2      15.4345590438      16.0000000000
5780 2      18.8117868777      17.0000000000
5781 2      16.4147635418      23.0000000000
5782 2      16.2162872103      15.0000000000
5783 2      19.2338838520      16.0000000000
5784 2      13.3863821105      16.0000000000
5785 2      17.4896035070      18.0000000000
5786 2      16.7541111442      15.0000000000
5787 2      15.9664993329      15.0000000000
5788 2      13.3239151227      15.0000000000
5789 2      16.5348711635      20.0000000000
5790 2      18.1664761993      21.0000000000
5791 2      14.2497689609      17.0000000000
5792 2      15.1554190918      20.0000000000
5793 2      14.5212674812      17.0000000000
5794 2      13.9491653390      16.0000000000
5795 2      16.6250513949      21.0000000000
5796 2      15.3450487032      21.0000000000
5797 2      17.0171932517      19.0000000000
5798 2      16.7386264900      18.0000000000
5799 2      19.2135451035      17.0000000000
5800 2      16.0939966445      19.0000000000
5801 2      15.9871532974      17.0000000000
5802 2      14.4373020873      17.0000000000
5803 2      14.5138207919      16.0000000000
5804 2      15.6448421205      13.0000000000
5805 2      14.8807726717      19.0000000000
5806 2      15.6301064258      18.0000000000
5807 2      13.3142736752      14.0000000000
5808 2      16.0989298563      19.0000000000
5809 2      17.9159749384      22.0000000000
5810 2      20.5925002976      20.0000000000
5811 2      12.9239273241      15.0000000000
5812 2      18.2307909489      21.0000000000
5813 2      13.3101414110      15.0000000000
5814 2      15.3543124888      15.0000000000
5815 2      14.8150269976      14.0000000000
5816 2      15.0083247557      16.0000000000
5817 2      15.8091233875      18.0000000000
5818 2      14.0014462327      19.0000000000
5819 2      20.9416857955      21.0000000000
5820 2      18.4404496125      17.0000000000
5821 2      13.2847441576      16.0000000000
5822 2      13.4524700598      15.0000000000
5823 2      15.0002243184      21.0000000000
5824 2      15.0727520393      20.0000000000
5825 2      16.3138115058      18.0000000000
5826 2      17.1829190327      17.0000000000
5827 2      14.5890752705      17.0000000000
5828 2      17.3740591767      15.0000000000
5829 2      20.1281213354      22.0000000000
5830 2      17.7519865738      18.0000000000
5831 2      16.9910371699      20.0000000000
5832 2      15.4257960260      19.0000000000
5833 2      19.6171421108      21.0000000000
5834 2      18.1231781585      18.0000000000
5835 2      18.1735789210      17.0000000000
5836 2      17.4939268530      18.0000000000
5837 2      18.1154817917      19.0000000000
5838 2      13.4107569055      18.0000000000
5839 2      15.5848745570      19.0000000000
5840 2      15.7448963169      15.0000000000
5841 2      15.5316944917      17.0000000000
5842 2      16.1460247241      12.0000000000
5843 2      15.9041319293      14.0000000000
5844 2      14.8934071336      20.0000000000
5845 2      13.4394029258      18.0000000000
5846 2      17.6189628157      17.0000000000
5847 2      16.9198259626      19.0000000000
5848 2      17.2512506328      17.0000000000
5849 2      14.5451419537      17.0000000000
5850 2      15.3739954199      17.0000000000
5851 2      15.8350898301      16.0000000000
5852 2      14.6883251180      16.0000000000
5853 2      16.3328906532      17.0000000000
5854 2      17.0772943220      24.0000000000
5855 2      15.1960736554      16.0000000000
5856 2      13.9323899869      17.0000000000
5857 2      15.6828070295      17.0000000000
5858 2      15.2572246278      16.0000000000
5859 2      18.6815091670      16.0000000000
5860 2      14.3907529146      17.0000000000
5861 2      14.9780408686      16.0000000000
5862 2      17.7559568941      17.0000000000
5863 2      17.0643852760      16.0000000000
5864 2      15.7808715585      16.0000000000
5865 2      20.0227619598      21.0000000000
5866 2      13.4689288710      17.0000000000
5867 2      19.2780515036      18.0000000000
5868 2      20.0175159206      22.0000000000
5869 2      15.5732953488      18.0000000000
5870 2      17.8779101568      17.0000000000
5871 2      17.0407441182      21.0000000000
5872 2      19.9819014357      20.0000000000
5873 2      18.9561260024      20.0000000000
5874 2      20.3147231652      19.0000000000
5875 2      17.8192173590      23.0000000000
5876 2      16.9911036304      18.0000000000
5877 2      15.9423498247      19.0000000000
5878 2      17.1900613888      21.0000000000
5879 2      14.1977778587      14.0000000000
5880 2      15.2868750612      19.0000000000
5881 2      16.2049780761      20.0000000000
5882 2      16.4502695886      15.0000000000
5883 2      19.9656462937      18.0000000000
5884 2      14.4619987050      15.0000000000
5885 2      15.8440977407      17.0000000000
5886 2      16.2938000282      20.0000000000
5887 2      14.8336436145      14.0000000000
5888 2      17.7315823971      18.0000000000
5889 2      16.3678986799      14.0000000000
5890 2      14.5860579889      17.0000000000
5891 2      16.0976408948      19.0000000000
5892 2      13.1791018256      15.0000000000
5893 2      17.9651038969      18.0000000000
5894 2      14.5061264500      16.0000000000
5895 2      14.1729923471      16.0000000000
5896 2      13.6468409534      19.0000000000
5897 2      13.6693509082      16.0000000000
5898 2      16.2685006875      17.0000000000
5899 2      13.6216347079      17.0000000000
5900 2      17.3493220076      17.0000000000
5901 2      15.4590714582      20.0000000000
5902 2      15.5325029842      18.0000000000
5903 2      14.2185815723      16.0000000000
5904 2      17.0521190859      19.0000000000
5905 2      18.1990139125      18.0000000000
5906 2      13.9853742728      17.0000000000
5907 2      17.9810943756      16.0000000000
5908 2      13.5237137161      17.0000000000
5909 2      13.4978916970      14.0000000000
5910 2      15.0795357398      18.0000000000
5911 2      17.0229225943      17.0000000000
5912 2      14.3613066547      16.0000000000
5913 2      18.5358294203      16.0000000000
5914 2      18.5674580551      14.0000000000
5915 2      16.0572333899      15.0000000000
5916 2      15.9671644875      17.0000000000
5917 2      14.8205588217      14.0000000000
5918 2      18.8825933736      14.0000000000
5919 2      15.4429229876      15.0000000000
5920 2      15.5344987658      16.0000000000
5921 2      13.6549482232      15.0000000000
5922 2      16.1011454644      22.0000000000
5923 2      17.0319643080      17.0000000000
5924 2      17.0298457637      21.0000000000
5925 2      15.8587227067      17.0000000000
5926 2      17.7790602442      19.0000000000
5927 2      14.3568946125      17.0000000000
5928 2      13.4566668047      14.0000000000
5929 2      13.6086008352      14.0000000000
5930 2      15.0835130174      17.0000000000
5931 2      16.6884517250      18.0000000000
5932 2      17.1144404477      17.0000000000
5933 2      14.4321097727      19.0000000000
5934 2      14.7603948149      16.0000000000
5935 2      15.8343498482      16.0000000000
5936 2      16.3937234893      17.0000000000
5937 2      13.9243058131      19.0000000000
5938 2      16.8098204522      14.0000000000
5939 2      17.2602528009      18.0000000000
5940 2      13.4338353057      17.0000000000
5941 2      14.6808542022      17.0000000000
5942 2      13.5815795390      15.0000000000
5943 2      17.6985431666      21.0000000000
5944 2      14.4935142656      18.0000000000
5945 2      16.3115319866      17.0000000000
5946 2      18.3109868021      19.0000000000
5947 2      14.6852203838      20.0000000000
5948 2      16.2393055460      17.0000000000
5949 2      15.8005247100      18.0000000000
5950 2      17.4850757544      19.0000000000
5951 2      14.2434190079      17.0000000000
5952 2      14.5894162441      18.0000000000
5953 2      15.7243208646      15.0000000000
5954 2      16.1791885873      18.0000000000
5955 2      18.3847645044      18.0000000000
5956 2      17.9822200395      25.0000000000
5957 2      14.2712689901      19.0000000000
5958 2      16.1616781414      20.0000000000
5959 2      13.7144258668      18.0000000000
5960 2      15.4342384146      20.0000000000
5961 2      15.4679732281      16.0000000000
5962 2      13.9260582462      18.0000000000
5963 2      17.2013001031      19.0000000000
5964 2      14.4625696614      17.0000000000
5965 2      15.6976364741      20.0000000000
5966 2      15.0502599908      19.0000000000
5967 2      16.6552561871      17.0000000000
5968 2      16.8047065994      20.0000000000
5969 2      17.3910258393      12.0000000000
5970 2      17.5658997859      16.0000000000
5971 2      15.2601637244      16.0000000000
5972 2      15.0284010389      19.0000000000
5973 2      18.2979156232      20.0000000000
5974 2      15.1207738399      18.0000000000
5975 2      15.0039005802      20.0000000000
5976 2      14.4438849774      16.0000000000
5977 2      20.2640277056      22.0000000000
5978 2      16.4576666115      18.0000000000
5979 2      16.0405556225      16.0000000000
5980 2      16.4492944437      13.0000000000
5981 2      17.2463701745      26.0000000000
5982 2      13.8320216179      18.0000000000
5983 2      15.2374233265      16.0000000000
5984 2      17.1221041677      15.0000000000
5985 2      16.5619992332      15.0000000000
5986 2      14.9074826287      15.0000000000
5987 2      14.2933339561      19.0000000000
5988 2      14.6179168633      18.0000000000
5989 2      16.7300434387      19.0000000000
5990 2      17.7436274083      21.0000000000
5991 2      17.1703345361      18.0000000000
5992 2      15.3639346086      22.0000000000
5993 2      14.3047897995      16.0000000000
5994 2      13.9089933525      17.0000000000
5995 2      15.3591760540      17.0000000000
5996 2      13.4662248958      15.0000000000
5997 2      17.9099281829      23.0000000000
5998 2      17.8617440896      14.0000000000
5999 2      13.1302301743      14.0000000000
6000 2      14.3911100242      16.0000000000
6001 2      14.2939010569      19.0000000000
6002 2      15.3878959128      16.0000000000
6003 2      15.9846900364      16.0000000000
6004 2      12.6116117541      15.0000000000
6005 2      15.0478653410      17.0000000000
6006 2      16.7633996318      17.0000000000
6007 2      17.6238226315      16.0000000000
6008 2      17.0768034550      18.0000000000
6009 2      16.5157017689      15.0000000000
6010 2      14.6107954233      20.0000000000
6011 2      16.6375720716      17.0000000000
6012 2      16.8693240002      23.0000000000
6013 2      16.7902857634      14.0000000000
6014 2      15.7750566248      16.0000000000
6015 2      14.9318307320      18.0000000000
6016 2      17.9692337192      17.0000000000
6017 2      14.2274853345      17.0000000000
6018 2      13.8064667583      18.0000000000
6019 2      15.8532078125      18.0000000000
6020 2      14.4333122779      15.0000000000
6021 2      15.6659057595      19.0000000000
6022 2      15.0843713060      17.0000000000
6023 2      13.8283903285      19.0000000000
6024 2      17.2057286319      23.0000000000
6025 2      16.2955035552      17.0000000000
6026 2      15.1920317955      16.0000000000
6027 2      16.2603731678      19.0000000000
6028 2      16.1587073030      18.0000000000
6029 2      14.5366943183      17.0000000000
6030 2      14.8481939121      18.0000000000
6031 2      14.2857424434      17.0000000000
6032 2      16.3186957166      17.0000000000
6033 2      15.7113944255      17.0000000000
6034 2      19.7665180397      21.0000000000
6035 2      17.7699000942      23.0000000000
6036 2      13.1770950778      13.0000000000
6037 2      16.8018166741      19.0000000000
6038 2      17.4768222794      23.0000000000
6039 2      13.8648899772      14.0000000000
6040 2      19.3621559026      15.0000000000
6041 2      15.4289136048      18.0000000000
6042 2      16.3107877632      19.0000000000
6043 2      18.9534058011      16.0000000000
6044 2      14.3489101019      19.0000000000
6045 2      15.1010286155      18.0000000000
6046 2      16.0816530312      18.0000000000
6047 2      16.0673671631      21.0000000000
6048 2      14.9108428895      17.0000000000
6049 2      13.1411194308      17.0000000000
6050 2      16.7658987550      22.0000000000
6051 2      15.0385240968      14.0000000000
6052 2      16.6655435905      17.0000000000
6053 2      17.0436847560      17.0000000000
6054 2      18.0187598978      17.0000000000
6055 2      16.5997559538      15.0000000000
6056 2      16.2635741509      19.0000000000
6057 2      14.3774624279      13.0000000000
6058 2      12.5472955382      15.0000000000
6059 2      16.2626213299      16.0000000000
6060 2      17.4930199612      21.0000000000
6061 2      17.4875576214      20.0000000000
6062 2      13.2912559561      14.0000000000
6063 2      15.6149398145      19.0000000000
6064 2      17.8050815396      16.0000000000
6065 2      21.1979673784      17.0000000000
6066 2      14.7276106904      16.0000000000
6067 2      17.3114079667      20.0000000000
6068 2      13.7639877941      15.0000000000
6069 2      14.5014680925      17.0000000000
6070 2      15.5976522131      18.0000000000
6071 2      16.0442920078      17.0000000000
6072 2      16.4221765507      18.0000000000
6073 2      15.0396668093      16.0000000000
6074 2      13.5536307953      14.0000000000
6075 2      16.2490142330      16.0000000000
6076 2      17.5921024158      18.0000000000
6077 2      16.0411584353      17.0000000000
6078 2      16.3246423860      17.0000000000
6079 2      16.7550841273      19.0000000000
6080 2      14.3092851513      15.0000000000
6081 2      16.5960962650      17.0000000000
6082 2      14.8833415480      16.0000000000
6083 2      14.6366633256      16.0000000000
6084 2      14.3874590091      15.0000000000
6085 2      15.2086580964      17.0000000000
6086 2      13.7009612625      13.0000000000
6087 2      16.9963040199      17.0000000000
6088 2      13.7130510353      14.0000000000
6089 2      15.1706683894      17.0000000000
6090 2      13.6430668773      15.0000000000
6091 2      15.9306941495      19.0000000000
6092 2      14.8032197834      15.0000000000
6093 2      17.6437573106      19.0000000000
6094 2      19.1374130293      20.0000000000
6095 2      14.3378004042      14.0000000000
6096 2      18.6068475223      17.0000000000
6097 2      16.5158040217      20.0000000000
6098 2      15.2351420219      17.0000000000
6099 2      13.6861269819      15.0000000000
6100 2      15.8153327985      17.0000000000
6101 2      17.5233456459      15.0000000000
6102 2      15.4131227790      17.0000000000
6103 2      17.1230041107      18.0000000000
6104 2      13.9035198592      16.0000000000
6105 2      16.0204442593      18.0000000000
6106 2      14.3154668276      17.0000000000
6107 2      16.3064628628      18.0000000000
6108 2      15.3758358816      18.0000000000
6109 2      13.6754160461      17.0000000000
6110 2      14.0488111981      14.0000000000
6111 2      19.0781267892      18.0000000000
6112 2      19.2319847961      17.0000000000
6113 2      13.9307585295      13.0000000000
6114 2      20.2287106780      20.0000000000
6115 2      16.4356734812      20.0000000000
6116 2      16.3222933894      17.0000000000
6117 2      15.5898645393      19.0000000000
6118 2      15.0545229409      20.0000000000
6119 2      17.7102428468      20.0000000000
6120 2      14.9111392446      15.0000000000
6121 2      15.0350213851      17.0000000000
6122 2      14.8487316283      19.0000000000
6123 2      18.8322088322      14.0000000000
6124 2      16.1743503500      16.0000000000
6125 2      18.2371141069      16.0000000000
6126 2      14.4816343204      17.0000000000
6127 2      17.9878103360      18.0000000000
6128 2      17.5257354859      16.0000000000
6129 2      16.9240352145      16.0000000000
6130 2      19.5432185899      17.0000000000
6131 2      19.2376442614      20.0000000000
6132 2      14.9621196988      19.0000000000
6133 2      14.2624938955      17.0000000000
6134 2      17.6944994653      19.0000000000
6135 2      16.6374439776      21.0000000000
6136 2      15.4581833571      18.0000000000
6137 2      18.8137693328      21.0000000000
6138 2      18.0312835851      23.0000000000
6139 2      15.8181896899      17.0000000000
6140 2      17.2804474708      15.0000000000
6141 2      14.0456621277      14.0000000000
6142 2      21.7953958286      21.0000000000
6143 2      16.8066365084      19.0000000000
6144 2      12.2300235973      15.0000000000
6145 2      15.9473599159      15.0000000000
6146 2      15.5140681692      17.0000000000
6147 2      13.7524765327      15.0000000000
6148 2      14.4899792397      16.0000000000
6149 2      17.0378164506      16.0000000000
6150 2      17.9437611592      19.0000000000
6151 2      14.9307728296      22.0000000000
6152 2      14.2625451326      17.0000000000
6153 2      14.1603021612      16.0000000000
6154 2      17.3014040040      20.0000000000
6155 2      14.9092431389      18.0000000000
6156 2      15.6859184515      18.0000000000
6157 2      14.6806069427      16.0000000000
6158 2      16.5652775609      21.0000000000
6159 2      14.3308993360      16.0000000000
6160 2      15.6748745467      14.0000000000
6161 2      15.9630433211      17.0000000000
6162 2      16.3247512987      19.0000000000
6163 2      16.0697954206      20.0000000000
6164 2      16.6422345290      18.0000000000
6165 2      17.1855057239      15.0000000000
6166 2      12.4915572764      14.0000000000
6167 2      16.3210475380      23.0000000000
6168 2      13.9990098535      18.0000000000
6169 2      14.4827178120      18.0000000000
6170 2      13.9362640330      19.0000000000
6171 2      19.3109286544      20.0000000000
6172 2      14.1193132644      17.0000000000
6173 2      15.0048687333      15.0000000000
6174 2      13.8308856946      14.0000000000
6175 2      15.7011806371      17.0000000000
6176 2      15.9632213998      19.0000000000
6177 2      13.9905124190      22.0000000000
6178 2      15.1146470789      17.0000000000
6179 2      14.2798506189      17.0000000000
6180 2      15.6711126851      13.0000000000
6181 2      15.3380017242      15.0000000000
6182 2      16.3482718070      19.0000000000
6183 2      15.4423242967      16.0000000000
6184 2      15.0390444857      14.0000000000
6185 2      14.8004197369      16.0000000000
6186 2      16.6110266865      18.0000000000
6187 2      12.4790879553      15.0000000000
6188 2      16.1498666823      18.0000000000
6189 2      13.8800581937      18.0000000000
6190 2      18.4631133011      23.0000000000
6191 2      16.5392603446      20.0000000000
6192 2      15.9501548293      18.0000000000
6193 2      18.7703019844      19.0000000000
6194 2      16.4716353201      14.0000000000
6195 2      13.8637775369      15.0000000000
6196 2      14.4603796322      16.0000000000
6197 2      14.2539169511      14.0000000000
6198 2      18.0430724058      20.0000000000
6199 2      15.7355531953      17.0000000000
6200 2      14.7052263349      15.0000000000
6201 2      16.6341431914      17.0000000000
6202 2      18.5961679491      17.0000000000
6203 2      15.2961781397      19.0000000000
6204 2      14.6316753684      16.0000000000
6205 2      14.5327038559      19.0000000000
6206 2      16.9914302273      19.0000000000
6207 2      16.7609832433      20.0000000000
6208 2      15.6496705527      16.0000000000
6209 2      13.2903689466      18.0000000000
6210 2      18.3374693249      20.0000000000
6211 2      19.4662724098      19.0000000000
6212 2      18.8783973032      21.0000000000
6213 2      15.5576049707      17.0000000000
6214 2      14.8592828419      16.0000000000
6215 2      15.4142962758      15.0000000000
6216 2      13.3487975236      16.0000000000
6217 2      15.3736882827      16.0000000000
6218 2      15.9916261361      15.0000000000
6219 2      22.0845603916      25.0000000000
6220 2      14.7433840984      15.0000000000
6221 2      18.6725421215      17.0000000000
6222 2      15.1924771541      17.0000000000
6223 2      16.2548342952      22.0000000000
6224 2      14.7672057045      14.0000000000
6225 2      15.6109085638      21.0000000000
6226 2      18.4869981002      25.0000000000
6227 2      14.6404558332      17.0000000000
6228 2      16.7005118609      15.0000000000
6229 2      14.4995548804      17.0000000000
6230 2      13.9941221438      16.0000000000
6231 2      13.3713011377      14.0000000000
6232 2      17.9708577957      16.0000000000
6233 2      15.1166964876      15.0000000000
6234 2      19.7219474198      17.0000000000
6235 2      16.3823708806      17.0000000000
6236 2      13.3982195848      17.0000000000
6237 2      13.8864353578      17.0000000000
6238 2      17.9438942106      19.0000000000
6239 2      15.3541221060      16.0000000000
6240 2      16.3883203639      22.0000000000
6241 2      14.5489701424      17.0000000000
6242 2      16.8674285573      14.0000000000
6243 2      14.8728688491      15.0000000000
6244 2      15.5002947514      18.0000000000
6245 2      13.4283549032      17.0000000000
6246 2      16.2311177345      16.0000000000
6247 2      12.6507948588      17.0000000000
6248 2      18.5161649813      19.0000000000
6249 2      14.5238638372      15.0000000000
6250 2      15.8676520671      17.0000000000
6251 2      13.9635157670      16.0000000000
6252 2      17.0845266426      20.0000000000
6253 2      17.2196531495      16.0000000000
6254 2      14.7695020664      18.0000000000
6255 2      16.1235399073      19.0000000000
6256 2      15.2490058184      16.0000000000
6257 2      15.6914498397      18.0000000000
6258 2      13.9304917226      18.0000000000
6259 2      17.5177691804      19.0000000000
6260 2      14.7547898204      16.0000000000
6261 2      19.6316615681      21.0000000000
6262 2      14.8667832379      19.0000000000
6263 2      18.4114595998      19.0000000000
6264 2      15.1916976718      15.0000000000
6265 2      15.7390195926      16.0000000000
6266 2      16.8103079946      16.0000000000
6267 2      17.6367121428      20.0000000000
6268 2      12.2023539344      14.0000000000
6269 2      15.9851806720      19.0000000000
6270 2      17.5479719509      21.0000000000
6271 2      15.5126714211      19.0000000000
6272 2      14.7284818987      15.0000000000
6273 2      14.7279607059      15.0000000000
6274 2      15.9269249467      18.0000000000
6275 2      16.9868509314      13.0000000000
6276 2      21.5873762185      19.0000000000
6277 2      15.8584228866      18.0000000000
6278 2      18.3182580934      20.0000000000
6279 2      17.5195328646      17.0000000000
6280 2      20.1253197044      18.0000000000
6281 2      15.8425444300      17.0000000000
6282 2      14.9651312394      19.0000000000
6283 2      21.1829189214      18.0000000000
6284 2      18.6927075206      18.0000000000
6285 2      14.6996814530      17.0000000000
6286 2      15.8664759718      19.0000000000
6287 2      13.5973336454      14.0000000000
6288 2      15.3405705727      17.0000000000
6289 2      15.4303812137      19.0000000000
6290 2      14.5428268715      16.0000000000
6291 2      13.3793880181      15.0000000000
6292 2      16.5815223596      19.0000000000
6293 2      16.0781442021      17.0000000000
6294 2      18.6430782731      16.0000000000
6295 2      15.9338404674      18.0000000000
6296 2      16.2677196475      14.0000000000
6297 2      16.3965785641      15.0000000000
6298 2      14.5908485966      19.0000000000
6299 2      15.1548665394      15.0000000000
6300 2      14.8856428197      13.0000000000
6301 2      16.8348998975      19.0000000000
6302 2      13.8108719532      16.0000000000
6303 2      18.5089147621      19.0000000000
6304 2      13.3082265664      16.0000000000
6305 2      14.7411560774      17.0000000000
6306 2      14.5913103605      16.0000000000
6307 2      17.3154844143      18.0000000000
6308 2      15.0831275767      16.0000000000
6309 2      15.8264667247      18.0000000000
6310 2      17.2096788240      18.0000000000
6311 2      13.9233121984      16.0000000000
6312 2      20.6771352027      20.0000000000
6313 2      16.0892141572      16.0000000000
6314 2      22.0818801059      23.0000000000
6315 2      13.9906448030      19.0000000000
6316 2      12.6586621557      14.0000000000
6317 2      14.1836566029      16.0000000000
6318 2      15.9388531963      19.0000000000
6319 2      19.1986309026      17.0000000000
6320 2      16.2363908637      17.0000000000
6321 2      13.3062608618      17.0000000000
6322 2      13.9537848934      15.0000000000
6323 2      12.8199098804      16.0000000000
6324 2      16.0525384383      17.0000000000
6325 2      15.6963845097      16.0000000000
6326 2      16.2905166239      17.0000000000
6327 2      20.8624127115      18.0000000000
6328 2      16.7273918750      14.0000000000
6329 2      14.3032196439      14.0000000000
6330 2      17.0105549204      17.0000000000
6331 2      14.2817815199      15.0000000000
6332 2      13.9730045088      17.0000000000
6333 2      18.5163314166      17.0000000000
6334 2      18.3559329529      17.0000000000
6335 2      14.9402446010      20.0000000000
6336 2      15.5906441092      20.0000000000
6337 2      16.5000559175      16.0000000000
6338 2      14.4456778334      18.0000000000
6339 2      13.5515869696      18.0000000000
6340 2      15.6234122270      15.0000000000
6341 2      13.2922403615      15.0000000000
6342 2      17.0383382635      19.0000000000
6343 2      18.2168575229      19.0000000000
6344 2      14.1584024635      14.0000000000
6345 2      16.3509291866      21.0000000000
6346 2      15.2490928646      21.0000000000
6347 2      16.8622402722      14.0000000000
6348 2      13.6668946643      17.0000000000
6349 2      15.4025418442      15.0000000000
6350 2      18.2261534833      17.0000000000
6351 2      17.8039464727      22.0000000000
6352 2      18.0013869366      16.0000000000
6353 2      17.6426569734      19.0000000000
6354 2      16.4818809603      18.0000000000
6355 2      16.7389459895      18.0000000000
6356 2      16.0482384844      18.0000000000
6357 2      14.1894305217      16.0000000000
6358 2      14.0287872916      14.0000000000
6359 2      16.4681992718      19.0000000000
6360 2      14.4194318468      15.0000000000
6361 2      13.4639716030      14.0000000000
6362 2      15.3033482997      15.0000000000
6363 2      14.1177492881      18.0000000000
6364 2      14.5009573176      18.0000000000
6365 2      16.6156707201      20.0000000000
6366 2      14.3324426366      16.0000000000
6367 2      15.8120354457      16.0000000000
6368 2      15.7486010909      18.0000000000
6369 2      20.2962363611      15.0000000000
6370 2      15.2747134039      15.0000000000
6371 2      14.2439345190      18.0000000000
6372 2      15.3738441134      15.0000000000
6373 2      16.7865891593      19.0000000000
6374 2      15.1305734605      20.0000000000
6375 2      17.4050940026      19.0000000000
6376 2      16.6290283500      16.0000000000
6377 2      17.0442789699      18.0000000000
6378 2      17.3690004540      17.0000000000
6379 2      17.4202340866      20.0000000000
6380 2      16.7230148890      20.0000000000
6381 2      13.6500289556      18.0000000000
6382 2      15.6010004308      16.0000000000
6383 2      17.3740639004      16.0000000000
6384 2      17.2820271640      17.0000000000
6385 2      14.5183143859      16.0000000000
6386 2      16.9675271267      19.0000000000
6387 2      16.4808079801      18.0000000000
6388 2      15.7544088192      16.0000000000
6389 2      16.6120622966      18.0000000000
6390 2      16.2666786343      20.0000000000
6391 2      13.9789098078      16.0000000000
6392 2      16.7542303304      17.0000000000
6393 2      16.6283832594      15.0000000000
6394 2      16.0142697929      20.0000000000
6395 2      15.6480159215      21.0000000000
6396 2      13.8824105343      16.0000000000
6397 2      16.5561162960      19.0000000000
6398 2      16.3831455423      16.0000000000
6399 2      15.4716642486      20.0000000000
6400 2      17.5026321805      20.0000000000
6401 2      15.6654739421      20.0000000000
6402 2      17.8688062550      21.0000000000
6403 2      13.7815972174      14.0000000000
6404 2      16.4692024338      20.0000000000
6405 2      16.3882766169      15.0000000000
6406 2      17.9128216665      22.0000000000
6407 2      13.8934239194      19.0000000000
6408 2      17.4046790283      19.0000000000
6409 2      17.0944260291      20.0000000000
6410 2      16.5303967360      18.0000000000
6411 2      17.7405600557      15.0000000000
6412 2      17.3380612334      19.0000000000
6413 2      14.6311642672      17.0000000000
6414 2      18.1088738368      20.0000000000
6415 2      14.4848363602      18.0000000000
6416 2      17.8138428328      14.0000000000
6417 2      14.8039799605      17.0000000000
6418 2      15.0442521730      14.0000000000
6419 2      13.8829797673      17.0000000000
6420 2      13.1458727998      12.0000000000
6421 2      16.0137746697      21.0000000000
6422 2      17.2668643709      19.0000000000
6423 2      14.9348676697      16.0000000000
6424 2      15.2834963773      16.0000000000
6425 2      16.8177813601      17.0000000000
6426 2      16.3150448722      16.0000000000
6427 2      16.0320670423      22.0000000000
6428 2      17.6731771067      17.0000000000
6429 2      15.6640969533      17.0000000000
6430 2      14.2437286467      16.0000000000
6431 2      14.6867030315      14.0000000000
6432 2      14.0555050488      18.0000000000
6433 2      16.4895365256      18.0000000000
6434 2      13.5090427958      17.0000000000
6435 2      13.4239204262      17.0000000000
6436 2      20.0167743314      20.0000000000
6437 2      15.3277935552      18.0000000000
6438 2      13.3813597519      15.0000000000
6439 2      15.9017161943      15.0000000000
6440 2      13.4051417509      16.0000000000
6441 2      17.9244233079      20.0000000000
6442 2      16.2334079404      21.0000000000
6443 2      13.1011605136      17.0000000000
6444 2      18.2926293350      21.0000000000
6445 2      16.9247002271      16.0000000000
6446 2      14.6693156493      16.0000000000
6447 2      17.7741837223      17.0000000000
6448 2      18.5097619324      19.0000000000
6449 2      18.8515320481      14.0000000000
6450 2      14.2600024494      17.0000000000
6451 2      14.0593716804      20.0000000000
6452 2      15.5159907071      22.0000000000
6453 2      15.8905708193      21.0000000000
6454 2      17.1168323502      19.0000000000
6455 2      13.6918695260      17.0000000000
6456 2      13.2736251230      17.0000000000
6457 2      15.7724276408      18.0000000000
6458 2      12.9501791151      15.0000000000
6459 2      15.5687421362      15.0000000000
6460 2      14.9294222937      19.0000000000
6461 2      15.2859633161      17.0000000000
6462 2      14.7893374281      20.0000000000
6463 2      14.7655480042      18.0000000000
6464 2      14.5162364523      17.0000000000
6465 2      16.7334212084      17.0000000000
6466 2      16.8289593745      14.0000000000
6467 2      16.7327211247      19.0000000000
6468 2      15.5952443822      21.0000000000
6469 2      17.2718597850      17.0000000000
6470 2      15.6744129475      17.0000000000
6471 2      14.6164534734      15.0000000000
6472 2      17.5202333282      18.0000000000
6473 2      17.4926547116      18.0000000000
6474 2      13.9327668702      16.0000000000
6475 2      16.9130037031      15.0000000000
6476 2      17.0765210814      17.0000000000
6477 2      15.8184255644      17.0000000000
6478 2      14.7205885736      18.0000000000
6479 2      18.9451374391      17.0000000000
6480 2      16.1735669237      20.0000000000
6481 2      15.9717981859      23.0000000000
6482 2      17.5030909795      14.0000000000
6483 2      15.9533229777      18.0000000000
6484 2      14.7829971267      16.0000000000
6485 2      16.4487785010      18.0000000000
6486 2      15.2159666634      16.0000000000
6487 2      15.1512508590      16.0000000000
6488 2      16.4325544306      17.0000000000
6489 2      16.2350279503      15.0000000000
6490 2      18.5402219052      16.0000000000
6491 2      13.7609109509      17.0000000000
6492 2      16.2614730485      15.0000000000
6493 2      14.5686655321      18.0000000000
6494 2      14.4160713009      17.0000000000
6495 2      16.2661841018      16.0000000000
6496 2      15.6675400690      18.0000000000
6497 2      17.5410194938      14.0000000000
6498 2      14.1844304736      18.0000000000
6499 2      16.5969343151      18.0000000000
6500 2      16.9997136473      22.0000000000
6501 2      14.7540997676      16.0000000000
6502 2      14.9437250238      17.0000000000
6503 2      16.4279763679      22.0000000000
6504 2      15.9675505245      19.0000000000
6505 2      16.3202842067      18.0000000000
6506 2      19.3992695130      22.0000000000
6507 2      14.1514053957      14.0000000000
6508 2      17.7702445910      16.0000000000
6509 2      16.4457263258      20.0000000000
6510 2      15.3869580814      17.0000000000
6511 2      14.0641325863      19.0000000000
6512 2      15.0118401978      18.0000000000
6513 2      17.1451902658      18.0000000000
6514 2      13.6498188736      18.0000000000
6515 2      14.8343683947      19.0000000000
6516 2      19.7668123313      18.0000000000
6517 2      14.2681703532      15.0000000000
6518 2      18.2952367220      14.0000000000
6519 2      15.8641190640      15.0000000000
6520 2      15.5344143080      15.0000000000
6521 2      20.9294894107      19.0000000000
6522 2      15.8591688096      21.0000000000
6523 2      14.3300812406      15.0000000000
6524 2      14.9988555523      16.0000000000
6525 2      16.0326939477      20.0000000000
6526 2      18.1416580540      20.0000000000
6527 2      14.9314966721      13.0000000000
6528 2      15.5176139473      17.0000000000
6529 2      14.3254267189      15.0000000000
6530 2      15.5602200518      22.0000000000
6531 2      14.7660587193      19.0000000000
6532 2      18.4346263767      17.0000000000
6533 2      15.2971958101      17.0000000000
6534 2      20.2799920436      18.0000000000
6535 2      15.3960259465      18.0000000000
6536 2      15.4407560299      12.0000000000
6537 2      14.1403874250      16.0000000000
6538 2      15.0018134721      17.0000000000
6539 2      14.7995316441      17.0000000000
6540 2      13.9540765476      17.0000000000
6541 2      15.4683020448      19.0000000000
6542 2      15.2046199333      18.0000000000
6543 2      14.5283041210      20.0000000000
6544 2      13.9104881159      14.0000000000
6545 2      18.5102140755      20.0000000000
6546 2      15.3416782982      19.0000000000
6547 2      17.5940051090      17.0000000000
6548 2      18.0704539416      22.0000000000
6549 2      15.0421322217      15.0000000000
6550 2      16.8012594610      18.0000000000
6551 2      16.8839319252      17.0000000000
6552 2      15.3169281730      20.0000000000
6553 2      15.2865790182      13.0000000000
6554 2      18.8899218070      18.0000000000
6555 2      19.9061731030      18.0000000000
6556 2      16.9611739237      19.0000000000
6557 2      15.2288353058      18.0000000000
6558 2      14.1166501120      18.0000000000
6559 2      14.9725415823      15.0000000000
6560 2      14.4717464851      16.0000000000
6561 2      16.0252827425      19.0000000000
6562 2      18.1925867190      18.0000000000
6563 2      15.2969182968      17.0000000000
6564 2      20.7004108375      19.0000000000
6565 2      15.6610461416      18.0000000000
6566 2      17.3907625434      18.0000000000
6567 2      22.2211054071      24.0000000000
6568 2      14.7386966989      18.0000000000
6569 2      15.4538578784      18.0000000000
6570 2      14.6252177293      14.0000000000
6571 2      17.9944493866      21.0000000000
6572 2      15.5328020212      19.0000000000
6573 2      14.7809455453      16.0000000000
6574 2      14.5869575381      17.0000000000
6575 2      13.6795419868      15.0000000000
6576 2      13.9902748575      12.0000000000
6577 2      13.0927748433      14.0000000000
6578 2      16.2256617845      18.0000000000
6579 2      14.0307830839      17.0000000000
6580 2      16.9256390219      17.0000000000
6581 2      16.0093785640      25.0000000000
6582 2      16.9830995938      18.0000000000
6583 2      17.8580714353      13.0000000000
6584 2      17.8295829170      20.0000000000
6585 2      16.0194467213      18.0000000000
6586 2      18.3701221977      16.0000000000
6587 2      16.0241275242      17.0000000000
6588 2      15.7297568255      17.0000000000
6589 2      16.1498996787      16.0000000000
6590 2      14.6591849768      19.0000000000
6591 2      15.6257425306      20.0000000000
6592 2      18.2988799891      19.0000000000
6593 2      16.6620645202      17.0000000000
6594 2      15.2662706008      18.0000000000
6595 2      17.3954972278      18.0000000000
6596 2      14.2294745184      13.0000000000
6597 2      15.6748700126      22.0000000000
6598 2      14.9578845244      18.0000000000
6599 2      14.5522880015      16.0000000000
6600 2      13.4504929740      18.0000000000
6601 2      14.1621631039      22.0000000000
6602 2      14.2025770719      17.0000000000
6603 2      14.6397612758      16.0000000000
6604 2      16.1873057993      18.0000000000
6605 2      14.6573797371      20.0000000000
6606 2      15.0488332281      18.0000000000
6607 2      18.5074053935      17.0000000000
6608 2      14.3022058210      16.0000000000
6609 2      16.1817261750      17.0000000000
6610 2      18.0563211816      15.0000000000
6611 2      13.2868711438      14.0000000000
6612 2      17.3862373927      19.0000000000
6613 2      16.1180262285      16.0000000000
6614 2      13.8382009204      14.0000000000
6615 2      13.9983672529      16.0000000000
6616 2      15.5077237981      14.0000000000
6617 2      16.3901912123      17.0000000000
6618 2      14.1610249314      14.0000000000
6619 2      17.3854995973      18.0000000000
6620 2      17.3640249500      18.0000000000
6621 2      16.8530052205      17.0000000000
6622 2      15.9424663746      14.0000000000
6623 2      13.9480835778      17.0000000000
6624 2      13.5802772348      15.0000000000
6625 2      15.2927904258      20.0000000000
6626 2      16.2755150247      18.0000000000
6627 2      15.3069439830      17.0000000000
6628 2      17.0282519002      18.0000000000
6629 2      15.9368185880      16.0000000000
6630 2      18.2845084618      18.0000000000
6631 2      15.6675775181      20.0000000000
6632 2      14.0953107190      18.0000000000
6633 2      15.5215950038      16.0000000000
6634 2      20.5199403952      20.0000000000
6635 2      21.9880031484      20.0000000000
6636 2      14.5617225869      16.0000000000
6637 2      15.7712122399      16.0000000000
6638 2      16.7662681126      17.0000000000
6639 2      18.8262390841      17.0000000000
6640 2      17.2681620337      17.0000000000
6641 2      14.8097902872      19.0000000000
6642 2      15.8372678520      15.0000000000
6643 2      16.5068232147      16.0000000000
6644 2      19.6073350376      20.0000000000
6645 2      17.3436181664      18.0000000000
6646 2      13.9388518109      14.0000000000
6647 2      17.4821276721      17.0000000000
6648 2      14.8854183555      15.0000000000
6649 2      14.9943176594      19.0000000000
6650 2      16.0288855492      15.0000000000
6651 2      18.2530472426      26.0000000000
6652 2      13.3238735737      16.0000000000
6653 2      16.2880593648      20.0000000000
6654 2      15.8528886691      18.0000000000
6655 2      17.8121113787      14.0000000000
6656 2      14.0728200353      17.0000000000
6657 2      14.8989365188      15.0000000000
6658 2      15.5830478106      16.0000000000
6659 2      15.8847931046      20.0000000000
6660 2      16.2423002914      17.0000000000
6661 2      16.5365518769      17.0000000000
6662 2      16.5060471611      21.0000000000
6663 2      20.6159594641      17.0000000000
6664 2      15.1520226647      16.0000000000
6665 2      14.2602727000      14.0000000000
6666 2      15.7353471312      17.0000000000
6667 2      15.0848350516      18.0000000000
6668 2      16.3572201328      16.0000000000
6669 2      17.1180709195      22.0000000000
6670 2      16.0220262380      20.0000000000
6671 2      15.8100664549      17.0000000000
6672 2      15.0675942236      17.0000000000
6673 2      14.5916054734      16.0000000000
6674 2      14.4504573929      15.0000000000
6675 2      15.6535061552      20.0000000000
6676 2      17.4609230104      19.0000000000
6677 2      14.5513257524      16.0000000000
6678 2      17.8899989426      22.0000000000
6679 2      14.6121507426      16.0000000000
6680 2      14.8192883310      17.0000000000
6681 2      13.3004735521      17.0000000000
6682 2      18.1190132461      16.0000000000
6683 2      16.4990817543      16.0000000000
6684 2      15.0546275693      18.0000000000
6685 2      16.5937939753      16.0000000000
6686 2      20.8032478938      21.0000000000
6687 2      19.0787768312      19.0000000000
6688 2      17.4917019259      15.0000000000
6689 2      16.7270768023      19.0000000000
6690 2      18.3017722485      22.0000000000
6691 2      16.9816921215      21.0000000000
6692 2      14.7644490434      17.0000000000
6693 2      13.9752459955      17.0000000000
6694 2      18.6258452497      21.0000000000
6695 2      13.2544527357      16.0000000000
6696 2      14.8209209278      16.0000000000
6697 2      16.1906259124      20.0000000000
6698 2      19.9916417842      21.0000000000
6699 2      13.8608079538      16.0000000000
6700 2      13.4372492093      14.0000000000
6701 2      13.6249245286      15.0000000000
6702 2      15.4274870515      18.0000000000
6703 2      16.2609687328      20.0000000000
6704 2      13.6529737961      22.0000000000
6705 2      16.1465131325      19.0000000000
6706 2      15.4209044831      14.0000000000
6707 2      18.5365934699      19.0000000000
6708 2      18.1908671958      22.0000000000
6709 2      16.3477800373      19.0000000000
6710 2      14.9897883123      17.0000000000
6711 2      14.1486020405      17.0000000000
6712 2      16.6009066489      14.0000000000
6713 2      16.9433848019      21.0000000000
6714 2      14.4837828238      19.0000000000
6715 2      15.3746886852      19.0000000000
6716 2      16.5231543436      17.0000000000
6717 2      16.9217576938      23.0000000000
6718 2      17.1025840671      15.0000000000
6719 2      13.4633086650      12.0000000000
6720 2      14.9738966245      21.0000000000
6721 2      13.1762872716      16.0000000000
6722 2      14.5808816389      16.0000000000
6723 2      21.9331949110      24.0000000000
6724 2      17.1098697990      20.0000000000
6725 2      15.4996372438      19.0000000000
6726 2      13.3113423438      15.0000000000
6727 2      13.4963703223      19.0000000000
6728 2      17.3129609842      18.0000000000
6729 2      13.9930413040      13.0000000000
6730 2      16.3080409321      16.0000000000
6731 2      19.4014362263      24.0000000000
6732 2      15.6909803489      18.0000000000
6733 2      16.5930500269      21.0000000000
6734 2      15.8408711546      19.0000000000
6735 2      16.7301591551      17.0000000000
6736 2      15.1633004766      19.0000000000
6737 2      17.0284843887      23.0000000000
6738 2      15.7424237720      17.0000000000
6739 2      13.4133980755      16.0000000000
6740 2      16.6760539290      22.0000000000
6741 2      13.0846743969      17.0000000000
6742 2      15.1695515765      17.0000000000
6743 2      14.3231275095      14.0000000000
6744 2      19.0791242217      23.0000000000
6745 2      18.5684725127      19.0000000000
6746 2      14.6766362325      13.0000000000
6747 2      12.7174529460      18.0000000000
6748 2      14.6188373751      20.0000000000
6749 2      13.9698536366      14.0000000000
6750 2      18.4697636570      17.0000000000
6751 2      15.1960302809      14.0000000000
6752 2      16.1015085896      19.0000000000
6753 2      17.3186942825      15.0000000000
6754 2      14.4484688864      13.0000000000
6755 2      16.6242441484      19.0000000000
6756 2      15.6191085501      18.0000000000
6757 2      16.2731716913      18.0000000000
6758 2      18.0618232216      19.0000000000
6759 2      15.9514426384      19.0000000000
6760 2      16.2153384912      16.0000000000
6761 2      18.7796135102      18.0000000000
6762 2      14.3058593843      14.0000000000
6763 2      16.3686326784      18.0000000000
6764 2      15.6672385791      15.0000000000
6765 2      20.2682647900      16.0000000000
6766 2      11.6407941963      13.0000000000
6767 2      16.3977711506      20.0000000000
6768 2      13.9409038640      19.0000000000
6769 2      13.5780807024      17.0000000000
6770 2      17.9192705614      20.0000000000
6771 2      16.3351923007      22.0000000000
6772 2      16.6611305993      17.0000000000
6773 2      14.2737544454      17.0000000000
6774 2      16.1443865810      16.0000000000
6775 2      14.8655683272      18.0000000000
6776 2      15.6493939858      15.0000000000
6777 2      14.3286991753      16.0000000000
6778 2      14.8112810984      18.0000000000
6779 2      15.0121103245      16.0000000000
6780 2      15.7471793215      15.0000000000
6781 2      15.5152875406      19.0000000000
6782 2      16.2606532534      18.0000000000
6783 2      17.6024847686      22.0000000000
6784 2      18.9859561266      18.0000000000
6785 2      20.8687485147      25.0000000000
6786 2      17.2827761059      16.0000000000
6787 2      14.1660579642      17.0000000000
6788 2      16.0815499620      19.0000000000
6789 2      18.0779960301      20.0000000000
6790 2      15.3060788144      19.0000000000
6791 2      14.7723291476      17.0000000000
6792 2      15.1235426602      17.0000000000
6793 2      15.3204091975      15.0000000000
6794 2      12.9994985872      14.0000000000
6795 2      14.2628480254      14.0000000000
6796 2      19.2771413649      15.0000000000
6797 2      21.1929973574      19.0000000000
6798 2      15.4538505843      16.0000000000
6799 2      19.9056447422      19.0000000000
6800 2      15.5255809232      15.0000000000
6801 2      15.0482838396      17.0000000000
6802 2      16.3942910146      20.0000000000
6803 2      16.6224082225      19.0000000000
6804 2      18.4709503980      17.0000000000
6805 2      16.4344840132      16.0000000000
6806 2      14.7897322927      18.0000000000
6807 2      16.9051815479      22.0000000000
6808 2      14.0738116351      16.0000000000
6809 2      15.9177932100      17.0000000000
6810 2      17.2479975085      18.0000000000
6811 2      15.4400433059      17.0000000000
6812 2      15.4322717635      14.0000000000
6813 2      14.3580450552      16.0000000000
6814 2      19.2964195828      21.0000000000
6815 2      15.0611698039      16.0000000000
6816 2      14.6662769314      15.0000000000
6817 2      15.8278416879      16.0000000000
6818 2      17.0345878225      17.0000000000
6819 2      17.8161625790      15.0000000000
6820 2      19.7258116814      18.0000000000
6821 2      16.2669917931      21.0000000000
6822 2      13.0256352654      17.0000000000
6823 2      15.1800502742      20.0000000000
6824 2      15.6856299285      15.0000000000
6825 2      13.0430699919      18.0000000000
6826 2      13.9612150385      18.0000000000
6827 2      15.2072903737      15.0000000000
6828 2      13.9014651010      20.0000000000
6829 2      13.6942148501      18.0000000000
6830 2      16.0554030402      18.0000000000
6831 2      13.6467871665      16.0000000000
6832 2      17.2579012944      21.0000000000
6833 2      13.6514869444      19.0000000000
6834 2      16.7203536862      20.0000000000
6835 2      14.8475503764      18.0000000000
6836 2      13.8475298974      16.0000000000
6837 2      15.1436315829      18.0000000000
6838 2      17.1522590088      15.0000000000
6839 2      18.2553073937      19.0000000000
6840 2      16.1923093295      17.0000000000
6841 2      16.5080503471      18.0000000000
6842 2      14.7474619527      15.0000000000
6843 2      16.0357267998      18.0000000000
6844 2      15.2148440933      19.0000000000
6845 2      13.9064449790      16.0000000000
6846 2      19.3237331161      23.0000000000
6847 2      16.9023893856      18.0000000000
6848 2      16.6408975708      22.0000000000
6849 2      19.6945817938      22.0000000000
6850 2      15.4960064223      17.0000000000
6851 2      15.7379887487      17.0000000000
6852 2      15.1807322738      18.0000000000
6853 2      17.7057673715      17.0000000000
6854 2      18.0124144817      16.0000000000
6855 2      15.9772656950      19.0000000000
6856 2      14.0584469702      19.0000000000
6857 2      16.6477183178      18.0000000000
6858 2      15.3845747378      17.0000000000
6859 2      18.3295515959      17.0000000000
6860 2      15.0906146938      18.0000000000
6861 2      16.9167323155      20.0000000000
6862 2      14.6408805245      15.0000000000
6863 2      15.2025877184      16.0000000000
6864 2      16.5549265035      18.0000000000
6865 2      17.1484944891      20.0000000000
6866 2      20.9815386856      19.0000000000
6867 2      18.3797600991      17.0000000000
6868 2      14.0147630462      14.0000000000
6869 2      14.6307794261      18.0000000000
6870 2      21.5240820047      21.0000000000
6871 2      15.6471980533      17.0000000000
6872 2      20.0424339391      18.0000000000
6873 2      15.4100177564      19.0000000000
6874 2      16.4783141322      19.0000000000
6875 2      17.1372054622      17.0000000000
6876 2      14.7771957335      14.0000000000
6877 2      14.6579322869      15.0000000000
6878 2      14.4280366591      17.0000000000
6879 2      14.6157529242      15.0000000000
6880 2      17.5164681621      12.0000000000
6881 2      14.2473666684      14.0000000000
6882 2      14.8090458967      15.0000000000
6883 2      14.3504572572      19.0000000000
6884 2      14.5801324950      19.0000000000
6885 2      18.2850689261      18.0000000000
6886 2      15.3724689183      15.0000000000
6887 2      15.1026016401      17.0000000000
6888 2      14.5216600473      17.0000000000
6889 2      17.2766720743      21.0000000000
6890 2      14.9440247215      17.0000000000
6891 2      14.9095644020      17.0000000000
6892 2      17.5372606087      18.0000000000
6893 2      15.9624638562      18.0000000000
6894 2      15.1343796295      16.0000000000
6895 2      18.3906888870      17.0000000000
6896 2      15.7960090287      14.0000000000
6897 2      17.9757369360      17.0000000000
6898 2      15.4197877898      18.0000000000
6899 2      15.1980482077      19.0000000000
6900 2      20.0794035990      16.0000000000
6901 2      14.9625761147      20.0000000000
6902 2      17.1474400815      13.0000000000
6903 2      16.4537864897      18.0000000000
6904 2      21.3681192643      18.0000000000
6905 2      16.2400416927      18.0000000000
6906 2      17.1026221477      20.0000000000
6907 2      15.6837376641      17.0000000000
6908 2      16.8579682998      18.0000000000
6909 2      15.6151921127      20.0000000000
6910 2      17.0505969822      18.0000000000
6911 2      14.4624725785      19.0000000000
6912 2      14.8898971773      14.0000000000
6913 2      15.8490679411      13.0000000000
6914 2      19.1486280319      16.0000000000
6915 2      14.5899836924      17.0000000000
6916 2      15.2568034565      18.0000000000
6917 2      14.5703468219      19.0000000000
6918 2      12.7848556023      17.0000000000
6919 2      15.7690013191      19.0000000000
6920 2      16.2260596686      17.0000000000
6921 2      18.0957615950      22.0000000000
6922 2      13.8545016562      14.0000000000
6923 2      17.3789762433      16.0000000000
6924 2      19.3682320746      22.0000000000
6925 2      18.4162831775      17.0000000000
6926 2      15.2596358946      15.0000000000
6927 2      14.3702187014      16.0000000000
6928 2      16.0962190936      20.0000000000
6929 2      13.8175322714      16.0000000000
6930 2      17.0584595209      22.0000000000
6931 2      12.8753557011      15.0000000000
6932 2      12.5120851416      16.0000000000
6933 2      17.9231193361      21.0000000000
6934 2      12.9878582542      16.0000000000
6935 2      16.9581869069      14.0000000000
6936 2      13.8614179763      18.0000000000
6937 2      21.6110941565      23.0000000000
6938 2      15.4983855640      12.0000000000
6939 2      16.2813469872      20.0000000000
6940 2      14.8226317904      17.0000000000
6941 2      15.3524936571      17.0000000000
6942 2      15.1621187552      15.0000000000
6943 2      14.8967978848      19.0000000000
6944 2      15.8067343611      20.0000000000
6945 2      13.4447972028      14.0000000000
6946 2      16.2136053444      15.0000000000
6947 2      17.1745996533      21.0000000000
6948 2      14.5102818310      17.0000000000
6949 2      12.9075363838      14.0000000000
6950 2      15.4541449553      17.0000000000
6951 2      14.3588242320      14.0000000000
6952 2      18.9422845308      17.0000000000
6953 2      14.4227923321      17.0000000000
6954 2      16.5003976646      17.0000000000
6955 2      17.1644703558      18.0000000000
6956 2      17.2936266771      20.0000000000
6957 2      16.0754269193      20.0000000000
6958 2      15.2342361526      17.0000000000
6959 2      14.0802672873      20.0000000000
6960 2      15.5458422543      15.0000000000
6961 2      16.1530543455      18.0000000000
6962 2      12.6194567667      17.0000000000
6963 2      13.2638771733      14.0000000000
6964 2      14.7660260336      20.0000000000
6965 2      15.7368437447      18.0000000000
6966 2      13.3678206343      20.0000000000
6967 2      19.7021715559      17.0000000000
6968 2      17.1981909779      20.0000000000
6969 2      13.2107832158      17.0000000000
6970 2      16.9791385399      16.0000000000
6971 2      13.6273459669      13.0000000000
6972 2      17.9793299277      17.0000000000
6973 2      19.2258219223      21.0000000000
6974 2      16.0100170182      19.0000000000
6975 2      17.4241184318      18.0000000000
6976 2      16.4027173438      20.0000000000
6977 2      14.1994308519      19.0000000000
6978 2      15.4829022292      15.0000000000
6979 2      14.4257968127      19.0000000000
6980 2      15.3683805868      21.0000000000
6981 2      15.5042841630      16.0000000000
6982 2      15.9880253215      20.0000000000
6983 2      15.2038144393      17.0000000000
6984 2      17.0437967013      15.0000000000
6985 2      19.5113417048      21.0000000000
6986 2      17.4203893848      16.0000000000
6987 2      16.1079310977      22.0000000000
6988 2      17.4167917364      19.0000000000
6989 2      13.5362419652      16.0000000000
6990 2      16.7087659514      16.0000000000
6991 2      16.8770830989      18.0000000000
6992 2      16.3245739603      18.0000000000
6993 2      16.1230553833      20.0000000000
6994 2      14.1635255561      18.0000000000
6995 2      13.5658037379      15.0000000000
6996 2      17.4886484619      18.0000000000
6997 2      13.8083619801      16.0000000000
6998 2      19.5425097942      23.0000000000
6999 2      14.8089865290      14.0000000000
7000 2      15.6419566374      17.0000000000
7001 2      14.9493864798      17.0000000000
7002 2      14.3342565095      18.0000000000
7003 2      16.9243833548      16.0000000000
7004 2      15.0453014947      16.0000000000
7005 2      15.3527361573      19.0000000000
7006 2      16.7034860398      18.0000000000
7007 2      18.2875970486      15.0000000000
7008 2      13.3435614167      13.0000000000
7009 2      16.1146997373      14.0000000000
7010 2      19.3574219502      21.0000000000
7011 2      14.5276452309      16.0000000000
7012 2      15.2051171663      12.0000000000
7013 2      15.6610209264      16.0000000000
7014 2      14.3240119656      15.0000000000
7015 2      15.6498124975      15.0000000000
7016 2      15.4878775135      17.0000000000
7017 2      16.8165694275      21.0000000000
7018 2      17.1980178907      16.0000000000
7019 2      17.3076772406      25.0000000000
7020 2      16.4775240182      18.0000000000
7021 2      16.5853278843      21.0000000000
7022 2      19.1051458701      20.0000000000
7023 2      16.2987077187      19.0000000000
7024 2      15.7078224958      12.0000000000
7025 2      15.0770362387      15.0000000000
7026 2      15.6338853844      20.0000000000
7027 2      17.0410739107      16.0000000000
7028 2      15.6504924274      17.0000000000
7029 2      14.9208309512      15.0000000000
7030 2      15.9192493946      19.0000000000
7031 2      15.3806094741      17.0000000000
7032 2      17.0918989013      18.0000000000
7033 2      14.6343130915      17.0000000000
7034 2      15.4392777944      16.0000000000
7035 2      15.7661686960      18.0000000000
7036 2      15.5818903474      20.0000000000
7037 2      17.4520252121      17.0000000000
7038 2      14.4730299775      17.0000000000
7039 2      14.1764493103      18.0000000000
7040 2      16.2106128627      19.0000000000
7041 2      17.1354926824      20.0000000000
7042 2      12.8573213853      17.0000000000
7043 2      20.2429967771      18.0000000000
7044 2      19.3795575284      18.0000000000
7045 2      19.6357278931      20.0000000000
7046 2      20.4971031046      18.0000000000
7047 2      21.4905458598      17.0000000000
7048 2      14.4080525853      20.0000000000
7049 2      14.6114293893      16.0000000000
7050 2      16.5722256783      17.0000000000
7051 2      13.6620706482      14.0000000000
7052 2      14.2961442075      16.0000000000
7053 2      15.9033191004      19.0000000000
7054 2      16.2133817706      16.0000000000
7055 2      16.3219364423      13.0000000000
7056 2      16.5953855476      16.0000000000
7057 2      14.6208863062      17.0000000000
7058 2      16.5734863481      19.0000000000
7059 2      15.1798344433      17.0000000000
7060 2      15.8289284204      19.0000000000
7061 2      13.5209059068      15.0000000000
7062 2      15.4221574162      19.0000000000
7063 2      14.4568545843      15.0000000000
7064 2      17.7407157674      21.0000000000
7065 2      15.9942821104      15.0000000000
7066 2      15.8560069362      15.0000000000
7067 2      15.0355567069      16.0000000000
7068 2      16.1050453928      16.0000000000
7069 2      15.9504512695      22.0000000000
7070 2      14.9581370180      17.0000000000
7071 2      15.3319335175      18.0000000000
7072 2      14.8281013352      20.0000000000
7073 2      18.0154782769      17.0000000000
7074 2      15.6047965170      15.0000000000
7075 2      15.3072698881      19.0000000000
7076 2      11.5193862093      14.0000000000
7077 2      19.5614128611      20.0000000000
7078 2      16.0943209238      19.0000000000
7079 2      18.2739975216      17.0000000000
7080 2      13.3325297115      16.0000000000
7081 2      15.7972697782      17.0000000000
7082 2      17.0627065444      17.0000000000
7083 2      17.2876865081      23.0000000000
7084 2      15.6620668836      19.0000000000
7085 2      15.5108631486      18.0000000000
7086 2      14.6869549146      16.0000000000
7087 2      13.7159002762      15.0000000000
7088 2      13.7723913657      17.0000000000
7089 2      19.4288338430      17.0000000000
7090 2      14.9569376115      17.0000000000
7091 2      13.7134949291      16.0000000000
7092 2      15.9583210997      16.0000000000
7093 2      16.2983278888      15.0000000000
7094 2      14.6975365424      18.0000000000
7095 2      16.5714212026      18.0000000000
7096 2      13.5193354878      18.0000000000
7097 2      15.5925967467      17.0000000000
7098 2      16.0584009835      22.0000000000
7099 2      13.9916466180      16.0000000000
7100 2      13.3816162314      17.0000000000
7101 2      13.3407569938      16.0000000000
7102 2      17.3034335118      19.0000000000
7103 2      16.2085971051      14.0000000000
7104 2      16.2598749594      23.0000000000
7105 2      18.1998978460      15.0000000000
7106 2      15.1339003688      19.0000000000
7107 2      16.2849377264      16.0000000000
7108 2      13.6751795221      17.0000000000
7109 2      16.8641441120      18.0000000000
7110 2      13.9669387600      19.0000000000
7111 2      15.7675892645      18.0000000000
7112 2      16.9347914367      18.0000000000
7113 2      14.4788309513      16.0000000000
7114 2      20.8071058703      23.0000000000
7115 2      18.3918986813      20.0000000000
7116 2      16.4568130999      19.0000000000
7117 2      15.9565690172      21.0000000000
7118 2      18.9139619302      14.0000000000
7119 2      14.3620371135      16.0000000000
7120 2      14.3830440689      17.0000000000
7121 2      17.5388753723      17.0000000000
7122 2      16.6417236059      20.0000000000
7123 2      16.7630052782      15.0000000000
7124 2      14.1105469593      18.0000000000
7125 2      14.9082779810      18.0000000000
7126 2      15.7615507779      19.0000000000
7127 2      15.6344968408      18.0000000000
7128 2      18.7197812911      17.0000000000
7129 2      13.5540886406      16.0000000000
7130 2      13.6204685322      17.0000000000
7131 2      15.5930527509      16.0000000000
7132 2      15.6932221356      18.0000000000
7133 2      16.8219236071      18.0000000000
7134 2      12.5539829350      13.0000000000
7135 2      16.4956946907      16.0000000000
7136 2      14.3337184257      17.0000000000
7137 2      13.6975261243      16.0000000000
7138 2      15.3249426296      17.0000000000
7139 2      13.0994480185      16.0000000000
7140 2      15.0577704374      15.0000000000
7141 2      14.9432057356      14.0000000000
7142 2      13.8735866976      17.0000000000
7143 2      18.1606487195      23.0000000000
7144 2      14.5156501981      18.0000000000
7145 2      18.1131949534      22.0000000000
7146 2      15.7227646915      17.0000000000
7147 2      16.1907352053      18.0000000000
7148 2      14.0568961475      19.0000000000
7149 2      20.0967374648      22.0000000000
7150 2      13.7205819555      15.0000000000
7151 2      15.2620995109      17.0000000000
7152 2      14.1407756436      21.0000000000
7153 2      17.1285257749      16.0000000000
7154 2      14.3693682607      17.0000000000
7155 2      15.0656072192      18.0000000000
7156 2      15.4643186113      16.0000000000
7157 2      17.4639913940      19.0000000000
7158 2      18.5984473953      18.0000000000
7159 2      17.6835295638      23.0000000000
7160 2      14.7116561973      16.0000000000
7161 2      15.1299152071      18.0000000000
7162 2      14.7045721282      15.0000000000
7163 2      14.0275714348      18.0000000000
7164 2      16.7040138779      15.0000000000
7165 2      15.6236259775      17.0000000000
7166 2      16.5766719282      19.0000000000
7167 2      14.5014870769      16.0000000000
7168 2      15.1942666234      16.0000000000
7169 2      14.8494598038      18.0000000000
7170 2      17.2494226583      17.0000000000
7171 2      16.4318748502      18.0000000000
7172 2      15.4080927864      20.0000000000
7173 2      15.0645232938      16.0000000000
7174 2      16.0355195692      17.0000000000
7175 2      18.1829800575      16.0000000000
7176 2      15.0114850328      13.0000000000
7177 2      14.3529763371      18.0000000000
7178 2      15.4572594576      15.0000000000
7179 2      17.3262586037      18.0000000000
7180 2      15.4625597984      21.0000000000
7181 2      15.9535614792      17.0000000000
7182 2      18.8213256882      20.0000000000
7183 2      18.0635483352      18.0000000000
7184 2      13.5317967908      15.0000000000
7185 2      13.6900089047      17.0000000000
7186 2      15.3860144503      13.0000000000
7187 2      15.2129277994      16.0000000000
7188 2      15.7973031976      20.0000000000
7189 2      15.4824555464      18.0000000000
7190 2      14.0776332578      17.0000000000
7191 2      17.6866098381      18.0000000000
7192 2      14.2899224005      18.0000000000
7193 2      20.7345910948      20.0000000000
7194 2      18.4387912940      12.0000000000
7195 2      16.2740976003      17.0000000000
7196 2      16.3108515321      16.0000000000
7197 2      17.4161364188      19.0000000000
7198 2      13.1806219444      14.0000000000
7199 2      15.1065242077      17.0000000000
7200 2      13.7567924095      17.0000000000
7201 2      17.3091992492      18.0000000000
7202 2      19.2990706827      17.0000000000
7203 2      15.4411313108      17.0000000000
7204 2      15.5471907874      19.0000000000
7205 2      19.6383929605      21.0000000000
7206 2      17.0295211381      15.0000000000
7207 2      16.3564886856      17.0000000000
7208 2      15.3660009645      17.0000000000
7209 2      12.9960322366      18.0000000000
7210 2      16.1741980669      21.0000000000
7211 2      15.2847365585      20.0000000000
7212 2      15.8769470547      22.0000000000
7213 2      18.0111051812      18.0000000000
7214 2      19.0454626542      17.0000000000
7215 2      15.8666398968      15.0000000000
7216 2      15.9588646945      16.0000000000
7217 2      12.4828736363      15.0000000000
7218 2      14.9628497497      17.0000000000
7219 2      17.4043631477      19.0000000000
7220 2      13.5080793727      18.0000000000
7221 2      13.0273881462      15.0000000000
7222 2      15.3718148454      18.0000000000
7223 2      15.9383191417      14.0000000000
7224 2      17.0694908967      16.0000000000
7225 2      16.2218650070      17.0000000000
7226 2      15.8391031160      17.0000000000
7227 2      15.5958428020      18.0000000000
7228 2      17.6380883957      17.0000000000
7229 2      15.7961523561      17.0000000000
7230 2      14.3445931780      16.0000000000
7231 2      16.3142582645      14.0000000000
7232 2      14.9927625072      16.0000000000
7233 2      14.6167993326      19.0000000000
7234 2      18.0664377490      20.0000000000
7235 2      17.4619731879      17.0000000000
7236 2      15.4744896411      17.0000000000
7237 2      14.6793351441      20.0000000000
7238 2      14.4962124618      21.0000000000
7239 2      13.3517975428      17.0000000000
7240 2      14.5595283489      17.0000000000
7241 2      14.6430825702      15.0000000000
7242 2      13.3604422511      16.0000000000
7243 2      15.7173998221      14.0000000000
7244 2      17.0623648128      16.0000000000
7245 2      18.5367067814      19.0000000000
7246 2      17.0317911595      15.0000000000
7247 2      16.2791343826      20.0000000000
7248 2      15.4351079615      18.0000000000
7249 2      14.8118824981      15.0000000000
7250 2      15.2658655497      20.0000000000
7251 2      13.7077719182      13.0000000000
7252 2      18.4594186215      20.0000000000
7253 2      16.9219616141      22.0000000000
7254 2      16.7552380551      19.0000000000
7255 2      21.1315814826      22.0000000000
7256 2      15.7298769459      16.0000000000
7257 2      16.2880115090      18.0000000000
7258 2      12.0614770921      14.0000000000
7259 2      16.0579639106      19.0000000000
7260 2      18.1904221099      19.0000000000
7261 2      17.3451610873      19.0000000000
7262 2      13.6093205067      17.0000000000
7263 2      14.7869833524      17.0000000000
7264 2      14.9953730384      17.0000000000
7265 2      15.0971841875      19.0000000000
7266 2      17.7032687296      19.0000000000
7267 2      15.1610301331      16.0000000000
7268 2      15.4609156745      16.0000000000
7269 2      13.4482379666      17.0000000000
7270 2      15.3186615964      18.0000000000
7271 2      17.0471684625      19.0000000000
7272 2      13.9907224000      14.0000000000
7273 2      14.1861786277      16.0000000000
7274 2      13.1332186030      21.0000000000
7275 2      17.2402939409      17.0000000000
7276 2      16.2704092240      17.0000000000
7277 2      15.4146363298      18.0000000000
7278 2      13.3483857594      17.0000000000
7279 2      14.2187346195      17.0000000000
7280 2      14.8009221894      16.0000000000
7281 2      16.1858757070      19.0000000000
7282 2      14.8501375201      21.0000000000
7283 2      18.7906067824      20.0000000000
7284 2      17.4721215299      16.0000000000
7285 2      14.9000803706      19.0000000000
7286 2      15.9922858531      19.0000000000
7287 2      15.2902390210      17.0000000000
7288 2      17.5621736824      23.0000000000
7289 2      15.5729208842      17.0000000000
7290 2      13.9152164766      20.0000000000
7291 2      17.4544880835      18.0000000000
7292 2      13.7609876918      18.0000000000
7293 2      15.1866538255      18.0000000000
7294 2      15.9364394706      17.0000000000
7295 2      14.1257032332      17.0000000000
7296 2      14.3741242558      19.0000000000
7297 2      14.1606697686      18.0000000000
7298 2      13.7398540114      17.0000000000
7299 2      12.7323906064      17.0000000000
7300 2      16.5964468156      17.0000000000
7301 2      14.4866683556      14.0000000000
7302 2      15.6438670883      19.0000000000
7303 2      15.5441193540      16.0000000000
7304 2      17.7034343694      16.0000000000
7305 2      14.8114414743      23.0000000000
7306 2      18.0554380375      16.0000000000
7307 2      16.9062181454      19.0000000000
7308 2      16.6117405126      20.0000000000
7309 2      14.8979275898      16.0000000000
7310 2      13.0318440041      15.0000000000
7311 2      18.0420284699      22.0000000000
7312 2      19.9497856840      24.0000000000
7313 2      14.0034363629      14.0000000000
7314 2      18.8110199416      15.0000000000
7315 2      17.9959921571      17.0000000000
7316 2      17.3084869440      15.0000000000
7317 2      16.3934160523      17.0000000000
7318 2      15.3630694765      19.0000000000
7319 2      16.0075471157      18.0000000000
7320 2      15.2508844630      16.0000000000
7321 2      13.9087565917      21.0000000000
7322 2      18.2488297154      19.0000000000
7323 2      16.3680573779      17.0000000000
7324 2      14.4608330206      15.0000000000
7325 2      17.5105630688      21.0000000000
7326 2      15.2036553882      20.0000000000
7327 2      16.7099277690      18.0000000000
7328 2      14.1815390306      16.0000000000
7329 2      17.3932905912      15.0000000000
7330 2      15.8666862061      17.0000000000
7331 2      16.3505821179      19.0000000000
7332 2      16.6215427665      18.0000000000
7333 2      14.2702243608      13.0000000000
7334 2      14.4201091995      21.0000000000
7335 2      15.0490085752      19.0000000000
7336 2      20.0311074458      20.0000000000
7337 2      15.0557966345      18.0000000000
7338 2      18.9188797744      20.0000000000
7339 2      14.3517766817      14.0000000000
7340 2      18.7249585108      18.0000000000
7341 2      14.1566802419      15.0000000000
7342 2      17.5299232466      24.0000000000
7343 2      17.9845678298      16.0000000000
7344 2      19.5639537482      18.0000000000
7345 2      13.4857889608      15.0000000000
7346 2      14.6894723907      16.0000000000
7347 2      16.7273107634      18.0000000000
7348 2      15.2909463888      19.0000000000
7349 2      15.3008721993      19.0000000000
7350 2      14.8575273299      15.0000000000
7351 2      14.5218998801      18.0000000000
7352 2      14.1287841404      15.0000000000
7353 2      15.0119455280      19.0000000000
7354 2      13.2169374854      17.0000000000
7355 2      17.7535215188      19.0000000000
7356 2      21.0047501698      16.0000000000
7357 2      17.1108207722      16.0000000000
7358 2      18.2294854731      18.0000000000
7359 2      17.4518127997      19.0000000000
7360 2      15.9232766269      18.0000000000
7361 2      15.5825470551      14.0000000000
7362 2      15.6792252030      20.0000000000
7363 2      15.4863000685      17.0000000000
7364 2      17.0178457472      15.0000000000
7365 2      16.9193765701      21.0000000000
7366 2      14.7136206534      19.0000000000
7367 2      16.1583718557      16.0000000000
7368 2      14.1570404000      19.0000000000
7369 2      15.5972347256      19.0000000000
7370 2      15.6977862835      17.0000000000
7371 2      15.4206471551      20.0000000000
7372 2      15.3905584315      19.0000000000
7373 2      14.5421334682      18.0000000000
7374 2      18.0888251362      15.0000000000
7375 2      14.9779089954      17.0000000000
7376 2      13.5591883972      17.0000000000
7377 2      14.6593751168      21.0000000000
7378 2      15.5058767697      15.0000000000
7379 2      18.1881837063      21.0000000000
7380 2      17.8655727884      14.0000000000
7381 2      16.9277743497      21.0000000000
7382 2      15.3131785817      17.0000000000
7383 2      13.9767878530      16.0000000000
7384 2      13.6217211321      16.0000000000
7385 2      12.7767741201      14.0000000000
7386 2      15.4185117093      18.0000000000
7387 2      19.8382433898      17.0000000000
7388 2      13.8534132035      18.0000000000
7389 2      12.9437248983      15.0000000000
7390 2      17.3716213870      18.0000000000
7391 2      14.8104414147      20.0000000000
7392 2      15.3254111160      22.0000000000
7393 2      16.8155574852      14.0000000000
7394 2      15.2950552250      20.0000000000
7395 2      14.8439002274      15.0000000000
7396 2      16.1770537768      19.0000000000
7397 2      13.7305012662      16.0000000000
7398 2      16.1830989830      15.0000000000
7399 2      17.3221408586      18.0000000000
7400 2      15.2107349010      18.0000000000
7401 2      18.8802742573      18.0000000000
7402 2      14.7073934487      19.0000000000
7403 2      13.9234465493      16.0000000000
7404 2      15.4384089648      20.0000000000
7405 2      14.6185907616      16.0000000000
7406 2      19.4035911285      21.0000000000
7407 2      22.1082584280      25.0000000000
7408 2      16.9964828060      16.0000000000
7409 2      16.4922699789      16.0000000000
7410 2      12.1780484575      15.0000000000
7411 2      15.4778335697      17.0000000000
7412 2      14.5725757347      18.0000000000
7413 2      14.9799131919      14.0000000000
7414 2      17.6476388452      18.0000000000
7415 2      16.0661171107      20.0000000000
7416 2      17.0516063988      16.0000000000
7417 2      16.6293348507      15.0000000000
7418 2      17.9755462237      19.0000000000
7419 2      15.9471538535      23.0000000000
7420 2      20.4766420076      19.0000000000
7421 2      13.5250464948      19.0000000000
7422 2      14.5538543481      15.0000000000
7423 2      18.6933301165      20.0000000000
7424 2      17.9987926937      17.0000000000
7425 2      14.1662777394      18.0000000000
7426 2      16.4156499997      17.0000000000
7427 2      15.5680900641      17.0000000000
7428 2      20.4900820773      15.0000000000
7429 2      17.7533141631      16.0000000000
7430 2      14.2933773619      15.0000000000
7431 2      15.5176271967      14.0000000000
7432 2      17.0681997943      15.0000000000
7433 2      16.3801834597      16.0000000000
7434 2      17.6140306537      16.0000000000
7435 2      13.5514496393      16.0000000000
7436 2      17.3267320576      15.0000000000
7437 2      16.0606369443      18.0000000000
7438 2      16.7585841901      18.0000000000
7439 2      14.8905961002      17.0000000000
7440 2      18.8943334271      18.0000000000
7441 2      12.5282951797      16.0000000000
7442 2      16.9421718275      19.0000000000
7443 2      19.3618915158      18.0000000000
7444 2      13.5823261792      18.0000000000
7445 2      15.3818750008      16.0000000000
7446 2      17.2808573445      14.0000000000
7447 2      17.8094331752      20.0000000000
7448 2      13.6770279597      14.0000000000
7449 2      17.1597758677      18.0000000000
7450 2      17.1239635390      16.0000000000
7451 2      13.8295538067      15.0000000000
7452 2      13.8144080823      17.0000000000
7453 2      17.1265526648      21.0000000000
7454 2      20.0457868827      19.0000000000
7455 2      15.5258912583      18.0000000000
7456 2      16.4953271893      17.0000000000
7457 2      13.7630577695      14.0000000000
7458 2      16.9571472840      19.0000000000
7459 2      14.3141020916      15.0000000000
7460 2      19.7041305287      17.0000000000
7461 2      16.9475094342      17.0000000000
7462 2      17.6843193180      17.0000000000
7463 2      13.0546241477      16.0000000000
7464 2      17.2533136015      17.0000000000
7465 2      14.3007175153      18.0000000000
7466 2      14.0462869207      16.0000000000
7467 2      13.0876159389      15.0000000000
7468 2      16.0735426630      21.0000000000
7469 2      15.5976449661      15.0000000000
7470 2      16.0767162432      17.0000000000
7471 2      16.8803794677      17.0000000000
7472 2      14.3601122596      19.0000000000
7473 2      14.5834617023      15.0000000000
7474 2      15.3479587869      16.0000000000
7475 2      17.9089583625      16.0000000000
7476 2      14.2800289202      18.0000000000
7477 2      17.6443936497      22.0000000000
7478 2      16.5815455107      22.0000000000
7479 2      14.3806762147      18.0000000000
7480 2      17.5591553653      21.0000000000
7481 2      12.9175198228      14.0000000000
7482 2      14.6719149847      15.0000000000
7483 2      15.9542562904      20.0000000000
7484 2      16.3884303889      20.0000000000
7485 2      15.6883312973      16.0000000000
7486 2      16.7862698779      15.0000000000
7487 2      14.5183809976      16.0000000000
7488 2      15.9623907146      17.0000000000
7489 2      16.0282801975      17.0000000000
7490 2      13.2472213468      15.0000000000
7491 2      17.9243842376      15.0000000000
7492 2      15.4060501297      19.0000000000
7493 2      13.3763521742      15.0000000000
7494 2      14.2112888902      17.0000000000
7495 2      16.2004518397      14.0000000000
7496 2      17.8369923701      21.0000000000
7497 2      12.5959855133      14.0000000000
7498 2      16.6113430923      17.0000000000
7499 2      14.2613549344      16.0000000000
7500 2      13.8021859996      15.0000000000
7501 2      15.3993358591      18.0000000000
7502 2      18.6337662212      15.0000000000
7503 2      15.5940320180      18.0000000000
7504 2      16.4485588718      19.0000000000
7505 2      17.5707095292      18.0000000000
7506 2      13.1114302826      14.0000000000
7507 2      18.8488609076      25.0000000000
7508 2      13.2496074001      19.0000000000
7509 2      15.4273422178      19.0000000000
7510 2      14.2026092038      17.0000000000
7511 2      13.5048211532      17.0000000000
7512 2      16.7881857705      17.0000000000
7513 2      13.9251536995      16.0000000000
7514 2      17.9655608249      19.0000000000
7515 2      13.7925206394      17.0000000000
7516 2      14.2756690147      18.0000000000
7517 2      17.3435924100      15.0000000000
7518 2      14.2371144024      19.0000000000
7519 2      15.4168277698      16.0000000000
7520 2      18.1181273987      15.0000000000
7521 2      13.3266064374      14.0000000000
7522 2      15.4645108851      19.0000000000
7523 2      14.6379544836      18.0000000000
7524 2      14.5752079991      16.0000000000
7525 2      14.7773664107      18.0000000000
7526 2      16.0773637216      16.0000000000
7527 2      12.9293641769      16.0000000000
7528 2      15.8881710838      20.0000000000
7529 2      18.9425370989      23.0000000000
7530 2      15.0676530971      17.0000000000
7531 2      16.3661189482      14.0000000000
7532 2      19.6255376772      21.0000000000
7533 2      14.2389764284      19.0000000000
7534 2      17.1962645279      19.0000000000
7535 2      14.5744273122      16.0000000000
7536 2      17.5724774116      14.0000000000
7537 2      15.9356359414      17.0000000000
7538 2      14.2863716272      16.0000000000
7539 2      15.7017308297      16.0000000000
7540 2      14.8090889314      15.0000000000
7541 2      17.5085579529      18.0000000000
7542 2      16.4892154551      19.0000000000
7543 2      18.9500569992      17.0000000000
7544 2      14.3405572915      18.0000000000
7545 2      16.3137506935      17.0000000000
7546 2      13.8841494941      19.0000000000
7547 2      13.9473168937      17.0000000000
7548 2      16.5500957928      17.0000000000
7549 2      16.1276715146      14.0000000000
7550 2      14.7178751998      20.0000000000
7551 2      15.9639649766      21.0000000000
7552 2      21.4392268948      19.0000000000
7553 2      13.7015317090      14.0000000000
7554 2      17.0369207707      18.0000000000
7555 2      14.4442645629      18.0000000000
7556 2      15.4545777043      16.0000000000
7557 2      18.9019353265      19.0000000000
7558 2      16.4562831332      18.0000000000
7559 2      14.0566706748      19.0000000000
7560 2      18.1798146325      13.0000000000
7561 2      17.7962569352      17.0000000000
7562 2      17.2847762569      22.0000000000
7563 2      15.4582685537      15.0000000000
7564 2      12.3223132554      13.0000000000
7565 2      19.0904651913      19.0000000000
7566 2      15.2876333277      17.0000000000
7567 2      18.4261230874      18.0000000000
7568 2      18.2444813584      19.0000000000
7569 2      16.0490844849      16.0000000000
7570 2      18.7949119375      22.0000000000
7571 2      14.0339827449      12.0000000000
7572 2      15.9291095787      19.0000000000
7573 2      14.6027976214      17.0000000000
7574 2      15.5775433082      15.0000000000
7575 2      14.5914205972      18.0000000000
7576 2      17.2341927549      16.0000000000
7577 2      13.8906182945      13.0000000000
7578 2      13.0733658256      16.0000000000
7579 2      16.9952603086      16.0000000000
7580 2      17.8508659371      17.0000000000
7581 2      14.2836424229      20.0000000000
7582 2      19.5897238621      18.0000000000
7583 2      15.6465097951      13.0000000000
7584 2      14.9660127920      19.0000000000
7585 2      19.4620114936      18.0000000000
7586 2      15.9999997748      20.0000000000
7587 2      15.6782013117      19.0000000000
7588 2      14.3287045393      16.0000000000
7589 2      19.8458778384      20.0000000000
7590 2      16.4769770355      18.0000000000
7591 2      15.5797556003      16.0000000000
7592 2      16.5952246176      19.0000000000
7593 2      17.9444552328      18.0000000000
7594 2      13.5269162363      16.0000000000
7595 2      13.5272993323      15.0000000000
7596 2      13.6527295920      16.0000000000
7597 2      19.1999340059      21.0000000000
7598 2      15.2160248007      18.0000000000
7599 2      16.2214987378      18.0000000000
7600 2      18.3458662750      20.0000000000
7601 2      16.2708370880      18.0000000000
7602 2      12.6125185574      15.0000000000
7603 2      15.4738104661      21.0000000000
7604 2      17.0422514401      17.0000000000
7605 2      16.1443758138      19.0000000000
7606 2      16.3966917908      17.0000000000
7607 2      16.9645276829      19.0000000000
7608 2      18.2028858694      15.0000000000
7609 2      15.5033990965      16.0000000000
7610 2      14.3585873109      18.0000000000
7611 2      15.4025938300      22.0000000000
7612 2      13.4754175480      16.0000000000
7613 2      15.6321681560      17.0000000000
7614 2      14.3276979043      18.0000000000
7615 2      16.0603141496      16.0000000000
7616 2      14.4289499489      21.0000000000
7617 2      14.6700699534      18.0000000000
7618 2      19.2366273574      19.0000000000
7619 2      14.2025461528      15.0000000000
7620 2      16.4909561028      21.0000000000
7621 2      16.9409258386      21.0000000000
7622 2      15.3805471911      15.0000000000
7623 2      14.1475665272      16.0000000000
7624 2      15.2065426989      14.0000000000
7625 2      17.6585295869      15.0000000000
7626 2      17.0692645617      16.0000000000
7627 2      14.7404839963      16.0000000000
7628 2      15.8830132025      18.0000000000
7629 2      14.9164064278      16.0000000000
7630 2      14.0204381445      18.0000000000
7631 2      14.4832650333      19.0000000000
7632 2      14.7999679249      18.0000000000
7633 2      16.2169404934      17.0000000000
7634 2      14.6753766445      13.0000000000
7635 2      15.8086998841      15.0000000000
7636 2      13.8707547263      17.0000000000
7637 2      15.7074647542      16.0000000000
7638 2      14.6369608022      17.0000000000
7639 2      16.6082950077      16.0000000000
7640 2      16.6900864914      18.0000000000
7641 2      16.4796248414      17.0000000000
7642 2      16.3569946993      17.0000000000
7643 2      17.6378582967      17.0000000000
7644 2      13.6246534378      18.0000000000
7645 2      13.7837418075      12.0000000000
7646 2      16.7882186236      17.0000000000
7647 2      12.9739489363      13.0000000000
7648 2      16.1699058787      19.0000000000
7649 2      15.6370644371      16.0000000000
7650 2      18.0568057331      18.0000000000
7651 2      12.9861516381      15.0000000000
7652 2      16.4375892641      18.0000000000
7653 2      15.6096863151      16.0000000000
7654 2      16.8617049693      15.0000000000
7655 2      17.0800830889      18.0000000000
7656 2      14.7369291220      19.0000000000
7657 2      14.2078865085      20.0000000000
7658 2      16.3749113135      20.0000000000
7659 2      15.5388334669      15.0000000000
7660 2      17.1958798143      18.0000000000
7661 2      17.7637372997      13.0000000000
7662 2      20.4130700458      21.0000000000
7663 2      16.5838642791      16.0000000000
7664 2      16.7280874795      20.0000000000
7665 2      16.9162952745      15.0000000000
7666 2      15.7428958975      14.0000000000
7667 2      15.5969141750      19.0000000000
7668 2      16.1253044201      21.0000000000
7669 2      16.1860686164      19.0000000000
7670 2      14.8783011159      15.0000000000
7671 2      13.6942998325      17.0000000000
7672 2      16.8976240127      15.0000000000
7673 2      13.3365056000      14.0000000000
7674 2      16.1009423151      19.0000000000
7675 2      17.5898551302      19.0000000000
7676 2      14.1905550104      15.0000000000
7677 2      15.3315915688      12.0000000000
7678 2      15.6424789474      19.0000000000
7679 2      14.1226872840      17.0000000000
7680 2      15.7013738368      20.0000000000
7681 2      14.3111337023      15.0000000000
7682 2      16.2643263156      18.0000000000
7683 2      14.4167628250      16.0000000000
7684 2      13.6660599447      18.0000000000
7685 2      14.2294861684      17.0000000000
7686 2      14.1818738109      18.0000000000
7687 2      16.0262416243      17.0000000000
7688 2      15.6943013762      18.0000000000
7689 2      14.5676486351      14.0000000000
7690 2      15.9370711225      16.0000000000
7691 2      16.7275260900      16.0000000000
7692 2      14.1178461314      15.0000000000
7693 2      16.2498384359      15.0000000000
7694 2      15.4941095537      17.0000000000
7695 2      14.7906528916      15.0000000000
7696 2      15.7748830243      18.0000000000
7697 2      15.6578041300      15.0000000000
7698 2      18.3308600276      17.0000000000
7699 2      16.1444547675      17.0000000000
7700 2      15.7692194071      21.0000000000
7701 2      13.6757052646      16.0000000000
7702 2      17.4617530009      21.0000000000
7703 2      18.5691769592      16.0000000000
7704 2      20.7813763990      23.0000000000
7705 2      20.5202723133      21.0000000000
7706 2      13.6286145153      13.0000000000
7707 2      13.7592152548      16.0000000000
7708 2      14.9627750206      17.0000000000
7709 2      18.2786885267      19.0000000000
7710 2      15.0509240748      16.0000000000
7711 2      14.3581504480      13.0000000000
7712 2      16.3813727206      20.0000000000
7713 2      17.1894920881      17.0000000000
7714 2      18.3032254226      18.0000000000
7715 2      17.5097029470      18.0000000000
7716 2      18.2847499283      16.0000000000
7717 2      16.5294777281      18.0000000000
7718 2      20.2377568120      20.0000000000
7719 2      15.7080233633      21.0000000000
7720 2      15.7801216750      22.0000000000
7721 2      15.5988493026      18.0000000000
7722 2      16.6848268145      15.0000000000
7723 2      15.6694177430      20.0000000000
7724 2      14.9597234450      21.0000000000
7725 2      15.2090759124      14.0000000000
7726 2      16.8335434108      13.0000000000
7727 2      15.9713002192      17.0000000000
7728 2      17.5056816812      16.0000000000
7729 2      13.2641476849      19.0000000000
7730 2      19.5112864472      23.0000000000
7731 2      16.6249178261      17.0000000000
7732 2      12.8900475725      14.0000000000
7733 2      14.1708020820      16.0000000000
7734 2      17.5458833803      16.0000000000
7735 2      19.6899195816      19.0000000000
7736 2      17.8293425750      19.0000000000
7737 2      16.0253552699      21.0000000000
7738 2      15.2782457908      19.0000000000
7739 2      18.0775285714      15.0000000000
7740 2      17.1323286486      19.0000000000
7741 2      16.4185404844      16.0000000000
7742 2      18.6091055202      15.0000000000
7743 2      15.2873694417      20.0000000000
7744 2      17.0355261680      15.0000000000
7745 2      12.6259159006      17.0000000000
7746 2      18.9030656271      22.0000000000
7747 2      14.5250535152      16.0000000000
7748 2      14.2577402505      19.0000000000
7749 2      14.3120831200      17.0000000000
7750 2      15.6721947449      16.0000000000
7751 2      15.5516603313      16.0000000000
7752 2      18.0580135254      23.0000000000
7753 2      18.1428395134      13.0000000000
7754 2      14.9683204998      15.0000000000
7755 2      15.2077651856      18.0000000000
7756 2      13.3582180570      18.0000000000
7757 2      14.7880611883      16.0000000000
7758 2      14.1407961793      18.0000000000
7759 2      19.5837322975      19.0000000000
7760 2      14.3330709034      16.0000000000
7761 2      17.9404805279      15.0000000000
7762 2      16.2465430947      18.0000000000
7763 2      16.7785549728      21.0000000000
7764 2      14.5863601787      21.0000000000
7765 2      14.6066926536      19.0000000000
7766 2      17.3883512184      16.0000000000
7767 2      16.1769399046      16.0000000000
7768 2      14.7581556708      15.0000000000
7769 2      16.4416623731      17.0000000000
7770 2      15.6225430296      20.0000000000
7771 2      14.2554152497      17.0000000000
7772 2      16.4646097264      18.0000000000
7773 2      13.6561481583      17.0000000000
7774 2      15.0373370654      17.0000000000
7775 2      14.1427782024      17.0000000000
7776 2      14.9502628196      15.0000000000
7777 2      20.9493123104      21.0000000000
7778 2      15.2992436317      16.0000000000
7779 2      12.4864350140      16.0000000000
7780 2      16.2799911874      18.0000000000
7781 2      17.5392570712      21.0000000000
7782 2      16.5998788772      21.0000000000
7783 2      15.1276673146      17.0000000000
7784 2      15.6937124403      17.0000000000
7785 2      15.3284328681      15.0000000000
7786 2      14.5751233402      15.0000000000
7787 2      15.7174981929      21.0000000000
7788 2      17.4238530282      16.0000000000
7789 2      16.4053420430      14.0000000000
7790 2      15.7689514472      15.0000000000
7791 2      15.9019384786      17.0000000000
7792 2      13.4328276342      16.0000000000
7793 2      14.5750191345      16.0000000000
7794 2      13.6033720692      13.0000000000
7795 2      17.9623706207      15.0000000000
7796 2      15.7227459219      18.0000000000
7797 2      17.8206027778      15.0000000000
7798 2      17.2817323670      21.0000000000
7799 2      19.3945057777      18.0000000000
7800 2      14.6102751166      22.0000000000
7801 2      17.4762785982      18.0000000000
7802 2      14.5990664987      17.0000000000
7803 2      14.5510303566      16.0000000000
7804 2      14.0764935278      16.0000000000
7805 2      15.9235437661      15.0000000000
7806 2      13.3647553413      15.0000000000
7807 2      14.5575131392      18.0000000000
7808 2      20.3453298667      22.0000000000
7809 2      16.1410389111      15.0000000000
7810 2      16.2692099559      20.0000000000
7811 2      15.7889693828      17.0000000000
7812 2      15.4154457678      19.0000000000
7813 2      13.2929682095      17.0000000000
7814 2      14.8896034625      15.0000000000
7815 2      16.5968167546      19.0000000000
7816 2      15.8600220425      21.0000000000
7817 2      16.8438165708      18.0000000000
7818 2      15.3625887083      18.0000000000
7819 2      18.8700522247      18.0000000000
7820 2      14.7946021142      19.0000000000
7821 2      15.6919443735      14.0000000000
7822 2      15.5131398342      19.0000000000
7823 2      17.9481116105      19.0000000000
7824 2      14.7432750841      14.0000000000
7825 2      15.0685717204      18.0000000000
7826 2      16.7121401076      20.0000000000
7827 2      16.1174397208      18.0000000000
7828 2      16.2808454367      16.0000000000
7829 2      14.1009314416      21.0000000000
7830 2      16.5189540887      17.0000000000
7831 2      18.1462999192      19.0000000000
7832 2      16.3298629177      17.0000000000
7833 2      15.8309284271      13.0000000000
7834 2      14.0285487630      15.0000000000
7835 2      14.9875016125      17.0000000000
7836 2      16.0376847869      15.0000000000
7837 2      15.1996033369      16.0000000000
7838 2      15.8581000188      18.0000000000
7839 2      13.7328296240      16.0000000000
7840 2      13.8450763881      16.0000000000
7841 2      17.0781306358      19.0000000000
7842 2      16.8701220029      19.0000000000
7843 2      19.1695804242      18.0000000000
7844 2      15.2412852678      15.0000000000
7845 2      16.7300985185      14.0000000000
7846 2      14.8502403537      19.0000000000
7847 2      17.0567651285      15.0000000000
7848 2      16.1901422536      22.0000000000
7849 2      13.5891027939      16.0000000000
7850 2      20.1524648198      19.0000000000
7851 2      17.0303134171      19.0000000000
7852 2      14.1635234374      16.0000000000
7853 2      16.8905540306      21.0000000000
7854 2      16.4759850142      19.0000000000
7855 2      13.6636280265      20.0000000000
7856 2      16.0468167983      19.0000000000
7857 2      18.2607539139      19.0000000000
7858 2      16.6319776744      19.0000000000
7859 2      17.6864566282      20.0000000000
7860 2      16.4200835666      21.0000000000
7861 2      17.4882971132      20.0000000000
7862 2      14.7109950681      15.0000000000
7863 2      16.1147925960      17.0000000000
7864 2      19.6507731812      18.0000000000
7865 2      16.6080045435      18.0000000000
7866 2      15.4256415147      20.0000000000
7867 2      13.8177436581      18.0000000000
7868 2      12.9751068527      16.0000000000
7869 2      16.8188924441      20.0000000000
7870 2      16.2260273401      19.0000000000
7871 2      13.2735897464      16.0000000000
7872 2      17.4023316570      17.0000000000
7873 2      14.6461465785      22.0000000000
7874 2      16.4339183168      15.0000000000
7875 2      16.0995596830      18.0000000000
7876 2      15.6060261948      18.0000000000
7877 2      16.7587710986      15.0000000000
7878 2      14.3399959727      16.0000000000
7879 2      15.3585717393      18.0000000000
7880 2      14.8175208853      19.0000000000
7881 2      14.5056021941      19.0000000000
7882 2      15.3590251081      18.0000000000
7883 2      14.0343181709      18.0000000000
7884 2      18.2676792300      21.0000000000
7885 2      18.3380175781      14.0000000000
7886 2      17.7391420486      19.0000000000
7887 2      16.8775518709      16.0000000000
7888 2      15.1969593546      18.0000000000
7889 2      13.4140329626      19.0000000000
7890 2      17.3662431460      23.0000000000
7891 2      13.6384244509      16.0000000000
7892 2      15.7305443893      21.0000000000
7893 2      15.1954223941      16.0000000000
7894 2      15.1421408682      19.0000000000
7895 2      14.9550408142      20.0000000000
7896 2      14.9692505914      17.0000000000
7897 2      14.6906777792      17.0000000000
7898 2      13.8219939965      16.0000000000
7899 2      14.8084814017      15.0000000000
7900 2      15.0643782786      15.0000000000
7901 2      16.2619030410      16.0000000000
7902 2      15.2432107482      17.0000000000
7903 2      15.7942796683      17.0000000000
7904 2      13.7356665648      15.0000000000
7905 2      15.2028339863      17.0000000000
7906 2      15.6310234062      14.0000000000
7907 2      17.2560645402      20.0000000000
7908 2      16.8477739906      18.0000000000
7909 2      16.4624888770      15.0000000000
7910 2      14.7068954537      18.0000000000
7911 2      14.7730736340      19.0000000000
7912 2      15.3997448576      18.0000000000
7913 2      14.9581225577      22.0000000000
7914 2      13.1724277609      13.0000000000
7915 2      15.2844700171      17.0000000000
7916 2      16.0387085760      18.0000000000
7917 2      18.2518457222      19.0000000000
7918 2      17.4861423951      19.0000000000
7919 2      17.9531770861      14.0000000000
7920 2      15.3823845190      17.0000000000
7921 2      15.5422261449      16.0000000000
7922 2      17.2403048266      18.0000000000
7923 2      17.1228220211      20.0000000000
7924 2      15.8479569961      19.0000000000
7925 2      16.0659752743      17.0000000000
7926 2      16.3746013976      18.0000000000
7927 2      19.1006677571      21.0000000000
7928 2      14.1849864858      16.0000000000
7929 2      17.9451692966      16.0000000000
7930 2      14.7671733845      19.0000000000
7931 2      16.2241057686      17.0000000000
7932 2      18.7737595758      16.0000000000
7933 2      13.0457728580      11.0000000000
7934 2      15.3978036673      21.0000000000
7935 2      17.0335388159      18.0000000000
7936 2      13.5333759114      15.0000000000
7937 2      16.4570576286      19.0000000000
7938 2      17.0991381242      19.0000000000
7939 2      16.4713589645      20.0000000000
7940 2      15.4846679919      20.0000000000
7941 2      16.7479910327      14.0000000000
7942 2      17.2049477033      16.0000000000
7943 2      15.6649908020      19.0000000000
7944 2      15.9168127670      18.0000000000
7945 2      12.9945106900      16.0000000000
7946 2      15.7686128181      15.0000000000
7947 2      17.6928190211      17.0000000000
7948 2      15.9037493973      15.0000000000
7949 2      16.1739122053      21.0000000000
7950 2      17.0868519785      16.0000000000
7951 2      13.7618275037      16.0000000000
7952 2      14.6919817455      16.0000000000
7953 2      16.2271773973      16.0000000000
7954 2      18.4592580999      20.0000000000
7955 2      18.4372791684      19.0000000000
7956 2      16.3302485295      23.0000000000
7957 2      14.2908255708      14.0000000000
7958 2      17.4784704979      17.0000000000
7959 2      14.6029802963      12.0000000000
7960 2      13.2437789141      12.0000000000
7961 2      17.7010160490      16.0000000000
7962 2      16.8578107099      17.0000000000
7963 2      15.1693385802      16.0000000000
7964 2      15.7529724998      18.0000000000
7965 2      15.6885465195      20.0000000000
7966 2      15.9428027952      17.0000000000
7967 2      17.1744131064      18.0000000000
7968 2      15.6056506685      19.0000000000
7969 2      15.7537194804      20.0000000000
7970 2      15.8959926890      17.0000000000
7971 2      14.2566501038      16.0000000000
7972 2      14.3986723356      17.0000000000
7973 2      15.4976584017      17.0000000000
7974 2      14.4150747750      18.0000000000
7975 2      18.6313484604      15.0000000000
7976 2      15.1221880270      17.0000000000
7977 2      15.5770615089      17.0000000000
7978 2      16.3078290516      16.0000000000
7979 2      17.3068368888      20.0000000000
7980 2      13.9035481419      15.0000000000
7981 2      14.6637866143      21.0000000000
7982 2      16.9699826294      15.0000000000
7983 2      14.0898863329      17.0000000000
7984 2      15.5079936720      20.0000000000
7985 2      12.8861666682      15.0000000000
7986 2      16.7751685927      16.0000000000
7987 2      20.5592026814      19.0000000000
7988 2      21.6700449043      22.0000000000
7989 2      15.5560381251      15.0000000000
7990 2      19.8643151670      17.0000000000
7991 2      18.3838645738      19.0000000000
7992 2      15.5838927638      17.0000000000
7993 2      16.8984086932      14.0000000000
7994 2      14.6789019695      19.0000000000
7995 2      16.6357851385      21.0000000000
7996 2      14.1230301457      16.0000000000
7997 2      17.1209772189      19.0000000000
7998 2      16.3971350091      17.0000000000
7999 2      15.2911796926      17.0000000000
8000 2      15.3217277725      17.0000000000
8001 2      17.6605889502      19.0000000000
8002 2      17.2487496515      15.0000000000
8003 2      17.5105136073      17.0000000000
8004 2      17.4678810075      20.0000000000
8005 2      14.8711575015      17.0000000000
8006 2      18.4543493257      19.0000000000
8007 2      15.6031889783      19.0000000000
8008 2      14.8903889628      17.0000000000
8009 2      16.7358101174      16.0000000000
8010 2      18.3863077656      16.0000000000
8011 2      19.3971469965      16.0000000000
8012 2      17.0131072064      20.0000000000
8013 2      15.8744488906      18.0000000000
8014 2      14.1329305879      18.0000000000
8015 2      13.0141517186      16.0000000000
8016 2      15.7155361677      14.0000000000
8017 2      16.1138442465      18.0000000000
8018 2      14.5239366945      19.0000000000
8019 2      15.3996072980      16.0000000000
8020 2      16.3578499550      19.0000000000
8021 2      19.7846954846      14.0000000000
8022 2      14.7162541396      16.0000000000
8023 2      15.2086995293      15.0000000000
8024 2      14.8075608046      16.0000000000
8025 2      16.8155552430      17.0000000000
8026 2      18.2842971221      20.0000000000
8027 2      16.6239735329      21.0000000000
8028 2      16.3800812837      18.0000000000
8029 2      13.8794491219      15.0000000000
8030 2      15.1936703084      21.0000000000
8031 2      17.8043828087      22.0000000000
8032 2      14.2388582020      16.0000000000
8033 2      16.5906031829      16.0000000000
8034 2      15.5764410044      18.0000000000
8035 2      14.4105809546      17.0000000000
8036 2      14.3826531309      20.0000000000
8037 2      14.6033025640      15.0000000000
8038 2      14.5000300525      16.0000000000
8039 2      15.2111676808      16.0000000000
8040 2      14.5624335225      20.0000000000
8041 2      16.1652009551      18.0000000000
8042 2      18.9713396632      18.0000000000
8043 2      14.9042791163      14.0000000000
8044 2      15.8109603763      15.0000000000
8045 2      15.3888085310      19.0000000000
8046 2      13.4974851299      15.0000000000
8047 2      17.4992046690      22.0000000000
8048 2      18.3843674357      17.0000000000
8049 2      17.5379890789      15.0000000000
8050 2      15.4362751339      16.0000000000
8051 2      19.2791770081      19.0000000000
8052 2      15.9817667890      22.0000000000
8053 2      15.5358520567      12.0000000000
8054 2      14.7215314868      16.0000000000
8055 2      16.4168199676      17.0000000000
8056 2      14.9970610400      17.0000000000
8057 2      17.3793253194      20.0000000000
8058 2      19.9301569110      16.0000000000
8059 2      15.7918300073      18.0000000000
8060 2      19.0813944387      16.0000000000
8061 2      16.5957153675      18.0000000000
8062 2      14.6964871754      16.0000000000
8063 2      17.5591995189      18.0000000000
8064 2      14.3583464978      19.0000000000
8065 2      19.9125699666      17.0000000000
8066 2      16.6969272081      15.0000000000
8067 2      15.4573534688      16.0000000000
8068 2      18.9824572121      19.0000000000
8069 2      16.8016133955      19.0000000000
8070 2      16.1411549699      17.0000000000
8071 2      15.6901363141      21.0000000000
8072 2      15.9125629683      18.0000000000
8073 2      15.1012693872      13.0000000000
8074 2      15.3931260025      15.0000000000
8075 2      21.2594096468      21.0000000000
8076 2      17.9138490010      20.0000000000
8077 2      16.1620882192      16.0000000000
8078 2      15.5961210804      19.0000000000
8079 2      16.1606136144      18.0000000000
8080 2      15.4257637813      17.0000000000
8081 2      19.2219598473      17.0000000000
8082 2      15.2600518420      18.0000000000
8083 2      15.5800121042      18.0000000000
8084 2      15.8377197259      15.0000000000
8085 2      20.9332469877      17.0000000000
8086 2      17.2228480945      14.0000000000
8087 2      17.1220759585      20.0000000000
8088 2      16.5280977695      20.0000000000
8089 2      16.8505439803      18.0000000000
8090 2      14.2868641261      17.0000000000
8091 2      15.9467341297      16.0000000000
8092 2      15.0391885033      16.0000000000
8093 2      16.0125784609      16.0000000000
8094 2      16.5984713789      21.0000000000
8095 2      17.5221923556      17.0000000000
8096 2      16.3818660712      20.0000000000
8097 2      14.6405203475      17.0000000000
8098 2      16.4677549724      19.0000000000
8099 2      14.6033410989      20.0000000000
8100 2      20.6317877826      22.0000000000
8101 2      14.7333010886      18.0000000000
8102 2      15.9613870374      17.0000000000
8103 2      15.4738106098      23.0000000000
8104 2      16.3299179291      19.0000000000
8105 2      17.5578255572      17.0000000000
8106 2      13.6351971886      14.0000000000
8107 2      16.1576556011      18.0000000000
8108 2      15.0747082996      18.0000000000
8109 2      15.0986789331      16.0000000000
8110 2      22.1181079534      21.0000000000
8111 2      15.4353810796      17.0000000000
8112 2      17.1089593660      15.0000000000
8113 2      16.0103256998      17.0000000000
8114 2      19.1089624988      17.0000000000
8115 2      13.9043630168      15.0000000000
8116 2      15.5212390751      19.0000000000
8117 2      15.0516463788      16.0000000000
8118 2      17.6947774154      15.0000000000
8119 2      15.2996997142      17.0000000000
8120 2      14.6401683104      21.0000000000
8121 2      16.6545856296      19.0000000000
8122 2      15.1639748700      16.0000000000
8123 2      16.0302453606      16.0000000000
8124 2      15.1675930730      15.0000000000
8125 2      15.8474603270      15.0000000000
8126 2      16.0319202157      13.0000000000
8127 2      15.0143799308      16.0000000000
8128 2      15.8790922711      18.0000000000
8129 2      18.6025647556      15.0000000000
8130 2      16.8788771065      19.0000000000
8131 2      18.0889260103      18.0000000000
8132 2      14.5148476506      16.0000000000
8133 2      15.9064970723      17.0000000000
8134 2      17.5563942024      20.0000000000
8135 2      14.0703982907      17.0000000000
8136 2      17.3230175398      16.0000000000
8137 2      20.3560294735      15.0000000000
8138 2      18.1884866669      19.0000000000
8139 2      13.5641429269      15.0000000000
8140 2      12.4966856279      15.0000000000
8141 2      18.1224101945      19.0000000000
8142 2      15.1991144357      17.0000000000
8143 2      13.0126027297      16.0000000000
8144 2      15.1731729343      20.0000000000
8145 2      15.3897102824      19.0000000000
8146 2      14.4956465744      17.0000000000
8147 2      15.4205045909      17.0000000000
8148 2      17.6611147050      17.0000000000
8149 2      15.8782239841      18.0000000000
8150 2      15.8122438688      19.0000000000
8151 2      16.4306406116      16.0000000000
8152 2      17.5514952565      23.0000000000
8153 2      16.7341989856      18.0000000000
8154 2      14.8486024741      20.0000000000
8155 2      14.8437466165      18.0000000000
8156 2      15.3433869003      19.0000000000
8157 2      16.1486123580      18.0000000000
8158 2      13.4675750830      16.0000000000
8159 2      17.7486627550      19.0000000000
8160 2      15.8173950651      19.0000000000
8161 2      16.8670021522      20.0000000000
8162 2      16.5916120622      21.0000000000
8163 2      14.9843704610      12.0000000000
8164 2      15.4186976568      18.0000000000
8165 2      16.7013312703      16.0000000000
8166 2      18.9822155343      20.0000000000
8167 2      15.4926337717      15.0000000000
8168 2      18.3621602809      17.0000000000
8169 2      16.3616592622      17.0000000000
8170 2      14.7629534350      15.0000000000
8171 2      15.6602070405      18.0000000000
8172 2      16.9241014879      16.0000000000
8173 2      18.9375288319      17.0000000000
8174 2      14.9160687214      17.0000000000
8175 2      17.4678660647      19.0000000000
8176 2      18.3812388625      22.0000000000
8177 2      14.7997158500      16.0000000000
8178 2      16.2451179279      20.0000000000
8179 2      14.5043466198      20.0000000000
8180 2      20.2533748489      19.0000000000
8181 2      15.7519344812      21.0000000000
8182 2      17.1009709093      23.0000000000
8183 2      14.6363706514      19.0000000000
8184 2      13.8784485910      16.0000000000
8185 2      13.5080593889      17.0000000000
8186 2      13.1728821182      14.0000000000
8187 2      16.6802164444      19.0000000000
8188 2      20.0578489166      23.0000000000
8189 2      14.1018301202      16.0000000000
8190 2      16.7312554943      15.0000000000
8191 2      17.0535076724      13.0000000000
8192 2      17.6942667233      19.0000000000
8193 2      13.4152074277      13.0000000000
8194 2      14.8314442128      17.0000000000
8195 2      15.5664371511      19.0000000000
8196 2      13.5651708568      17.0000000000
8197 2      18.3314785319      20.0000000000
8198 2      13.2960034124      15.0000000000
8199 2      15.2654425935      13.0000000000
8200 2      17.9228282987      18.0000000000
8201 2      16.9131433591      17.0000000000
8202 2      13.6814595306      17.0000000000
8203 2      12.7671297645      17.0000000000
8204 2      14.7859371942      16.0000000000
8205 2      15.3634344929      16.0000000000
8206 2      15.3072187488      19.0000000000
8207 2      14.2303171234      19.0000000000
8208 2      16.4910954730      21.0000000000
8209 2      13.2002226782      19.0000000000
8210 2      17.1506803447      16.0000000000
8211 2      15.6437876714      18.0000000000
8212 2      15.4075702154      15.0000000000
8213 2      14.7497307032      18.0000000000
8214 2      14.2563212814      16.0000000000
8215 2      14.2138336679      17.0000000000
8216 2      15.8254915384      17.0000000000
8217 2      14.5449620248      14.0000000000
8218 2      13.9103060200      17.0000000000
8219 2      16.7256804603      18.0000000000
8220 2      16.0638643391      18.0000000000
8221 2      14.6756630914      15.0000000000
8222 2      15.2848511957      20.0000000000
8223 2      18.6518884788      18.0000000000
8224 2      15.4724790457      19.0000000000
8225 2      13.7334682685      17.0000000000
8226 2      14.8060887441      17.0000000000
8227 2      16.6505095806      19.0000000000
8228 2      14.6365143118      17.0000000000
8229 2      18.0348845533      18.0000000000
8230 2      14.7517190541      17.0000000000
8231 2      19.8932361998      22.0000000000
8232 2      13.6580147870      16.0000000000
8233 2      13.3254542286      16.0000000000
8234 2      14.6776874355      17.0000000000
8235 2      14.9312086044      17.0000000000
8236 2      15.2656372395      15.0000000000
8237 2      13.7151342997      20.0000000000
8238 2      16.4448516240      19.0000000000
8239 2      18.2655182992      13.0000000000
8240 2      17.4741772313      13.0000000000
8241 2      15.5647032264      18.0000000000
8242 2      13.8093535124      15.0000000000
8243 2      14.9202201496      19.0000000000
8244 2      16.5406685911      14.0000000000
8245 2      17.8916407491      14.0000000000
8246 2      14.1310009467      15.0000000000
8247 2      14.6627858975      15.0000000000
8248 2      15.4973568468      21.0000000000
8249 2      15.4670137249      16.0000000000
8250 2      15.8507340679      18.0000000000
8251 2      18.8487307198      18.0000000000
8252 2      15.6707784384      17.0000000000
8253 2      13.1229399183      16.0000000000
8254 2      14.0054697803      15.0000000000
8255 2      14.1457102701      17.0000000000
8256 2      17.4175173729      17.0000000000
8257 2      16.1368706989      17.0000000000
8258 2      17.0684541638      22.0000000000
8259 2      16.2948066465      15.0000000000
8260 2      15.0678060663      21.0000000000
8261 2      16.7845135320      15.0000000000
8262 2      15.3939829108      18.0000000000
8263 2      14.8145444900      18.0000000000
8264 2      14.8910938197      14.0000000000
8265 2      14.7631779690      19.0000000000
8266 2      15.0225121216      19.0000000000
8267 2      15.0048356523      20.0000000000
8268 2      16.4092005085      18.0000000000
8269 2      14.7833829649      17.0000000000
8270 2      16.7639384232      16.0000000000
8271 2      15.9805660896      21.0000000000
8272 2      14.9533660550      15.0000000000
8273 2      14.3849877114      18.0000000000
8274 2      17.2025680702      18.0000000000
8275 2      14.3640052370      17.0000000000
8276 2      12.8998129866      19.0000000000
8277 2      16.7014934791      15.0000000000
8278 2      16.3220546613      15.0000000000
8279 2      15.6840244379      17.0000000000
8280 2      16.6326239695      18.0000000000
8281 2      16.8805361356      21.0000000000
8282 2      17.0058318211      15.0000000000
8283 2      16.9137416196      15.0000000000
8284 2      16.2743014394      15.0000000000
8285 2      16.9662805972      14.0000000000
8286 2      17.3615228747      18.0000000000
8287 2      17.1812682092      17.0000000000
8288 2      16.7715964152      19.0000000000
8289 2      14.0617876914      16.0000000000
8290 2      15.3290506785      18.0000000000
8291 2      13.6312447173      17.0000000000
8292 2      23.6513725974      23.0000000000
8293 2      13.9368625712      16.0000000000
8294 2      15.7603963618      18.0000000000
8295 2      13.5893073041      18.0000000000
8296 2      15.7328302552      15.0000000000
8297 2      13.7108747302      16.0000000000
8298 2      17.7412231105      18.0000000000
8299 2      15.7860417413      13.0000000000
8300 2      17.0262804835      24.0000000000
8301 2      16.2209493287      23.0000000000
8302 2      14.8635974158      18.0000000000
8303 2      15.6585046867      16.0000000000
8304 2      15.6997871525      16.0000000000
8305 2      15.3691416158      17.0000000000
8306 2      15.8538380724      24.0000000000
8307 2      14.9475904246      17.0000000000
8308 2      15.0720490665      19.0000000000
8309 2      13.5462198654      18.0000000000
8310 2      20.0741984264      22.0000000000
8311 2      14.6093538683      14.0000000000
8312 2      16.5408046358      19.0000000000
8313 2      16.8547517685      22.0000000000
8314 2      15.7799700973      22.0000000000
8315 2      16.2228824125      16.0000000000
8316 2      14.7261997560      20.0000000000
8317 2      16.7728338084      20.0000000000
8318 2      15.9327184303      18.0000000000
8319 2      18.0791961340      16.0000000000
8320 2      18.2707171411      18.0000000000
8321 2      13.5617109828      14.0000000000
8322 2      18.0111838271      18.0000000000
8323 2      16.5631145040      17.0000000000
8324 2      14.2327754665      15.0000000000
8325 2      16.2162062552      15.0000000000
8326 2      14.3995028025      15.0000000000
8327 2      16.7597167434      23.0000000000
8328 2      16.0850696555      23.0000000000
8329 2      14.1828178141      16.0000000000
8330 2      16.6138475747      20.0000000000
8331 2      16.5146757832      17.0000000000
8332 2      16.7368375772      19.0000000000
8333 2      18.6587195200      19.0000000000
8334 2      14.0469120559      16.0000000000
8335 2      14.9472400401      15.0000000000
8336 2      15.5300687024      18.0000000000
8337 2      14.0065964387      15.0000000000
8338 2      17.7634689683      18.0000000000
8339 2      18.3162814632      24.0000000000
8340 2      16.1264320352      18.0000000000
8341 2      14.8913039808      16.0000000000
8342 2      14.5982849885      13.0000000000
8343 2      12.9930442314      16.0000000000
8344 2      17.1285572613      21.0000000000
8345 2      15.6080605109      21.0000000000
8346 2      18.6242163672      19.0000000000
8347 2      15.7095965927      16.0000000000
8348 2      13.9318935372      17.0000000000
8349 2      15.1558882237      16.0000000000
8350 2      15.5666320852      18.0000000000
8351 2      17.1834676571      20.0000000000
8352 2      16.1692111499      19.0000000000
8353 2      18.3461377487      21.0000000000
8354 2      13.9328567347      17.0000000000
8355 2      15.8916793805      17.0000000000
8356 2      15.1305039728      17.0000000000
8357 2      13.4262526531      17.0000000000
8358 2      17.0327242449      19.0000000000
8359 2      14.5892845912      14.0000000000
8360 2      15.3849081588      17.0000000000
8361 2      15.9747657130      18.0000000000
8362 2      18.6287412263      19.0000000000
8363 2      17.0720530388      20.0000000000
8364 2      15.8274843349      16.0000000000
8365 2      15.6801820450      17.0000000000
8366 2      19.9782002346      19.0000000000
8367 2      14.1203728938      15.0000000000
8368 2      14.3074685454      19.0000000000
8369 2      16.2839556124      17.0000000000
8370 2      19.8439988416      14.0000000000
8371 2      16.6813567455      16.0000000000
8372 2      15.0423673943      18.0000000000
8373 2      15.0595183736      20.0000000000
8374 2      16.2115492315      14.0000000000
8375 2      16.2237594516      16.0000000000
8376 2      15.0318979328      21.0000000000
8377 2      15.0719720706      17.0000000000
8378 2      12.9391532028      15.0000000000
8379 2      13.6568064925      16.0000000000
8380 2      13.7989103938      19.0000000000
8381 2      14.0613645864      18.0000000000
8382 2      15.4123780222      16.0000000000
8383 2      15.4666863484      18.0000000000
8384 2      17.0588584593      22.0000000000
8385 2      14.2808079592      15.0000000000
8386 2      12.9557730762      15.0000000000
8387 2      14.7695122675      20.0000000000
8388 2      18.3796052851      18.0000000000
8389 2      13.3554403523      14.0000000000
8390 2      19.8786187218      20.0000000000
8391 2      13.9411544751      16.0000000000
8392 2      15.2237441159      18.0000000000
8393 2      15.2749568449      17.0000000000
8394 2      15.2674074577      17.0000000000
8395 2      14.3964345666      16.0000000000
8396 2      16.3669172810      14.0000000000
8397 2      18.7430786081      16.0000000000
8398 2      19.5031605236      17.0000000000
8399 2      16.4923878728      16.0000000000
8400 2      15.9896932541      19.0000000000
8401 2      17.2973660084      13.0000000000
8402 2      14.8642071277      16.0000000000
8403 2      15.1864234404      16.0000000000
8404 2      15.1303955398      17.0000000000
8405 2      15.4184167687      19.0000000000
8406 2      15.1642022356      17.0000000000
8407 2      17.8985783966      16.0000000000
8408 2      15.5622147207      18.0000000000
8409 2      14.9612273092      15.0000000000
8410 2      19.0028491485      19.0000000000
8411 2      18.3763093357      20.0000000000
8412 2      14.7868144637      17.0000000000
8413 2      17.4648618425      17.0000000000
8414 2      15.1115848694      17.0000000000
8415 2      14.2989984017      18.0000000000
8416 2      13.1913242429      14.0000000000
8417 2      14.8614663655      16.0000000000
8418 2      16.2899688060      19.0000000000
8419 2      16.1674980434      18.0000000000
8420 2      15.8283416064      19.0000000000
8421 2      17.8584065334      20.0000000000
8422 2      14.2892861120      17.0000000000
8423 2      17.7122964126      14.0000000000
8424 2      13.5287965476      19.0000000000
8425 2      15.1465315220      17.0000000000
8426 2      13.8351876006      18.0000000000
8427 2      17.9979031944      20.0000000000
8428 2      15.7053994673      16.0000000000
8429 2      16.3898220634      19.0000000000
8430 2      17.2073101814      16.0000000000
8431 2      13.1284740332      16.0000000000
8432 2      13.8254339412      15.0000000000
8433 2      16.9322941410      18.0000000000
8434 2      16.4108839911      22.0000000000
8435 2      18.1286305982      16.0000000000
8436 2      18.7967745463      18.0000000000
8437 2      14.8200085127      17.0000000000
8438 2      17.5288672906      22.0000000000
8439 2      16.0269493309      18.0000000000
8440 2      15.3458161794      13.0000000000
8441 2      16.0405356219      19.0000000000
8442 2      14.4838680164      16.0000000000
8443 2      14.6837265009      19.0000000000
8444 2      15.0204046900      17.0000000000
8445 2      14.9459818257      18.0000000000
8446 2      14.5677434383      17.0000000000
8447 2      16.5614996557      18.0000000000
8448 2      15.8522470130      17.0000000000
8449 2      14.0602097032      15.0000000000
8450 2      13.4711760234      15.0000000000
8451 2      16.2376388105      18.0000000000
8452 2      15.5689029556      12.0000000000
8453 2      13.5799698683      15.0000000000
8454 2      14.3725467959      17.0000000000
8455 2      17.6222226968      17.0000000000
8456 2      15.3832741382      19.0000000000
8457 2      16.7459516191      21.0000000000
8458 2      15.9527485530      16.0000000000
8459 2      16.4423583501      19.0000000000
8460 2      15.4731278998      20.0000000000
8461 2      18.6691591299      19.0000000000
8462 2      14.7561645158      17.0000000000
8463 2      18.3256774785      19.0000000000
8464 2      16.5416201477      15.0000000000
8465 2      15.3547046266      20.0000000000
8466 2      12.7722427752      16.0000000000
8467 2      18.9066373384      18.0000000000
8468 2      14.3849368035      18.0000000000
8469 2      19.0230319882      21.0000000000
8470 2      12.3013895710      14.0000000000
8471 2      14.2304361607      16.0000000000
8472 2      14.1255808549      17.0000000000
8473 2      18.8480335502      15.0000000000
8474 2      15.9013335587      18.0000000000
8475 2      13.9775981944      14.0000000000
8476 2      14.1596768221      17.0000000000
8477 2      12.9772910540      14.0000000000
8478 2      15.5928863963      16.0000000000
8479 2      15.2893656397      15.0000000000
8480 2      14.6024133920      18.0000000000
8481 2      14.1344209982      16.0000000000
8482 2      17.2748696387      14.0000000000
8483 2      15.8612985598      16.0000000000
8484 2      15.6906864227      18.0000000000
8485 2      15.7666822505      14.0000000000
8486 2      13.2403663070      15.0000000000
8487 2      14.7093104461      15.0000000000
8488 2      18.9311137773      22.0000000000
8489 2      14.8138266017      20.0000000000
8490 2      16.1433899033      14.0000000000
8491 2      16.4939422426      17.0000000000
8492 2      16.7873671145      18.0000000000
8493 2      14.6984906476      17.0000000000
8494 2      13.6717522247      19.0000000000
8495 2      18.8188179040      21.0000000000
8496 2      14.7938648509      16.0000000000
8497 2      14.3538602130      17.0000000000
8498 2      14.5219063924      18.0000000000
8499 2      13.7202542037      17.0000000000
8500 2      13.7352598439      15.0000000000
8501 2      16.4622268048      19.0000000000
8502 2      17.5726701027      20.0000000000
8503 2      15.8841885200      19.0000000000
8504 2      13.7031680660      15.0000000000
8505 2      17.6123777445      15.0000000000
8506 2      17.9867773867      15.0000000000
8507 2      15.6777001659      14.0000000000
8508 2      17.2049625309      16.0000000000
8509 2      15.0652953276      18.0000000000
8510 2      14.5500935979      18.0000000000
8511 2      13.9175711180      16.0000000000
8512 2      15.3855755504      18.0000000000
8513 2      14.2100761072      16.0000000000
8514 2      14.0513932254      14.0000000000
8515 2      13.1599042836      15.0000000000
8516 2      18.1376722608      21.0000000000
8517 2      18.6493901835      17.0000000000
8518 2      20.7243368592      19.0000000000
8519 2      17.0915496896      13.0000000000
8520 2      14.0349436129      15.0000000000
8521 2      15.2508666271      16.0000000000
8522 2      15.1565099345      17.0000000000
8523 2      18.8829824190      19.0000000000
8524 2      16.8629477894      21.0000000000
8525 2      16.8118771228      17.0000000000
8526 2      19.8447819860      21.0000000000
8527 2      16.3888622826      19.0000000000
8528 2      15.5906621669      18.0000000000
8529 2      15.6911513589      17.0000000000
8530 2      15.9108721157      17.0000000000
8531 2      15.9528670363      18.0000000000
8532 2      16.4106621983      18.0000000000
8533 2      17.3144039385      15.0000000000
8534 2      17.0399368510      16.0000000000
8535 2      18.7743247164      20.0000000000
8536 2      16.5598372543      14.0000000000
8537 2      13.9323324809      16.0000000000
8538 2      15.9455606590      17.0000000000
8539 2      19.0481784315      16.0000000000
8540 2      13.0989856021      16.0000000000
8541 2      15.6485308045      19.0000000000
8542 2      13.3994774465      17.0000000000
8543 2      15.3751297709      18.0000000000
8544 2      16.3042139554      20.0000000000
8545 2      17.0161184454      19.0000000000
8546 2      13.9866287671      19.0000000000
8547 2      14.9215449586      18.0000000000
8548 2      17.9303130375      17.0000000000
8549 2      17.4202553035      19.0000000000
8550 2      15.0634380467      18.0000000000
8551 2      16.0433545982      14.0000000000
8552 2      14.8538025276      20.0000000000
8553 2      13.7721247088      16.0000000000
8554 2      14.1357898528      15.0000000000
8555 2      14.6518329477      14.0000000000
8556 2      16.4044646257      22.0000000000
8557 2      14.1759696247      15.0000000000
8558 2      14.9535348428      18.0000000000
8559 2      16.4334983490      17.0000000000
8560 2      15.6814237024      14.0000000000
8561 2      15.5472946537      20.0000000000
8562 2      17.9034920059      16.0000000000
8563 2      14.3507774968      14.0000000000
8564 2      14.8956913378      16.0000000000
8565 2      16.0631336253      20.0000000000
8566 2      17.2529105403      22.0000000000
8567 2      17.0021029815      17.0000000000
8568 2      15.3898038747      16.0000000000
8569 2      14.6082341479      16.0000000000
8570 2      15.9298340823      16.0000000000
8571 2      15.0254362978      20.0000000000
8572 2      14.1288452107      18.0000000000
8573 2      15.7378484477      17.0000000000
8574 2      17.2212871762      20.0000000000
8575 2      19.0739880494      19.0000000000
8576 2      14.3607205293      16.0000000000
8577 2      15.0024062583      13.0000000000
8578 2      18.3309273043      22.0000000000
8579 2      13.3849925213      17.0000000000
8580 2      14.0942779736      20.0000000000
8581 2      16.6109290247      16.0000000000
8582 2      14.9303043568      20.0000000000
8583 2      14.5658067794      18.0000000000
8584 2      14.6437684653      15.0000000000
8585 2      19.5871449288      16.0000000000
8586 2      16.8770105176      17.0000000000
8587 2      17.9332655759      18.0000000000
8588 2      15.0817204647      17.0000000000
8589 2      15.2800647606      17.0000000000
8590 2      19.6544531665      17.0000000000
8591 2      13.8510415906      15.0000000000
8592 2      15.0649775388      17.0000000000
8593 2      14.7922053846      15.0000000000
8594 2      16.3928722229      20.0000000000
8595 2      17.4449381105      20.0000000000
8596 2      18.4202133093      19.0000000000
8597 2      15.0129453972      16.0000000000
8598 2      19.9964715528      20.0000000000
8599 2      14.3357627288      17.0000000000
8600 2      15.9317617406      16.0000000000
8601 2      14.8753467330      17.0000000000
8602 2      14.0821877890      15.0000000000
8603 2      16.7211426465      19.0000000000
8604 2      13.4509231177      13.0000000000
8605 2      15.1374168636      17.0000000000
8606 2      17.9771946918      19.0000000000
8607 2      15.5844288811      16.0000000000
8608 2      14.1145393805      16.0000000000
8609 2      14.7938646620      15.0000000000
8610 2      15.2199398460      17.0000000000
8611 2      14.5150093251      16.0000000000
8612 2      17.3764893177      23.0000000000
8613 2      15.2847902952      21.0000000000
8614 2      15.7809664364      16.0000000000
8615 2      14.7165811975      17.0000000000
8616 2      16.2607075817      17.0000000000
8617 2      15.7478641770      17.0000000000
8618 2      14.7990865403      17.0000000000
8619 2      17.8333321440      21.0000000000
8620 2      14.3756565227      16.0000000000
8621 2      13.8092476840      17.0000000000
8622 2      17.5392886351      19.0000000000
8623 2      17.8435535192      14.0000000000
8624 2      16.0284529767      15.0000000000
8625 2      12.4979444493      17.0000000000
8626 2      17.8654660157      15.0000000000
8627 2      17.1898801880      21.0000000000
8628 2      19.5693848495      21.0000000000
8629 2      16.3862482618      19.0000000000
8630 2      14.6772404599      20.0000000000
8631 2      14.0501432178      16.0000000000
8632 2      15.6653767816      20.0000000000
8633 2      15.0392250256      19.0000000000
8634 2      16.1304445621      13.0000000000
8635 2      15.3743927653      25.0000000000
8636 2      16.0356644547      19.0000000000
8637 2      17.6443109928      15.0000000000
8638 2      14.7989773752      19.0000000000
8639 2      15.5108949340      19.0000000000
8640 2      15.4042971461      21.0000000000
8641 2      16.9793266773      19.0000000000
8642 2      17.2164082703      16.0000000000
8643 2      15.4003843858      20.0000000000
8644 2      14.9732279438      19.0000000000
8645 2      13.8271447169      16.0000000000
8646 2      16.6073927148      19.0000000000
8647 2      14.6989713546      19.0000000000
8648 2      14.3885901262      16.0000000000
8649 2      13.6746045135      16.0000000000
8650 2      15.4946241740      16.0000000000
8651 2      13.0087274367      13.0000000000
8652 2      14.7073008749      16.0000000000
8653 2      14.9232521909      20.0000000000
8654 2      15.5154059747      19.0000000000
8655 2      16.3411195770      19.0000000000
8656 2      18.5203322614      18.0000000000
8657 2      15.7319308089      17.0000000000
8658 2      16.1322227744      19.0000000000
8659 2      14.9114732080      20.0000000000
8660 2      16.7865360097      18.0000000000
8661 2      13.8783922575      15.0000000000
8662 2      17.7333988093      17.0000000000
8663 2      16.2807714915      21.0000000000
8664 2      18.1622350591      18.0000000000
8665 2      14.2135776015      15.0000000000
8666 2      14.7700433509      17.0000000000
8667 2      14.7533035344      17.0000000000
8668 2      14.9849017924      17.0000000000
8669 2      15.1350768570      16.0000000000
8670 2      14.0512983188      15.0000000000
8671 2      19.0794681223      17.0000000000
8672 2      17.3555730705      21.0000000000
8673 2      13.4606878226      15.0000000000
8674 2      17.0598645943      17.0000000000
8675 2      15.1611183407      16.0000000000
8676 2      17.1490337391      18.0000000000
8677 2      14.4278978301      16.0000000000
8678 2      13.9633567942      17.0000000000
8679 2      12.0703257331      15.0000000000
8680 2      18.6059927129      19.0000000000
8681 2      15.0239502778      16.0000000000
8682 2      12.9467244131      14.0000000000
8683 2      20.0451217663      19.0000000000
8684 2      15.4298178907      18.0000000000
8685 2      20.5514439475      18.0000000000
8686 2      16.4392717397      16.0000000000
8687 2      15.6842806316      18.0000000000
8688 2      13.6690517153      15.0000000000
8689 2      22.1766511760      18.0000000000
8690 2      20.9921445747      17.0000000000
8691 2      16.8893764565      18.0000000000
8692 2      14.6966746193      14.0000000000
8693 2      18.9374802602      20.0000000000
8694 2      13.6631729467      16.0000000000
8695 2      14.6273944645      15.0000000000
8696 2      18.0355244548      15.0000000000
8697 2      13.7727643304      16.0000000000
8698 2      15.1215400399      19.0000000000
8699 2      17.3418565879      17.0000000000
8700 2      15.7734873166      17.0000000000
8701 2      18.2964792898      16.0000000000
8702 2      16.3896993564      17.0000000000
8703 2      14.8431252948      18.0000000000
8704 2      14.4998370301      20.0000000000
8705 2      13.0971211429      14.0000000000
8706 2      18.5634121501      16.0000000000
8707 2      16.8818455234      18.0000000000
8708 2      17.7338696697      17.0000000000
8709 2      20.9347336317      22.0000000000
8710 2      14.6939165803      16.0000000000
8711 2      15.4146192788      20.0000000000
8712 2      14.9327932055      19.0000000000
8713 2      17.3746573818      15.0000000000
8714 2      16.9395983380      18.0000000000
8715 2      16.8319762086      24.0000000000
8716 2      14.3094115138      18.0000000000
8717 2      14.8157296556      17.0000000000
8718 2      16.3471376082      19.0000000000
8719 2      13.7102009187      19.0000000000
8720 2      16.9101108701      18.0000000000
8721 2      15.6754333511      14.0000000000
8722 2      15.2184635471      17.0000000000
8723 2      16.6914476528      16.0000000000
8724 2      14.8402714309      19.0000000000
8725 2      14.0286190595      17.0000000000
8726 2      17.1199044700      14.0000000000
8727 2      14.8821898057      14.0000000000
8728 2      17.4978119991      17.0000000000
8729 2      16.4638231537      18.0000000000
8730 2      16.7495401395      19.0000000000
8731 2      13.1545898871      17.0000000000
8732 2      13.5800417113      17.0000000000
8733 2      15.0332589033      16.0000000000
8734 2      13.1290022201      15.0000000000
8735 2      14.6699644166      17.0000000000
8736 2      23.3575481680      16.0000000000
8737 2      13.8825525059      16.0000000000
8738 2      16.2713552532      20.0000000000
8739 2      17.3964320301      23.0000000000
8740 2      15.6199210933      16.0000000000
8741 2      14.8195514090      16.0000000000
8742 2      18.8599412895      16.0000000000
8743 2      17.7873030287      18.0000000000
8744 2      16.9120306779      18.0000000000
8745 2      18.2342089751      20.0000000000
8746 2      15.5086197599      17.0000000000
8747 2      13.3502906432      13.0000000000
8748 2      13.6155763217      15.0000000000
8749 2      15.4611626148      20.0000000000
8750 2      18.4382502244      19.0000000000
8751 2      13.7443838372      16.0000000000
8752 2      14.3305081938      15.0000000000
8753 2      19.1659727297      21.0000000000
8754 2      12.6424878645      15.0000000000
8755 2      16.9843368609      18.0000000000
8756 2      16.2980294349      18.0000000000
8757 2      13.2537940794      17.0000000000
8758 2      17.0439285904      19.0000000000
8759 2      17.6361162644      18.0000000000
8760 2      13.4412272932      13.0000000000
8761 2      14.1290433615      14.0000000000
8762 2      16.1575932804      20.0000000000
8763 2      15.5739861080      15.0000000000
8764 2      15.3320289253      14.0000000000
8765 2      15.5791049780      16.0000000000
8766 2      19.5362867523      20.0000000000
8767 2      17.2910518939      19.0000000000
8768 2      15.6052824857      18.0000000000
8769 2      15.5393438647      14.0000000000
8770 2      19.3416231854      16.0000000000
8771 2      14.0797488961      15.0000000000
8772 2      14.5289228278      18.0000000000
8773 2      16.9905375588      20.0000000000
8774 2      16.7195157644      22.0000000000
8775 2      13.8231611246      13.0000000000
8776 2      15.9209813283      16.0000000000
8777 2      14.5023664631      16.0000000000
8778 2      20.1423187600      19.0000000000
8779 2      14.5136565917      18.0000000000
8780 2      14.2775611954      20.0000000000
8781 2      15.0791258761      15.0000000000
8782 2      16.1183312530      18.0000000000
8783 2      16.6299083073      17.0000000000
8784 2      12.9016735660      15.0000000000
8785 2      14.3796694328      20.0000000000
8786 2      17.5472886180      17.0000000000
8787 2      16.7762141083      19.0000000000
8788 2      15.8434323404      16.0000000000
8789 2      14.3077082409      17.0000000000
8790 2      18.8524892685      17.0000000000
8791 2      15.7271630296      16.0000000000
8792 2      18.4357546724      20.0000000000
8793 2      16.5566067089      13.0000000000
8794 2      17.8278534381      17.0000000000
8795 2      16.3211774292      14.0000000000
8796 2      16.3015336098      16.0000000000
8797 2      16.7068222604      21.0000000000
8798 2      14.6818448963      16.0000000000
8799 2      18.6681754629      20.0000000000
8800 2      14.8606038522      19.0000000000
8801 2      17.8454798220      21.0000000000
8802 2      15.8075648186      17.0000000000
8803 2      14.3892453352      19.0000000000
8804 2      16.1760249943      15.0000000000
8805 2      14.8626126307      18.0000000000
8806 2      16.5306568586      17.0000000000
8807 2      16.3513945813      18.0000000000
8808 2      15.3980822082      15.0000000000
8809 2      13.1933800738      16.0000000000
8810 2      14.5021422769      16.0000000000
8811 2      19.4172130212      20.0000000000
8812 2      15.0562874782      16.0000000000
8813 2      17.0656768675      20.0000000000
8814 2      16.2547072655      17.0000000000
8815 2      13.8527390931      16.0000000000
8816 2      14.5425139875      16.0000000000
8817 2      15.4656892071      14.0000000000
8818 2      16.8317567971      17.0000000000
8819 2      15.0265586703      16.0000000000
8820 2      18.2413191467      15.0000000000
8821 2      17.8342993593      17.0000000000
8822 2      18.5935335083      22.0000000000
8823 2      14.0087007151      19.0000000000
8824 2      25.6263598511      25.0000000000
8825 2      13.8562155747      19.0000000000
8826 2      12.7732621970      18.0000000000
8827 2      13.0198508910      15.0000000000
8828 2      14.1073189693      16.0000000000
8829 2      16.2540475471      17.0000000000
8830 2      18.2614672734      20.0000000000
8831 2      13.7686941162      20.0000000000
8832 2      16.1472343248      23.0000000000
8833 2      13.4466439695      16.0000000000
8834 2      17.0348749511      22.0000000000
8835 2      16.3890853998      15.0000000000
8836 2      19.3501881212      17.0000000000
8837 2      15.3404540788      16.0000000000
8838 2      15.6633279608      20.0000000000
8839 2      12.9506950428      14.0000000000
8840 2      14.9635767276      15.0000000000
8841 2      15.9135127053      21.0000000000
8842 2      16.2807885627      17.0000000000
8843 2      17.1818197167      13.0000000000
8844 2      14.2407528801      17.0000000000
8845 2      16.7423819920      19.0000000000
8846 2      16.3391964450      17.0000000000
8847 2      20.0732334127      21.0000000000
8848 2      16.0694808441      15.0000000000
8849 2      14.8411481652      17.0000000000
8850 2      16.1680985967      15.0000000000
8851 2      16.1171195277      22.0000000000
8852 2      18.2117592015      24.0000000000
8853 2      18.5860071584      16.0000000000
8854 2      14.6040340835      18.0000000000
8855 2      13.1543276809      14.0000000000
8856 2      13.6627341718      17.0000000000
8857 2      13.8225982332      15.0000000000
8858 2      23.1661444540      18.0000000000
8859 2      15.4425434043      17.0000000000
8860 2      15.3161393247      17.0000000000
8861 2      17.5922354025      20.0000000000
8862 2      13.3258680137      15.0000000000
8863 2      19.7336890581      20.0000000000
8864 2      16.6356764255      17.0000000000
8865 2      17.0418395416      16.0000000000
8866 2      14.2868691622      16.0000000000
8867 2      13.1941296601      15.0000000000
8868 2      14.0529843268      18.0000000000
8869 2      14.9022769832      14.0000000000
8870 2      15.4485871507      17.0000000000
8871 2      14.8571133033      19.0000000000
8872 2      15.2073963951      21.0000000000
8873 2      14.8547248611      20.0000000000
8874 2      15.0200846272      22.0000000000
8875 2      21.4827889481      22.0000000000
8876 2      15.2074464858      16.0000000000
8877 2      13.9939286728      18.0000000000
8878 2      15.9625944167      18.0000000000
8879 2      16.7484054689      19.0000000000
8880 2      17.6290367527      16.0000000000
8881 2      12.7614403187      17.0000000000
8882 2      16.1356494436      19.0000000000
8883 2      14.7119708621      15.0000000000
8884 2      16.5698996151      18.0000000000
8885 2      14.8361514248      20.0000000000
8886 2      15.4996461709      17.0000000000
8887 2      13.9727902691      18.0000000000
8888 2      13.9096396967      19.0000000000
8889 2      16.3758985825      19.0000000000
8890 2      17.8031022362      15.0000000000
8891 2      16.8521344718      16.0000000000
8892 2      14.4897922217      20.0000000000
8893 2      15.0982908107      16.0000000000
8894 2      14.8675511714      17.0000000000
8895 2      15.0172962549      19.0000000000
8896 2      15.6021518140      14.0000000000
8897 2      18.4447856431      19.0000000000
8898 2      22.3134719268      21.0000000000
8899 2      15.7583274423      14.0000000000
8900 2      14.9620400246      17.0000000000
8901 2      15.2356877888      21.0000000000
8902 2      11.8336854949      13.0000000000
8903 2      15.6079298914      14.0000000000
8904 2      12.9187844372      14.0000000000
8905 2      16.3731087066      16.0000000000
8906 2      13.8615206468      15.0000000000
8907 2      13.6450025990      17.0000000000
8908 2      13.6062589663      17.0000000000
8909 2      13.4388457309      15.0000000000
8910 2      15.5433451365      20.0000000000
8911 2      14.6319020457      17.0000000000
8912 2      14.3390492575      17.0000000000
8913 2      13.3295576196      14.0000000000
8914 2      14.7735685218      16.0000000000
8915 2      16.1950071467      15.0000000000
8916 2      15.0718239997      17.0000000000
8917 2      16.0090865520      16.0000000000
8918 2      16.7848818283      20.0000000000
8919 2      14.2639184737      15.0000000000
8920 2      15.9597222466      19.0000000000
8921 2      14.1340297923      16.0000000000
8922 2      14.0944757104      16.0000000000
8923 2      17.0134509263      18.0000000000
8924 2      17.0794013330      19.0000000000
8925 2      16.7975704036      18.0000000000
8926 2      14.1699536399      16.0000000000
8927 2      16.3521772918      19.0000000000
8928 2      15.1749011301      16.0000000000
8929 2      18.2450103111      16.0000000000
8930 2      16.3747425574      18.0000000000
8931 2      17.0403082933      25.0000000000
8932 2      13.6428104090      17.0000000000
8933 2      18.0957310363      18.0000000000
8934 2      15.0239032121      20.0000000000
8935 2      16.8681715456      18.0000000000
8936 2      14.5543164253      18.0000000000
8937 2      14.2337191757      16.0000000000
8938 2      16.8692331658      16.0000000000
8939 2      15.7151522204      17.0000000000
8940 2      16.0225401430      21.0000000000
8941 2      14.0978509198      20.0000000000
8942 2      17.3589635874      19.0000000000
8943 2      14.5459815321      18.0000000000
8944 2      16.0894192222      15.0000000000
8945 2      18.1680183908      22.0000000000
8946 2      15.4644298248      17.0000000000
8947 2      15.9507497910      15.0000000000
8948 2      17.0053124442      16.0000000000
8949 2      16.5272547254      17.0000000000
8950 2      12.9883225325      14.0000000000
8951 2      13.5918097518      14.0000000000
8952 2      18.7613543077      22.0000000000
8953 2      18.4870563063      18.0000000000
8954 2      17.6912418219      18.0000000000
8955 2      15.3887168787      19.0000000000
8956 2      17.8856036027      21.0000000000
8957 2      16.6554336686      19.0000000000
8958 2      14.2510409133      18.0000000000
8959 2      14.2072647633      20.0000000000
8960 2      17.5437677455      17.0000000000
8961 2      13.7333748103      16.0000000000
8962 2      16.2689861315      18.0000000000
8963 2      15.1876002709      20.0000000000
8964 2      19.6002062340      21.0000000000
8965 2      13.8204219541      16.0000000000
8966 2      13.7788847348      14.0000000000
8967 2      15.9555360067      18.0000000000
8968 2      15.2598474457      18.0000000000
8969 2      16.9368894246      15.0000000000
8970 2      14.4806695517      17.0000000000
8971 2      17.2850659521      20.0000000000
8972 2      18.5117073599      15.0000000000
8973 2      14.3331104952      16.0000000000
8974 2      20.8526597871      17.0000000000
8975 2      15.2943466527      15.0000000000
8976 2      19.1411766711      23.0000000000
8977 2      15.3054563886      21.0000000000
8978 2      17.4045008663      20.0000000000
8979 2      16.3909140916      16.0000000000
8980 2      14.4327105628      15.0000000000
8981 2      15.9130166565      19.0000000000
8982 2      14.8002304984      20.0000000000
8983 2      16.5001114605      18.0000000000
8984 2      20.7884659291      21.0000000000
8985 2      16.0686949833      19.0000000000
8986 2      16.2472163604      15.0000000000
8987 2      15.8157098261      17.0000000000
8988 2      19.0414415007      16.0000000000
8989 2      18.8571575858      19.0000000000
8990 2      18.3956186712      15.0000000000
8991 2      16.3907027004      21.0000000000
8992 2      14.1015377138      17.0000000000
8993 2      15.7446732809      19.0000000000
8994 2      16.5628883796      15.0000000000
8995 2      14.7890047256      18.0000000000
8996 2      14.7449943748      18.0000000000
8997 2      14.7574451162      16.0000000000
8998 2      15.6713495100      19.0000000000
8999 2      14.8856918293      17.0000000000
9000 2      16.3041569487      17.0000000000
9001 2      16.1714221909      20.0000000000
9002 2      17.7707516871      22.0000000000
9003 2      14.7871740602      18.0000000000
9004 2      13.9451471454      16.0000000000
9005 2      14.7980964303      18.0000000000
9006 2      15.6586651798      17.0000000000
9007 2      17.4608431135      18.0000000000
9008 2      14.6912682487      17.0000000000
9009 2      15.4299937948      18.0000000000
9010 2      13.8357862981      15.0000000000
9011 2      15.0950957509      17.0000000000
9012 2      15.3437302043      13.0000000000
9013 2      14.7614703540      15.0000000000
9014 2      15.1046779173      13.0000000000
9015 2      15.8409512526      16.0000000000
9016 2      15.8126084485      20.0000000000
9017 2      17.0673993434      22.0000000000
9018 2      15.3307048699      21.0000000000
9019 2      16.2786324184      16.0000000000
9020 2      16.1264900022      17.0000000000
9021 2      15.8036767930      16.0000000000
9022 2      18.9349208327      19.0000000000
9023 2      14.5177751486      17.0000000000
9024 2      15.2918984762      19.0000000000
9025 2      17.1871476626      20.0000000000
9026 2      14.5853575217      17.0000000000
9027 2      13.0979018257      15.0000000000
9028 2      15.9649321041      13.0000000000
9029 2      15.2870351515      15.0000000000
9030 2      14.2988216405      14.0000000000
9031 2      18.8100647630      17.0000000000
9032 2      17.0610054510      20.0000000000
9033 2      13.6812492221      14.0000000000
9034 2      20.1145335764      20.0000000000
9035 2      13.0315728598      16.0000000000
9036 2      13.6005068490      17.0000000000
9037 2      15.5039343514      18.0000000000
9038 2      16.0213572569      18.0000000000
9039 2      15.2887959929      19.0000000000
9040 2      14.4391310188      17.0000000000
9041 2      13.6800787475      16.0000000000
9042 2      15.6135743048      18.0000000000
9043 2      15.0632413068      19.0000000000
9044 2      15.0640226159      17.0000000000
9045 2      17.3179024568      21.0000000000
9046 2      14.4560248274      16.0000000000
9047 2      16.6759882746      15.0000000000
9048 2      16.3951387171      17.0000000000
9049 2      14.1948829098      16.0000000000
9050 2      14.7066245768      20.0000000000
9051 2      16.6284759096      15.0000000000
9052 2      16.4516076385      19.0000000000
9053 2      16.7722898254      16.0000000000
9054 2      14.0209780605      18.0000000000
9055 2      15.0245561375      17.0000000000
9056 2      16.7508105267      18.0000000000
9057 2      15.4288399362      20.0000000000
9058 2      15.6609495708      17.0000000000
9059 2      16.1142021297      17.0000000000
9060 2      15.1440688617      18.0000000000
9061 2      13.9098140095      14.0000000000
9062 2      14.7865928714      13.0000000000
9063 2      14.6164808290      19.0000000000
9064 2      17.9907399326      14.0000000000
9065 2      18.2322823578      20.0000000000
9066 2      14.6494849677      16.0000000000
9067 2      17.5601704269      21.0000000000
9068 2      16.4066285055      17.0000000000
9069 2      20.8560250275      23.0000000000
9070 2      16.5960941535      20.0000000000
9071 2      14.6812473122      15.0000000000
9072 2      15.0011553278      17.0000000000
9073 2      17.7303704028      20.0000000000
9074 2      19.5851713020      21.0000000000
9075 2      18.3145273237      19.0000000000
9076 2      16.6708185362      19.0000000000
9077 2      13.2945979882      16.0000000000
9078 2      14.4387530450      23.0000000000
9079 2      15.6961378642      16.0000000000
9080 2      15.6428141686      18.0000000000
9081 2      16.6653489791      19.0000000000
9082 2      15.1597509556      14.0000000000
9083 2      14.5575291944      18.0000000000
9084 2      18.1835145779      20.0000000000
9085 2      13.3570296795      16.0000000000
9086 2      14.1288749447      16.0000000000
9087 2      13.8571740554      15.0000000000
9088 2      13.8609260534      16.0000000000
9089 2      16.9889986455      19.0000000000
9090 2      14.8672510277      16.0000000000
9091 2      17.0780713694      16.0000000000
9092 2      14.8857881282      17.0000000000
9093 2      18.5558830968      17.0000000000
9094 2      14.7016250774      16.0000000000
9095 2      14.1405173809      18.0000000000
9096 2      18.1980464146      22.0000000000
9097 2      15.7070327216      16.0000000000
9098 2      12.4484665509      15.0000000000
9099 2      15.8086720593      17.0000000000
9100 2      17.6277410771      15.0000000000
9101 2      12.2516577638      14.0000000000
9102 2      19.5736165119      14.0000000000
9103 2      12.9767665556      13.0000000000
9104 2      19.0223704823      17.0000000000
9105 2      19.5470903203      18.0000000000
9106 2      14.7645611306      16.0000000000
9107 2      14.1231498744      14.0000000000
9108 2      14.3081057042      19.0000000000
9109 2      19.3470670787      22.0000000000
9110 2      18.4445631073      21.0000000000
9111 2      21.7181569158      22.0000000000
9112 2      16.8880761196      18.0000000000
9113 2      19.8257703379      15.0000000000
9114 2      13.9684236144      14.0000000000
9115 2      14.6782768911      17.0000000000
9116 2      17.3808892979      15.0000000000
9117 2      15.7062972658      15.0000000000
9118 2      14.7641064939      17.0000000000
9119 2      19.1082109705      22.0000000000
9120 2      15.4478768519      15.0000000000
9121 2      15.7670312887      17.0000000000
9122 2      15.3363439031      16.0000000000
9123 2      18.2306093790      16.0000000000
9124 2      14.2526278569      17.0000000000
9125 2      16.6049759383      19.0000000000
9126 2      14.0090657071      16.0000000000
9127 2      13.3515447363      14.0000000000
9128 2      14.6289082706      15.0000000000
9129 2      14.6237297415      13.0000000000
9130 2      16.3290616020      18.0000000000
9131 2      17.2669956213      18.0000000000
9132 2      13.7742285235      16.0000000000
9133 2      17.4573130047      20.0000000000
9134 2      15.3825424654      19.0000000000
9135 2      14.5391766008      21.0000000000
9136 2      13.9533165924      18.0000000000
9137 2      13.3442531801      17.0000000000
9138 2      17.1818201882      19.0000000000
9139 2      17.3973957486      16.0000000000
9140 2      18.0640418296      18.0000000000
9141 2      15.7310989905      21.0000000000
9142 2      15.8066003313      15.0000000000
9143 2      13.3040448042      13.0000000000
9144 2      14.2655899908      17.0000000000
9145 2      16.4657990989      16.0000000000
9146 2      17.2266926586      17.0000000000
9147 2      13.6003880483      14.0000000000
9148 2      18.6821213913      21.0000000000
9149 2      17.2658419664      15.0000000000
9150 2      17.1028606226      20.0000000000
9151 2      15.6043420743      20.0000000000
9152 2      14.6637826556      18.0000000000
9153 2      16.1568930456      13.0000000000
9154 2      17.6935893914      24.0000000000
9155 2      18.8856757686      18.0000000000
9156 2      16.0603147719      14.0000000000
9157 2      17.3826323569      14.0000000000
9158 2      14.4739012979      16.0000000000
9159 2      13.8076820255      17.0000000000
9160 2      16.4445363589      18.0000000000
9161 2      16.0862390201      13.0000000000
9162 2      20.3397506025      18.0000000000
9163 2      18.4626980525      17.0000000000
9164 2      14.6499813196      19.0000000000
9165 2      15.2870889209      18.0000000000
9166 2      16.5577403805      17.0000000000
9167 2      15.0066535615      16.0000000000
9168 2      16.2823633573      18.0000000000
9169 2      19.2858497552      17.0000000000
9170 2      16.1780568169      19.0000000000
9171 2      16.9156597806      17.0000000000
9172 2      16.5647303111      17.0000000000
9173 2      15.0751452269      15.0000000000
9174 2      16.4551511746      18.0000000000
9175 2      18.3320892121      15.0000000000
9176 2      13.1991751894      13.0000000000
9177 2      13.7503040461      16.0000000000
9178 2      16.4939619728      18.0000000000
9179 2      16.8417879433      20.0000000000
9180 2      13.1658029405      15.0000000000
9181 2      20.4607981748      22.0000000000
9182 2      14.6720238702      16.0000000000
9183 2      14.6686922462      17.0000000000
9184 2      16.8077089450      20.0000000000
9185 2      14.5090175094      16.0000000000
9186 2      14.5705323437      17.0000000000
9187 2      15.8451255501      17.0000000000
9188 2      17.1105388806      17.0000000000
9189 2      14.9559553926      16.0000000000
9190 2      13.3386396248      19.0000000000
9191 2      14.1141823905      17.0000000000
9192 2      19.4936128062      17.0000000000
9193 2      17.1095944152      19.0000000000
9194 2      16.2298393257      18.0000000000
9195 2      19.6377653189      18.0000000000
9196 2      19.9370570394      23.0000000000
9197 2      16.9784010734      20.0000000000
9198 2      18.2047609253      17.0000000000
9199 2      16.4799460031      16.0000000000
9200 2      15.8337405305      15.0000000000
9201 2      15.5200839304      20.0000000000
9202 2      14.8424565560      15.0000000000
9203 2      17.6040456137      18.0000000000
9204 2      17.1423292613      17.0000000000
9205 2      16.6375874360      20.0000000000
9206 2      17.6945457584      19.0000000000
9207 2      15.6183274760      17.0000000000
9208 2      16.8697709480      16.0000000000
9209 2      15.6141186368      15.0000000000
9210 2      17.1690620284      17.0000000000
9211 2      15.1765848351      19.0000000000
9212 2      15.2709798455      18.0000000000
9213 2      16.2416276052      17.0000000000
9214 2      15.0713139406      17.0000000000
9215 2      16.1746182982      19.0000000000
9216 2      15.8715327984      15.0000000000
9217 2      15.6575051004      16.0000000000
9218 2      15.1763635728      15.0000000000
9219 2      15.8682268971      17.0000000000
9220 2      13.7698331787      14.0000000000
9221 2      17.1093487245      18.0000000000
9222 2      14.6930600620      18.0000000000
9223 2      13.4588289910      16.0000000000
9224 2      18.9154373045      14.0000000000
9225 2      17.9987255673      17.0000000000
9226 2      16.5688624221      22.0000000000
9227 2      14.6884069992      18.0000000000
9228 2      14.9687359156      14.0000000000
9229 2      15.9466304278      18.0000000000
9230 2      15.3485219116      17.0000000000
9231 2      15.1886241523      20.0000000000
9232 2      16.4585370320      15.0000000000
9233 2      13.8385785498      13.0000000000
9234 2      18.9984845923      20.0000000000
9235 2      16.1572153272      19.0000000000
9236 2      16.4879822361      20.0000000000
9237 2      13.8337366202      16.0000000000
9238 2      16.0016974250      18.0000000000
9239 2      17.4368564096      17.0000000000
9240 2      18.0808867542      16.0000000000
9241 2      14.4184194689      16.0000000000
9242 2      16.4322599582      18.0000000000
9243 2      17.4650344610      19.0000000000
9244 2      16.2170106621      15.0000000000
9245 2      15.6679990555      13.0000000000
9246 2      16.5655841844      16.0000000000
9247 2      16.9546035162      20.0000000000
9248 2      17.2303034437      16.0000000000
9249 2      15.2003965431      14.0000000000
9250 2      14.4711189231      18.0000000000
9251 2      18.3460612373      19.0000000000
9252 2      21.1952316001      20.0000000000
9253 2      14.8611129653      16.0000000000
9254 2      15.5557546271      18.0000000000
9255 2      14.1459716198      15.0000000000
9256 2      17.1050852962      20.0000000000
9257 2      16.3672537965      19.0000000000
9258 2      17.0329361502      18.0000000000
9259 2      12.7761956089      16.0000000000
9260 2      17.1955041741      19.0000000000
9261 2      20.2453775581      19.0000000000
9262 2      14.4881688970      19.0000000000
9263 2      15.3058798913      17.0000000000
9264 2      15.3273384823      17.0000000000
9265 2      14.5237887649      15.0000000000
9266 2      14.1032335492      15.0000000000
9267 2      16.5492623358      15.0000000000
9268 2      17.9945969705      20.0000000000
9269 2      16.9675412622      23.0000000000
9270 2      17.7443729552      17.0000000000
9271 2      16.8295641269      14.0000000000
9272 2      17.8738589185      20.0000000000
9273 2      15.7939312070      17.0000000000
9274 2      15.4778311309      20.0000000000
9275 2      15.3835206642      17.0000000000
9276 2      15.9116788986      17.0000000000
9277 2      15.1708794292      21.0000000000
9278 2      13.7344442167      15.0000000000
9279 2      18.0067117190      20.0000000000
9280 2      20.4229926978      16.0000000000
9281 2      16.4868219033      17.0000000000
9282 2      13.6188382883      17.0000000000
9283 2      17.2443239162      15.0000000000
9284 2      13.7396734650      18.0000000000
9285 2      20.7439821738      20.0000000000
9286 2      14.1349379105      21.0000000000
9287 2      14.9024825212      17.0000000000
9288 2      19.0907278708      18.0000000000
9289 2      15.7905756856      15.0000000000
9290 2      21.0204245489      19.0000000000
9291 2      14.8201283734      16.0000000000
9292 2      14.6419107135      17.0000000000
9293 2      14.2844928141      16.0000000000
9294 2      14.1535777781      17.0000000000
9295 2      13.8402050565      19.0000000000
9296 2      14.9831502502      16.0000000000
9297 2      15.6446970469      13.0000000000
9298 2      14.9599016910      18.0000000000
9299 2      15.7858574009      17.0000000000
9300 2      14.9454487999      17.0000000000
9301 2      12.5015695744      15.0000000000
9302 2      13.6883942806      16.0000000000
9303 2      16.5364934635      18.0000000000
9304 2      15.3540515114      18.0000000000
9305 2      12.6095275685      15.0000000000
9306 2      18.4521916704      23.0000000000
9307 2      14.2621761724      16.0000000000
9308 2      18.0574284314      18.0000000000
9309 2      16.8011804217      21.0000000000
9310 2      14.6801125723      11.0000000000
9311 2      14.8488757374      18.0000000000
9312 2      16.3245926563      20.0000000000
9313 2      16.3329569132      18.0000000000
9314 2      15.1268788173      17.0000000000
9315 2      18.0716788404      22.0000000000
9316 2      15.1040984516      15.0000000000
9317 2      15.4434902080      19.0000000000
9318 2      15.4352513929      16.0000000000
9319 2      13.6992039993      16.0000000000
9320 2      16.7430344121      20.0000000000
9321 2      18.6108373590      17.0000000000
9322 2      16.2024719049      16.0000000000
9323 2      14.6514064785      17.0000000000
9324 2      17.0511071478      19.0000000000
9325 2      15.9411142424      19.0000000000
9326 2      15.0979287541      22.0000000000
9327 2      16.6577310191      16.0000000000
9328 2      14.7650588864      15.0000000000
9329 2      15.7241942423      19.0000000000
9330 2      15.0283376722      17.0000000000
9331 2      15.3309919581      13.0000000000
9332 2      17.4670607029      18.0000000000
9333 2      18.1328865627      21.0000000000
9334 2      14.5010935051      18.0000000000
9335 2      13.6843767043      17.0000000000
9336 2      14.2765681274      16.0000000000
9337 2      16.6780206811      19.0000000000
9338 2      14.7955811655      17.0000000000
9339 2      17.1822848821      21.0000000000
9340 2      17.1305178370      17.0000000000
9341 2      15.6612269325      12.0000000000
9342 2      14.1919077452      17.0000000000
9343 2      15.8389536189      17.0000000000
9344 2      15.4047503481      18.0000000000
9345 2      16.4456220423      15.0000000000
9346 2      17.1362977863      18.0000000000
9347 2      13.9546313955      18.0000000000
9348 2      15.8057277977      16.0000000000
9349 2      14.4386105350      16.0000000000
9350 2      15.4773779730      15.0000000000
9351 2      14.2130026918      15.0000000000
9352 2      15.8811451381      21.0000000000
9353 2      15.3300455873      18.0000000000
9354 2      14.4605462581      18.0000000000
9355 2      14.3906324111      18.0000000000
9356 2      20.5220671777      16.0000000000
9357 2      14.3233934517      15.0000000000
9358 2      15.0300335583      20.0000000000
9359 2      14.9531511099      16.0000000000
9360 2      15.2097623616      16.0000000000
9361 2      17.4895145165      17.0000000000
9362 2      16.0761576899      14.0000000000
9363 2      16.1784909898      20.0000000000
9364 2      15.7701186347      20.0000000000
9365 2      18.2899471285      17.0000000000
9366 2      16.8880573445      21.0000000000
9367 2      15.0488750271      13.0000000000
9368 2      15.7093705985      15.0000000000
9369 2      16.1649727275      18.0000000000
9370 2      14.7434266307      18.0000000000
9371 2      15.4672290648      18.0000000000
9372 2      14.6045766599      17.0000000000
9373 2      19.5706188060      17.0000000000
9374 2      13.7995345602      16.0000000000
9375 2      13.7661918607      15.0000000000
9376 2      16.2482226314      19.0000000000
9377 2      16.6856364323      17.0000000000
9378 2      16.5713651227      20.0000000000
9379 2      13.9017258910      19.0000000000
9380 2      16.9431102684      15.0000000000
9381 2      18.0719680257      16.0000000000
9382 2      16.8983612839      19.0000000000
9383 2      19.8711093128      20.0000000000
9384 2      18.4669688301      17.0000000000
9385 2      13.7181623840      15.0000000000
9386 2      16.4314375518      16.0000000000
9387 2      15.7650230599      24.0000000000
9388 2      15.4471731238      17.0000000000
9389 2      16.7710232416      17.0000000000
9390 2      14.4840966507      16.0000000000
9391 2      15.6650588000      20.0000000000
9392 2      16.5522200190      16.0000000000
9393 2      14.4376323499      19.0000000000
9394 2      14.8840757186      19.0000000000
9395 2      13.9708723334      16.0000000000
9396 2      16.4935603029      17.0000000000
9397 2      16.0237549181      13.0000000000
9398 2      17.0133968272      19.0000000000
9399 2      15.8130000599      19.0000000000
9400 2      12.9699570772      15.0000000000
9401 2      15.3553262776      18.0000000000
9402 2      16.3725445071      19.0000000000
9403 2      14.1737976541      16.0000000000
9404 2      17.3150571079      18.0000000000
9405 2      15.1121609782      20.0000000000
9406 2      18.0500790210      19.0000000000
9407 2      16.2405772172      19.0000000000
9408 2      16.1841592606      21.0000000000
9409 2      15.8257142847      17.0000000000
9410 2      20.2836240800      18.0000000000
9411 2      16.3992330466      20.0000000000
9412 2      15.8905787729      17.0000000000
9413 2      17.7330429690      20.0000000000
9414 2      16.0076465044      19.0000000000
9415 2      13.9630863726      15.0000000000
9416 2      14.7364822923      17.0000000000
9417 2      15.4207603252      19.0000000000
9418 2      16.2045464544      21.0000000000
9419 2      18.8538234284      20.0000000000
9420 2      17.1859928860      22.0000000000
9421 2      16.8209356149      18.0000000000
9422 2      15.0825241352      15.0000000000
9423 2      15.1678942899      16.0000000000
9424 2      14.7601118500      17.0000000000
9425 2      15.6445297887      19.0000000000
9426 2      15.9683427140      19.0000000000
9427 2      15.2598512132      17.0000000000
9428 2      14.0357228592      16.0000000000
9429 2      16.2199562903      16.0000000000
9430 2      14.2260833178      15.0000000000
9431 2      16.4608973262      22.0000000000
9432 2      20.1430778735      20.0000000000
9433 2      18.4634580482      17.0000000000
9434 2      15.2269079253      18.0000000000
9435 2      17.3472375402      22.0000000000
9436 2      15.9617623277      18.0000000000
9437 2      14.6740913466      19.0000000000
9438 2      15.4963859773      17.0000000000
9439 2      21.4354393760      18.0000000000
9440 2      13.9833281085      19.0000000000
9441 2      17.1500063919      18.0000000000
9442 2      14.6558890571      15.0000000000
9443 2      15.9399837853      15.0000000000
9444 2      14.3203560271      14.0000000000
9445 2      16.9198859963      17.0000000000
9446 2      13.0983836020      16.0000000000
9447 2      13.6791770958      18.0000000000
9448 2      15.5749921774      22.0000000000
9449 2      16.6055098269      16.0000000000
9450 2      19.0892039523      14.0000000000
9451 2      16.0456021888      15.0000000000
9452 2      13.4879568193      14.0000000000
9453 2      15.1127720321      14.0000000000
9454 2      16.6114443319      15.0000000000
9455 2      18.0555439957      19.0000000000
9456 2      18.3576385222      20.0000000000
9457 2      15.6338879131      16.0000000000
9458 2      16.5817572356      18.0000000000
9459 2      14.8608179481      20.0000000000
9460 2      15.4940774489      18.0000000000
9461 2      13.6947432584      17.0000000000
9462 2      15.6016432732      17.0000000000
9463 2      17.2975075172      17.0000000000
9464 2      20.2904811665      21.0000000000
9465 2      14.5958227723      15.0000000000
9466 2      13.9469668766      13.0000000000
9467 2      14.5304216294      16.0000000000
9468 2      16.5727619689      20.0000000000
9469 2      15.9256227056      15.0000000000
9470 2      17.9042563181      20.0000000000
9471 2      15.3535369741      18.0000000000
9472 2      15.1871520352      16.0000000000
9473 2      14.1759478324      19.0000000000
9474 2      16.3674127360      17.0000000000
9475 2      15.2678350612      17.0000000000
9476 2      12.4580339065      15.0000000000
9477 2      17.0422168039      16.0000000000
9478 2      18.7604761291      18.0000000000
9479 2      14.5810854339      16.0000000000
9480 2      15.3147662805      17.0000000000
9481 2      16.2620523722      19.0000000000
9482 2      21.2397196539      18.0000000000
9483 2      13.5627628526      17.0000000000
9484 2      13.6012815196      16.0000000000
9485 2      15.8891193226      16.0000000000
9486 2      15.0064561134      16.0000000000
9487 2      16.8182147644      21.0000000000
9488 2      16.6186524749      21.0000000000
9489 2      14.5215708088      18.0000000000
9490 2      14.5308961592      19.0000000000
9491 2      14.8601722171      14.0000000000
9492 2      14.6751406401      17.0000000000
9493 2      14.0744504653      19.0000000000
9494 2      16.6544877438      18.0000000000
9495 2      17.7230856099      16.0000000000
9496 2      19.2401088197      18.0000000000
9497 2      15.9592364777      17.0000000000
9498 2      15.2446376799      17.0000000000
9499 2      13.9567632773      14.0000000000
9500 2      13.8101020772      16.0000000000
9501 2      17.5439171134      18.0000000000
9502 2      13.3466587015      15.0000000000
9503 2      18.9217892702      17.0000000000
9504 2      13.7520530246      14.0000000000
9505 2      16.0642984034      19.0000000000
9506 2      18.1104010481      16.0000000000
9507 2      16.0354461290      20.0000000000
9508 2      16.5444501924      17.0000000000
9509 2      14.6471677742      19.0000000000
9510 2      14.1767421443      17.0000000000
9511 2      16.1301369120      12.0000000000
9512 2      16.9671393346      20.0000000000
9513 2      14.2632934588      15.0000000000
9514 2      17.6417744721      20.0000000000
9515 2      16.6370401878      18.0000000000
9516 2      16.3721703472      15.0000000000
9517 2      16.6707003116      16.0000000000
9518 2      15.6520742371      18.0000000000
9519 2      15.9777920869      12.0000000000
9520 2      18.2598786699      22.0000000000
9521 2      19.2731606083      15.0000000000
9522 2      13.3018557275      16.0000000000
9523 2      14.2854591015      14.0000000000
9524 2      15.6732779734      20.0000000000
9525 2      14.2881086493      15.0000000000
9526 2      15.9370186304      15.0000000000
9527 2      15.7066124049      17.0000000000
9528 2      16.8098327333      17.0000000000
9529 2      17.4038098951      20.0000000000
9530 2      16.4124730383      20.0000000000
9531 2      17.7753273635      16.0000000000
9532 2      16.8312731253      23.0000000000
9533 2      12.0547592200      14.0000000000
9534 2      16.5829375927      15.0000000000
9535 2      15.5230434393      17.0000000000
9536 2      19.7241168206      14.0000000000
9537 2      19.6559741342      22.0000000000
9538 2      15.5481651872      16.0000000000
9539 2      15.6229303763      15.0000000000
9540 2      15.5734663590      18.0000000000
9541 2      18.6944218963      20.0000000000
9542 2      14.9590195940      14.0000000000
9543 2      14.9334530871      18.0000000000
9544 2      17.1761167932      22.0000000000
9545 2      14.8112658601      17.0000000000
9546 2      16.1288751139      18.0000000000
9547 2      18.4807613951      22.0000000000
9548 2      19.2060618848      18.0000000000
9549 2      17.5740428730      15.0000000000
9550 2      17.9461016468      22.0000000000
9551 2      15.1279029786      19.0000000000
9552 2      16.9502050794      16.0000000000
9553 2      16.1145983245      17.0000000000
9554 2      12.7582744812      16.0000000000
9555 2      18.0694092029      24.0000000000
9556 2      16.9818563034      16.0000000000
9557 2      15.0542174428      16.0000000000
9558 2      17.1613819271      19.0000000000
9559 2      11.9754318888      15.0000000000
9560 2      13.2708256589      14.0000000000
9561 2      15.5895099192      19.0000000000
9562 2      15.8927848073      13.0000000000
9563 2      15.1272458296      20.0000000000
9564 2      18.4636494472      20.0000000000
9565 2      16.6197819724      13.0000000000
9566 2      17.3015071640      17.0000000000
9567 2      15.0207048198      18.0000000000
9568 2      15.3836888907      17.0000000000
9569 2      18.7633687066      23.0000000000
9570 2      15.7685963937      18.0000000000
9571 2      16.9648536794      14.0000000000
9572 2      17.0316456364      19.0000000000
9573 2      14.7361040670      16.0000000000
9574 2      15.1608201698      17.0000000000
9575 2      15.3390972293      19.0000000000
9576 2      16.6880946795      19.0000000000
9577 2      15.4894877292      20.0000000000
9578 2      14.9906837218      14.0000000000
9579 2      17.3077298232      20.0000000000
9580 2      15.9377787477      15.0000000000
9581 2      16.2762696629      18.0000000000
9582 2      15.9565527336      18.0000000000
9583 2      15.7577561376      15.0000000000
9584 2      15.2366355360      19.0000000000
9585 2      15.8397888347      19.0000000000
9586 2      14.3833721757      16.0000000000
9587 2      17.8014062800      13.0000000000
9588 2      15.7309482702      16.0000000000
9589 2      14.1658997612      17.0000000000
9590 2      16.2127710625      19.0000000000
9591 2      19.2419839309      15.0000000000
9592 2      19.3395321763      22.0000000000
9593 2      13.8138887052      15.0000000000
9594 2      19.3206776517      20.0000000000
9595 2      14.4842980797      20.0000000000
9596 2      13.3662785195      18.0000000000
9597 2      15.6037797611      14.0000000000
9598 2      12.1756212185      15.0000000000
9599 2      14.3613675715      15.0000000000
9600 2      16.8776596394      17.0000000000
9601 2      16.4106850337      19.0000000000
9602 2      14.6852031948      17.0000000000
9603 2      14.9092206238      18.0000000000
9604 2      20.9490189445      19.0000000000
9605 2      17.4088869437      21.0000000000
9606 2      15.3044299534      18.0000000000
9607 2      16.4348978570      21.0000000000
9608 2      17.7284745972      22.0000000000
9609 2      15.9364385971      18.0000000000
9610 2      15.5637295808      18.0000000000
9611 2      14.2362044122      19.0000000000
9612 2      14.7597106621      15.0000000000
9613 2      14.2475129975      14.0000000000
9614 2      14.9128386549      16.0000000000
9615 2      14.1384026541      20.0000000000
9616 2      15.1618772697      17.0000000000
9617 2      12.8229050512      15.0000000000
9618 2      17.6802118197      18.0000000000
9619 2      15.4237172921      15.0000000000
9620 2      13.6281916290      17.0000000000
9621 2      17.8002279763      15.0000000000
9622 2      15.5023438154      19.0000000000
9623 2      14.6788043384      18.0000000000
9624 2      15.2159608600      18.0000000000
9625 2      17.9102230773      18.0000000000
9626 2      19.8831959936      22.0000000000
9627 2      17.2893132475      18.0000000000
9628 2      14.3582190950      18.0000000000
9629 2      12.6141511856      17.0000000000
9630 2      13.9372147438      20.0000000000
9631 2      15.5284863980      16.0000000000
9632 2      15.0337091020      14.0000000000
9633 2      17.2930260209      16.0000000000
9634 2      16.0631525091      20.0000000000
9635 2      17.0059292068      15.0000000000
9636 2      17.7404219348      17.0000000000
9637 2      15.0841628703      15.0000000000
9638 2      16.9305107411      17.0000000000
9639 2      13.0446119033      15.0000000000
9640 2      14.4026107653      17.0000000000
9641 2      13.7243538353      15.0000000000
9642 2      16.6217498284      17.0000000000
9643 2      16.4865154305      23.0000000000
9644 2      15.1292765939      17.0000000000
9645 2      18.6977191500      17.0000000000
9646 2      13.7441235364      18.0000000000
9647 2      15.4615503298      21.0000000000
9648 2      16.9733664164      17.0000000000
9649 2      19.5219862024      22.0000000000
9650 2      15.3602242793      18.0000000000
9651 2      15.4462561878      21.0000000000
9652 2      16.6314686889      20.0000000000
9653 2      15.6916227695      21.0000000000
9654 2      17.5493257091      18.0000000000
9655 2      15.1176411496      19.0000000000
9656 2      16.2359963543      17.0000000000
9657 2      14.5936740943      13.0000000000
9658 2      14.4488129993      19.0000000000
9659 2      16.1185363832      22.0000000000
9660 2      14.3483398045      16.0000000000
9661 2      14.8308735912      16.0000000000
9662 2      14.3366344177      20.0000000000
9663 2      15.7274505264      19.0000000000
9664 2      19.4875449725      19.0000000000
9665 2      17.0100133666      18.0000000000
9666 2      15.6329728756      17.0000000000
9667 2      15.6167870267      19.0000000000
9668 2      17.2329660696      18.0000000000
9669 2      12.9936894881      17.0000000000
9670 2      16.2142020225      15.0000000000
9671 2      15.3749914294      18.0000000000
9672 2      17.2478891426      14.0000000000
9673 2      14.0070094568      16.0000000000
9674 2      14.4247378663      15.0000000000
9675 2      14.7547239576      18.0000000000
9676 2      16.5702463951      15.0000000000
9677 2      17.4752818295      16.0000000000
9678 2      17.4372458359      19.0000000000
9679 2      16.1762099522      16.0000000000
9680 2      13.3515875851      15.0000000000
9681 2      16.4931170164      20.0000000000
9682 2      14.2232980137      14.0000000000
9683 2      17.9251266714      19.0000000000
9684 2      15.4008330009      18.0000000000
9685 2      12.7334874934      16.0000000000
9686 2      16.7613894519      18.0000000000
9687 2      16.1923740733      18.0000000000
9688 2      17.0234314571      22.0000000000
9689 2      13.4439983848      17.0000000000
9690 2      17.9384135264      16.0000000000
9691 2      16.6061499002      21.0000000000
9692 2      17.6607379537      19.0000000000
9693 2      14.9491101354      18.0000000000
9694 2      15.1528421869      18.0000000000
9695 2      13.5525921402      17.0000000000
9696 2      16.0987002049      20.0000000000
9697 2      15.6572235332      16.0000000000
9698 2      14.6062299985      18.0000000000
9699 2      16.0140746407      15.0000000000
9700 2      14.2844371936      16.0000000000
9701 2      17.3502945099      17.0000000000
9702 2      14.9390317190      16.0000000000
9703 2      17.7189531958      20.0000000000
9704 2      15.2926442538      15.0000000000
9705 2      15.0581248620      19.0000000000
9706 2      15.2402273089      12.0000000000
9707 2      14.9815923996      18.0000000000
9708 2      16.5207678577      20.0000000000
9709 2      14.4533011848      17.0000000000
9710 2      13.2717276410      17.0000000000
9711 2      21.4359992070      17.0000000000
9712 2      14.8675100394      11.0000000000
9713 2      17.9291261915      18.0000000000
9714 2      17.7391011544      20.0000000000
9715 2      16.3124682387      18.0000000000
9716 2      18.4133514408      20.0000000000
9717 2      14.0958935882      17.0000000000
9718 2      15.1684506686      16.0000000000
9719 2      17.1171587023      20.0000000000
9720 2      18.1026539877      14.0000000000
9721 2      14.0376579050      19.0000000000
9722 2      13.7505448957      17.0000000000
9723 2      17.6893747251      21.0000000000
9724 2      14.5618591786      16.0000000000
9725 2      14.4170133965      15.0000000000
9726 2      17.5665128388      19.0000000000
9727 2      13.4310065996      19.0000000000
9728 2      18.1088986554      19.0000000000
9729 2      16.2509842349      14.0000000000
9730 2      17.3104075465      17.0000000000
9731 2      13.9468301291      19.0000000000
9732 2      16.3052459999      15.0000000000
9733 2      15.2422200630      14.0000000000
9734 2      17.5907690526      17.0000000000
9735 2      19.6449491333      16.0000000000
9736 2      19.2425394841      19.0000000000
9737 2      14.4744749341      18.0000000000
9738 2      15.8921350832      19.0000000000
9739 2      15.0998906498      14.0000000000
9740 2      18.3413303842      19.0000000000
9741 2      15.5713603669      14.0000000000
9742 2      15.4623347492      16.0000000000
9743 2      17.0708978625      17.0000000000
9744 2      16.0934217857      20.0000000000
9745 2      17.2422733601      19.0000000000
9746 2      18.3890196364      17.0000000000
9747 2      19.9381688728      18.0000000000
9748 2      17.4915703117      16.0000000000
9749 2      14.9238596865      21.0000000000
9750 2      17.7060224146      15.0000000000
9751 2      15.3964809869      15.0000000000
9752 2      15.8815616442      16.0000000000
9753 2      14.3625888355      16.0000000000
9754 2      14.2477569244      15.0000000000
9755 2      15.2809381430      17.0000000000
9756 2      12.9816879343      14.0000000000
9757 2      16.6213786272      17.0000000000
9758 2      14.6334063842      20.0000000000
9759 2      16.8330384443      20.0000000000
9760 2      15.2147066854      14.0000000000
9761 2      17.6461946634      18.0000000000
9762 2      14.9070717301      17.0000000000
9763 2      14.9258264957      20.0000000000
9764 2      15.2809245335      17.0000000000
9765 2      18.3756789365      17.0000000000
9766 2      17.2675477866      21.0000000000
9767 2      16.5866527508      18.0000000000
9768 2      14.7798595985      18.0000000000
9769 2      18.8471164466      19.0000000000
9770 2      15.1294817022      16.0000000000
9771 2      17.6181257140      19.0000000000
9772 2      15.0604238397      20.0000000000
9773 2      14.1723367235      14.0000000000
9774 2      14.0538687519      16.0000000000
9775 2      15.3895868878      16.0000000000
9776 2      16.1181988986      19.0000000000
9777 2      14.7702154257      18.0000000000
9778 2      16.6477692900      21.0000000000
9779 2      19.1142524633      22.0000000000
9780 2      17.2596637381      17.0000000000
9781 2      16.5456940943      22.0000000000
9782 2      20.8256000176      22.0000000000
9783 2      14.2717801697      19.0000000000
9784 2      14.9274016166      17.0000000000
9785 2      17.1932906489      23.0000000000
9786 2      15.4023596647      21.0000000000
9787 2      16.8720206350      16.0000000000
9788 2      18.2519616466      17.0000000000
9789 2      17.6674815161      20.0000000000
9790 2      20.0053519247      19.0000000000
9791 2      14.5508435948      15.0000000000
9792 2      14.6647018504      16.0000000000
9793 2      15.6780855117      18.0000000000
9794 2      15.8057806113      17.0000000000
9795 2      15.0332055631      16.0000000000
9796 2      16.7208551765      20.0000000000
9797 2      15.6887411835      18.0000000000
9798 2      14.8959542656      17.0000000000
9799 2      14.6252811420      19.0000000000
9800 2      16.3812935735      20.0000000000
9801 2      16.8377119864      19.0000000000
9802 2      13.2807991593      17.0000000000
9803 2      18.9795230283      21.0000000000
9804 2      11.9895586946      16.0000000000
9805 2      14.4216099556      16.0000000000
9806 2      14.8838307483      18.0000000000
9807 2      15.0664442634      18.0000000000
9808 2      16.5818188698      20.0000000000
9809 2      15.5463811948      18.0000000000
9810 2      14.5831107403      18.0000000000
9811 2      16.1649026782      20.0000000000
9812 2      15.0101202812      12.0000000000
9813 2      12.7014951068      15.0000000000
9814 2      16.8425137046      15.0000000000
9815 2      14.9240632197      15.0000000000
9816 2      15.8106282661      17.0000000000
9817 2      13.0740336792      14.0000000000
9818 2      16.1744452727      21.0000000000
9819 2      20.5198517398      16.0000000000
9820 2      16.5335751435      17.0000000000
9821 2      16.0141236974      17.0000000000
9822 2      16.9514549213      19.0000000000
9823 2      14.3565849257      18.0000000000
9824 2      15.6326953833      22.0000000000
9825 2      14.4407114619      17.0000000000
9826 2      17.7417295836      15.0000000000
9827 2      15.9787640870      15.0000000000
9828 2      13.7154277124      18.0000000000
9829 2      15.0258778603      15.0000000000
9830 2      16.8443066071      15.0000000000
9831 2      15.3035635390      15.0000000000
9832 2      16.1764644324      20.0000000000
9833 2      17.1251423457      20.0000000000
9834 2      15.3359848407      15.0000000000
9835 2      13.1314912396      16.0000000000
9836 2      19.4005388759      23.0000000000
9837 2      20.6290771107      20.0000000000
9838 2      17.1899492856      19.0000000000
9839 2      14.9687982073      17.0000000000
9840 2      13.9331143920      15.0000000000
9841 2      14.6400120622      22.0000000000
9842 2      17.3568357272      20.0000000000
9843 2      15.8559222904      19.0000000000
9844 2      14.5590557852      17.0000000000
9845 2      16.7245427538      18.0000000000
9846 2      14.3507705207      18.0000000000
9847 2      15.5632336699      21.0000000000
9848 2      20.0353950643      18.0000000000
9849 2      14.8346357998      18.0000000000
9850 2      17.8986887192      20.0000000000
9851 2      15.2006217434      16.0000000000
9852 2      16.8557312660      18.0000000000
9853 2      14.3846398434      19.0000000000
9854 2      18.6697677540      19.0000000000
9855 2      15.7156683386      21.0000000000
9856 2      13.0188385372      15.0000000000
9857 2      13.8047768520      18.0000000000
9858 2      15.2664668665      17.0000000000
9859 2      17.8670706480      22.0000000000
9860 2      13.7148868504      15.0000000000
9861 2      15.1680980647      17.0000000000
9862 2      19.6535824586      16.0000000000
9863 2      16.1726819358      19.0000000000
9864 2      15.9007307318      18.0000000000
9865 2      13.7970093213      17.0000000000
9866 2      16.5744642128      16.0000000000
9867 2      18.1890928827      22.0000000000
9868 2      14.2917208265      20.0000000000
9869 2      15.7323693318      18.0000000000
9870 2      14.9752479414      16.0000000000
9871 2      12.6801341555      16.0000000000
9872 2      13.5394128262      17.0000000000
9873 2      12.7137372410      14.0000000000
9874 2      15.2673104479      19.0000000000
9875 2      14.3676334079      18.0000000000
9876 2      16.7634875541      18.0000000000
9877 2      17.7932936645      19.0000000000
9878 2      16.8289432002      15.0000000000
9879 2      17.2639394343      16.0000000000
9880 2      13.4578642567      14.0000000000
9881 2      17.5597155502      19.0000000000
9882 2      13.6442567405      16.0000000000
9883 2      16.9786918531      18.0000000000
9884 2      13.7596228468      18.0000000000
9885 2      15.6862466440      21.0000000000
9886 2      13.2432055851      15.0000000000
9887 2      15.1870643516      18.0000000000
9888 2      16.7145614572      19.0000000000
9889 2      15.0905235551      16.0000000000
9890 2      13.9025658224      16.0000000000
9891 2      14.3355378469      17.0000000000
9892 2      15.6571186358      20.0000000000
9893 2      14.2014533946      19.0000000000
9894 2      20.0022090705      17.0000000000
9895 2      16.0111444025      21.0000000000
9896 2      16.2049170721      20.0000000000
9897 2      16.8494613566      16.0000000000
9898 2      17.2235478779      20.0000000000
9899 2      14.1106653623      14.0000000000
9900 2      16.4171056330      16.0000000000
9901 2      15.9610023077      14.0000000000
9902 2      17.9215231538      20.0000000000
9903 2      13.7542089529      17.0000000000
9904 2      18.1566334023      18.0000000000
9905 2      16.9131186266      17.0000000000
9906 2      16.2792878887      18.0000000000
9907 2      14.0711789005      15.0000000000
9908 2      14.9319743864      18.0000000000
9909 2      14.8725807339      18.0000000000
9910 2      16.4136811428      15.0000000000
9911 2      13.1590264201      12.0000000000
9912 2      15.5053903262      17.0000000000
9913 2      15.7038805206      16.0000000000
9914 2      17.2932279705      18.0000000000
9915 2      16.5231996805      17.0000000000
9916 2      14.6341820538      17.0000000000
9917 2      15.4961645222      20.0000000000
9918 2      20.1562713557      21.0000000000
9919 2      16.2642876187      22.0000000000
9920 2      17.1291199725      21.0000000000
9921 2      14.8633229385      19.0000000000
9922 2      14.8246914785      14.0000000000
9923 2      17.5311647748      18.0000000000
9924 2      16.2397684539      19.0000000000
9925 2      14.7361542472      18.0000000000
9926 2      12.8576814614      18.0000000000
9927 2      17.3249102847      15.0000000000
9928 2      15.8671382757      20.0000000000
9929 2      19.5188430687      19.0000000000
9930 2      14.5215435899      19.0000000000
9931 2      16.1275359451      17.0000000000
9932 2      15.2965211499      16.0000000000
9933 2      20.5464496331      19.0000000000
9934 2      15.4799279146      18.0000000000
9935 2      16.2996353327      21.0000000000
9936 2      13.2587275427      17.0000000000
9937 2      15.4389711043      17.0000000000
9938 2      17.2676572377      16.0000000000
9939 2      15.6470636610      17.0000000000
9940 2      15.8830779354      16.0000000000
9941 2      17.2622011331      18.0000000000
9942 2      15.9013802051      15.0000000000
9943 2      17.7274345788      20.0000000000
9944 2      13.6295433653      16.0000000000
9945 2      16.4918090851      14.0000000000
9946 2      14.1010321364      15.0000000000
9947 2      13.5983529789      12.0000000000
9948 2      16.2005035682      20.0000000000
9949 2      22.0032637613      21.0000000000
9950 2      17.1946549587      24.0000000000
9951 2      20.0368216718      20.0000000000
9952 2      14.9699058111      16.0000000000
9953 2      14.8810228208      19.0000000000
9954 2      13.9917418375      15.0000000000
9955 2      14.2373761967      17.0000000000
9956 2      15.2012234737      20.0000000000
9957 2      18.4099905073      19.0000000000
9958 2      16.7071119755      19.0000000000
9959 2      15.4943636594      20.0000000000
9960 2      14.6376393678      16.0000000000
9961 2      16.1756386638      14.0000000000
9962 2      15.4785724178      17.0000000000
9963 2      16.2814300184      17.0000000000
9964 2      16.3202011796      16.0000000000
9965 2      16.8852018469      19.0000000000
9966 2      15.1035545873      18.0000000000
9967 2      17.7341870923      18.0000000000
9968 2      17.1495997559      21.0000000000
9969 2      18.7467099942      19.0000000000
9970 2      17.2715692023      17.0000000000
9971 2      19.5869070642      17.0000000000
9972 2      13.7107157509      16.0000000000
9973 2      15.3708459492      19.0000000000
9974 2      15.9278345946      17.0000000000
9975 2      13.6961179753      18.0000000000
9976 2      17.2120956662      19.0000000000
9977 2      15.6535737249      19.0000000000
9978 2      14.2198393532      16.0000000000
9979 2      14.1564017170      15.0000000000
9980 2      14.7490145263      16.0000000000
9981 2      16.1876875048      17.0000000000
9982 2      16.2414489811      20.0000000000
9983 2      14.5896238951      14.0000000000
9984 2      13.6621972781      15.0000000000
9985 2      16.0214518370      17.0000000000
9986 2      17.0741741127      19.0000000000
9987 2      15.5652416814      20.0000000000
9988 2      14.6280435944      15.0000000000
9989 2      14.2506383572      16.0000000000
9990 2      14.0324138058      15.0000000000
9991 2      14.8869475156      19.0000000000
9992 2      17.5536330179      17.0000000000
9993 2      15.0634267989      16.0000000000
9994 2      16.8511421207      15.0000000000
9995 2      18.3926681603      18.0000000000
9996 2      16.2752067464      19.0000000000
9997 2      17.3169134269      16.0000000000
9998 2      16.3826120658      21.0000000000
9999 2      14.2960209958      20.0000000000
10000 2      15.9089188140      15.0000000000
10001 2      15.0067582377      18.0000000000
10002 2      17.3187599294      19.0000000000
10003 2      14.7666064889      16.0000000000
10004 2      17.2385654209      19.0000000000
10005 2      17.0761817738      16.0000000000
10006 2      15.8502056671      21.0000000000
10007 2      15.3177335808      17.0000000000
10008 2      14.5482619569      15.0000000000
10009 2      15.3494834586      18.0000000000
10010 2      14.1607777156      14.0000000000
10011 2      13.8251031794      17.0000000000
10012 2      15.5622309707      21.0000000000
10013 2      14.0868407093      19.0000000000
10014 2      15.4149755265      19.0000000000
10015 2      13.1102547590      17.0000000000
10016 2      16.6961734718      21.0000000000
10017 2      15.2641728134      19.0000000000
10018 2      16.2973735130      20.0000000000
10019 2      13.6741718231      16.0000000000
10020 2      17.9907298902      18.0000000000
10021 2      14.2458156019      15.0000000000
10022 2      14.3506807327      16.0000000000
10023 2      14.7999006907      18.0000000000
10024 2      14.4038029174      16.0000000000
10025 2      14.8534693698      18.0000000000
10026 2      14.8326899143      18.0000000000
10027 2      17.2610164046      20.0000000000
10028 2      13.2612990915      13.0000000000
10029 2      19.4063986276      16.0000000000
10030 2      15.5964818027      18.0000000000
10031 2      15.2673721190      15.0000000000
10032 2      17.7751112436      17.0000000000
10033 2      23.3843668456      25.0000000000
10034 2      16.3743023229      18.0000000000
10035 2      21.2025700305      22.0000000000
10036 2      15.4137495628      18.0000000000
10037 2      15.3027437191      17.0000000000
10038 2      15.6771951823      20.0000000000
10039 2      21.3489833700      21.0000000000
10040 2      16.3498662434      14.0000000000
10041 2      13.7947700844      18.0000000000
10042 2      14.4486824769      15.0000000000
10043 2      15.2063635574      17.0000000000
10044 2      19.4413089440      18.0000000000
10045 2      17.7546951499      18.0000000000
10046 2      20.6475538342      20.0000000000
10047 2      15.6927538516      19.0000000000
10048 2      13.6206243213      15.0000000000
10049 2      14.9133267617      16.0000000000
10050 2      17.0898877198      13.0000000000
10051 2      13.2366887006      13.0000000000
10052 2      17.8991830536      16.0000000000
10053 2      14.7936111335      16.0000000000
10054 2      14.3246769085      15.0000000000
10055 2      14.8458316083      14.0000000000
10056 2      13.9554507578      18.0000000000
10057 2      14.2651683251      17.0000000000
10058 2      17.7491110244      13.0000000000
10059 2      16.2076665342      17.0000000000
10060 2      19.4327715671      21.0000000000
10061 2      13.4642541830      17.0000000000
10062 2      16.9240284398      22.0000000000
10063 2      17.1334929929      24.0000000000
10064 2      14.5791032619      21.0000000000
10065 2      13.4692712895      20.0000000000
10066 2      14.5157720720      20.0000000000
10067 2      13.9280684255      18.0000000000
10068 2      14.4546650500      14.0000000000
10069 2      15.6886860090      18.0000000000
10070 2      16.5314259748      18.0000000000
10071 2      14.8687258132      15.0000000000
10072 2      18.3978854217      20.0000000000
10073 2      17.3090095208      19.0000000000
10074 2      14.2849975301      16.0000000000
10075 2      14.9912815669      16.0000000000
10076 2      16.3908917404      21.0000000000
10077 2      13.9918381096      15.0000000000
10078 2      13.5061347173      18.0000000000
10079 2      14.0532238855      19.0000000000
10080 2      19.0640688978      19.0000000000
10081 2      14.1397045044      17.0000000000
10082 2      13.6413903693      16.0000000000
10083 2      14.9245675198      14.0000000000
10084 2      15.3404345175      17.0000000000
10085 2      15.2533291683      18.0000000000
10086 2      15.2144415651      16.0000000000
10087 2      12.4224216717      16.0000000000
10088 2      13.7483524676      15.0000000000
10089 2      13.6922729612      17.0000000000
10090 2      18.1269021618      20.0000000000
10091 2      17.4048845551      16.0000000000
10092 2      15.7698999457      17.0000000000
10093 2      15.2045895764      17.0000000000
10094 2      15.4840648103      16.0000000000
10095 2      15.1746491937      22.0000000000
10096 2      14.1471749233      18.0000000000
10097 2      14.9906172636      18.0000000000
10098 2      14.6191221093      16.0000000000
10099 2      13.1490914174      15.0000000000
10100 2      15.5045478303      19.0000000000
10101 2      14.2085722364      15.0000000000
10102 2      15.2083986293      15.0000000000
10103 2      15.7475526832      18.0000000000
10104 2      16.2143879510      18.0000000000
10105 2      16.7694266133      20.0000000000
10106 2      14.2198527597      19.0000000000
10107 2      15.8628813348      14.0000000000
10108 2      15.0476866381      17.0000000000
10109 2      13.5523193685      15.0000000000
10110 2      15.0056418972      13.0000000000
10111 2      14.9109555931      14.0000000000
10112 2      17.4236674992      16.0000000000
10113 2      15.1543056778      17.0000000000
10114 2      14.0396673123      18.0000000000
10115 2      14.5570142915      12.0000000000
10116 2      17.2245017495      16.0000000000
10117 2      15.4043535068      19.0000000000
10118 2      14.1750904328      18.0000000000
10119 2      16.5755671329      16.0000000000
10120 2      17.0521124222      14.0000000000
10121 2      15.4053588121      22.0000000000
10122 2      15.2960093023      17.0000000000
10123 2      16.4188175424      16.0000000000
10124 2      13.8566253423      15.0000000000
10125 2      13.9671451379      16.0000000000
10126 2      17.9544340606      19.0000000000
10127 2      14.2366884473      16.0000000000
10128 2      14.8240280312      23.0000000000
10129 2      16.0363786623      18.0000000000
10130 2      15.3616847612      17.0000000000
10131 2      21.1789717888      17.0000000000
10132 2      17.3257016343      19.0000000000
10133 2      14.9890409239      20.0000000000
10134 2      13.1997374866      16.0000000000
10135 2      17.4039411598      17.0000000000
10136 2      15.2543088916      18.0000000000
10137 2      18.7908069982      16.0000000000
10138 2      14.6012028307      17.0000000000
10139 2      14.2917471708      20.0000000000
10140 2      15.1270498695      19.0000000000
10141 2      17.3249392868      22.0000000000
10142 2      15.7594517619      17.0000000000
10143 2      17.0475754356      16.0000000000
10144 2      15.6055656191      18.0000000000
10145 2      17.0439998587      21.0000000000
10146 2      15.3109457708      20.0000000000
10147 2      14.3466986429      16.0000000000
10148 2      17.0001464938      18.0000000000
10149 2      15.6825601292      22.0000000000
10150 2      22.8785681623      22.0000000000
10151 2      14.0219185389      15.0000000000
10152 2      14.6252280552      14.0000000000
10153 2      16.2358555544      19.0000000000
10154 2      14.6213540841      17.0000000000
10155 2      16.7717888960      18.0000000000
10156 2      16.3806574303      18.0000000000
10157 2      14.9046480011      16.0000000000
10158 2      14.5500091308      17.0000000000
10159 2      16.1320174994      15.0000000000
10160 2      14.9140682131      20.0000000000
10161 2      16.2300210312      20.0000000000
10162 2      14.0667140479      16.0000000000
10163 2      14.4849538535      17.0000000000
10164 2      17.2141946662      20.0000000000
10165 2      14.6954582697      15.0000000000
10166 2      16.7773563835      17.0000000000
10167 2      14.0959205640      16.0000000000
10168 2      15.8237961207      16.0000000000
10169 2      15.8514780126      17.0000000000
10170 2      15.3595588494      18.0000000000
10171 2      17.0248741878      15.0000000000
10172 2      14.7930990973      16.0000000000
10173 2      15.6428676248      13.0000000000
10174 2      16.7273849278      16.0000000000
10175 2      15.3566812598      18.0000000000
10176 2      14.7933974997      19.0000000000
10177 2      15.1623295842      17.0000000000
10178 2      17.2418975379      20.0000000000
10179 2      14.7319856844      16.0000000000
10180 2      11.5689384950      12.0000000000
10181 2      17.6620053198      18.0000000000
10182 2      15.3286110545      19.0000000000
10183 2      14.8765046566      18.0000000000
10184 2      13.8080176852      15.0000000000
10185 2      15.2752927696      14.0000000000
10186 2      15.2497878269      20.0000000000
10187 2      16.0424359129      23.0000000000
10188 2      14.6523188996      17.0000000000
10189 2      17.3218875342      19.0000000000
10190 2      16.6708806188      21.0000000000
10191 2      15.9296919652      18.0000000000
10192 2      13.6232294052      19.0000000000
10193 2      15.4962494307      15.0000000000
10194 2      19.6456715572      20.0000000000
10195 2      17.1889135433      17.0000000000
10196 2      14.8382461081      19.0000000000
10197 2      13.6567874772      17.0000000000
10198 2      16.0109165810      14.0000000000
10199 2      16.2715421652      20.0000000000
10200 2      13.3696001811      18.0000000000
10201 2      13.8812511196      15.0000000000
10202 2      15.7735770218      18.0000000000
10203 2      19.0860215588      19.0000000000
10204 2      18.4427868457      16.0000000000
10205 2      14.2079194816      17.0000000000
10206 2      16.8729178221      16.0000000000
10207 2      15.6179789194      14.0000000000
10208 2      16.6391621603      20.0000000000
10209 2      13.8085647543      16.0000000000
10210 2      16.9541772367      17.0000000000
10211 2      18.3018896616      22.0000000000
10212 2      15.1569730533      17.0000000000
10213 2      16.1153389442      16.0000000000
10214 2      16.0987838886      20.0000000000
10215 2      17.1174957310      18.0000000000
10216 2      13.8605516662      14.0000000000
10217 2      13.8485688399      18.0000000000
10218 2      15.1474219526      17.0000000000
10219 2      17.0172736747      16.0000000000
10220 2      16.7516771280      19.0000000000
10221 2      14.3022415749      16.0000000000
10222 2      15.3982132764      16.0000000000
10223 2      14.4177833016      20.0000000000
10224 2      19.3418363311      17.0000000000
10225 2      19.8783493924      21.0000000000
10226 2      18.1948335193      15.0000000000
10227 2      18.2912444237      18.0000000000
10228 2      18.9219460227      20.0000000000
10229 2      13.5454727064      13.0000000000
10230 2      14.7751313340      15.0000000000
10231 2      16.9323741518      15.0000000000
10232 2      15.4279512157      16.0000000000
10233 2      13.7211785071      16.0000000000
10234 2      13.9275222174      13.0000000000
10235 2      16.7142684985      20.0000000000
10236 2      18.9432134984      19.0000000000
10237 2      15.5922970299      20.0000000000
10238 2      16.7929903897      16.0000000000
10239 2      17.2757628603      21.0000000000
10240 2      13.9519181169      14.0000000000
10241 2      14.5351936973      17.0000000000
10242 2      15.1409489191      18.0000000000
10243 2      14.8410479568      18.0000000000
10244 2      20.9829935911      18.0000000000
10245 2      18.8323357379      19.0000000000
10246 2      19.1875690547      16.0000000000
10247 2      15.7308783929      18.0000000000
10248 2      14.4877040145      16.0000000000
10249 2      16.1134476092      21.0000000000
10250 2      16.7370261415      19.0000000000
10251 2      14.2944700261      15.0000000000
10252 2      14.3041661127      16.0000000000
10253 2      13.2823219712      17.0000000000
10254 2      18.0905758574      17.0000000000
10255 2      16.1490865947      17.0000000000
10256 2      16.3767443290      17.0000000000
10257 2      14.1446484092      16.0000000000
10258 2      16.2920200875      18.0000000000
10259 2      15.4211454372      18.0000000000
10260 2      15.4621977521      18.0000000000
10261 2      16.7021261100      16.0000000000
10262 2      15.0705895095      21.0000000000
10263 2      16.6854775094      20.0000000000
10264 2      14.6043970953      16.0000000000
10265 2      15.9654477890      19.0000000000
10266 2      13.4372331685      16.0000000000
10267 2      15.6010935773      18.0000000000
10268 2      12.9901890504      16.0000000000
10269 2      19.7787763499      20.0000000000
10270 2      17.0712494884      21.0000000000
10271 2      15.0716791713      17.0000000000
10272 2      16.7907429020      16.0000000000
10273 2      15.6312707316      15.0000000000
10274 2      18.5340074617      20.0000000000
10275 2      14.4834884483      17.0000000000
10276 2      18.4605556601      17.0000000000
10277 2      14.6250009829      16.0000000000
10278 2      15.0525844108      16.0000000000
10279 2      16.7356318659      15.0000000000
10280 2      15.5599006924      18.0000000000
10281 2      13.8482177606      15.0000000000
10282 2      17.1313052683      17.0000000000
10283 2      15.5208108803      22.0000000000
10284 2      12.8046440833      16.0000000000
10285 2      15.0061140104      17.0000000000
10286 2      16.4649925268      19.0000000000
10287 2      17.8723398667      19.0000000000
10288 2      16.8243707586      18.0000000000
10289 2      13.8312181729      18.0000000000
10290 2      16.1027089583      18.0000000000
10291 2      17.3846564882      21.0000000000
10292 2      18.2278823651      20.0000000000
10293 2      15.3251810928      18.0000000000
10294 2      19.3960341902      16.0000000000
10295 2      15.0106324507      17.0000000000
10296 2      19.1358076419      19.0000000000
10297 2      15.4161145667      16.0000000000
10298 2      16.1309041867      15.0000000000
10299 2      13.8670453015      16.0000000000
10300 2      16.0234587339      20.0000000000
10301 2      15.4690321589      16.0000000000
10302 2      14.8836690864      17.0000000000
10303 2      15.0443080605      20.0000000000
10304 2      14.4694288513      19.0000000000
10305 2      14.3935175935      19.0000000000
10306 2      14.2728258235      18.0000000000
10307 2      17.1669465051      17.0000000000
10308 2      17.5970973879      18.0000000000
10309 2      20.2601668097      22.0000000000
10310 2      17.2033294264      15.0000000000
10311 2      14.5468377410      17.0000000000
10312 2      14.5128863170      18.0000000000
10313 2      13.7230586052      17.0000000000
10314 2      15.0192769102      17.0000000000
10315 2      18.7200341096      22.0000000000
10316 2      15.8631074190      17.0000000000
10317 2      18.5114668065      19.0000000000
10318 2      14.6176640444      18.0000000000
10319 2      19.7615717500      21.0000000000
10320 2      14.7653214425      18.0000000000
10321 2      17.7781946940      21.0000000000
10322 2      15.0667458790      17.0000000000
10323 2      15.0938950173      14.0000000000
10324 2      14.4951980537      14.0000000000
10325 2      15.1406116895      18.0000000000
10326 2      12.8181983451      15.0000000000
10327 2      14.0461612815      16.0000000000
10328 2      16.8588738444      20.0000000000
10329 2      19.3399566177      20.0000000000
10330 2      17.0813875572      21.0000000000
10331 2      13.5265287028      17.0000000000
10332 2      15.4533680565      17.0000000000
10333 2      13.1029216852      16.0000000000
10334 2      14.6780817177      18.0000000000
10335 2      16.0300183996      19.0000000000
10336 2      15.7645372006      18.0000000000
10337 2      14.5274437249      15.0000000000
10338 2      14.6359654476      16.0000000000
10339 2      14.5559817237      16.0000000000
10340 2      15.2478546128      15.0000000000
10341 2      19.5303418044      22.0000000000
10342 2      16.0827418557      15.0000000000
10343 2      15.1694987973      19.0000000000
10344 2      13.6582149533      16.0000000000
10345 2      14.2300646129      19.0000000000
10346 2      15.6395065211      18.0000000000
10347 2      14.6284647940      15.0000000000
10348 2      15.7242384869      13.0000000000
10349 2      14.3364013353      14.0000000000
10350 2      13.0069379357      16.0000000000
10351 2      14.0642878423      18.0000000000
10352 2      13.8996214523      19.0000000000
10353 2      15.3673047604      17.0000000000
10354 2      15.9316950670      17.0000000000
10355 2      13.6092906882      17.0000000000
10356 2      14.5556368619      14.0000000000
10357 2      16.7021222897      18.0000000000
10358 2      15.1731857304      13.0000000000
10359 2      15.3398797129      22.0000000000
10360 2      13.8689707755      19.0000000000
10361 2      16.0852633884      16.0000000000
10362 2      21.1275059402      20.0000000000
10363 2      16.7919678929      21.0000000000
10364 2      16.6059456469      14.0000000000
10365 2      17.8118174937      16.0000000000
10366 2      17.8189173382      19.0000000000
10367 2      14.5947682519      16.0000000000
10368 2      15.3601797967      18.0000000000
10369 2      16.4122883373      16.0000000000
10370 2      14.8486769922      20.0000000000
10371 2      16.0527698310      19.0000000000
10372 2      15.8852711372      16.0000000000
10373 2      15.8666178643      17.0000000000
10374 2      16.1418002647      17.0000000000
10375 2      12.6684148139      13.0000000000
10376 2      13.6622551147      18.0000000000
10377 2      16.2058549438      15.0000000000
10378 2      18.5272872705      16.0000000000
10379 2      13.3349907457      14.0000000000
10380 2      15.0850827590      18.0000000000
10381 2      15.9290904398      20.0000000000
10382 2      14.8879926965      18.0000000000
10383 2      18.0290009501      18.0000000000
10384 2      16.8995883599      16.0000000000
10385 2      18.1458299828      17.0000000000
10386 2      14.1942394722      17.0000000000
10387 2      15.0422704367      13.0000000000
10388 2      15.9711658077      18.0000000000
10389 2      14.2611326654      18.0000000000
10390 2      15.0926369884      20.0000000000
10391 2      14.3352814813      20.0000000000
10392 2      19.3924168841      17.0000000000
10393 2      13.8700053934      15.0000000000
10394 2      14.0183372953      19.0000000000
10395 2      20.3392005973      15.0000000000
10396 2      14.2596301292      16.0000000000
10397 2      17.1868319468      16.0000000000
10398 2      15.9833619475      23.0000000000
10399 2      13.6642093373      16.0000000000
10400 2      16.2614060129      15.0000000000
10401 2      16.9522954481      17.0000000000
10402 2      13.7035893926      15.0000000000
10403 2      14.4069543725      17.0000000000
10404 2      17.2161553336      17.0000000000
10405 2      15.3902594054      16.0000000000
10406 2      16.7887413774      19.0000000000
10407 2      15.1870450415      20.0000000000
10408 2      21.2502758599      23.0000000000
10409 2      14.8716764307      15.0000000000
10410 2      16.9832343370      18.0000000000
10411 2      16.6906176710      17.0000000000
10412 2      16.5906873955      18.0000000000
10413 2      16.2242710078      14.0000000000
10414 2      17.7131803567      19.0000000000
10415 2      15.4503809085      20.0000000000
10416 2      15.8508753079      18.0000000000
10417 2      17.2377906385      22.0000000000
10418 2      18.8551476552      18.0000000000
10419 2      15.7019925530      19.0000000000
10420 2      14.4693220598      18.0000000000
10421 2      18.2665154795      14.0000000000
10422 2      17.5498312762      22.0000000000
10423 2      14.7979336935      19.0000000000
10424 2      15.7301716708      17.0000000000
10425 2      20.1378180603      16.0000000000
10426 2      13.9249569055      19.0000000000
10427 2      13.9463189946      18.0000000000
10428 2      15.7249393398      15.0000000000
10429 2      13.4665100203      15.0000000000
10430 2      14.6153867305      17.0000000000
10431 2      13.9979686925      17.0000000000
10432 2      14.8216550629      16.0000000000
10433 2      15.9836957294      15.0000000000
10434 2      17.7081641947      19.0000000000
10435 2      16.4426148652      16.0000000000
10436 2      16.2452188302      17.0000000000
10437 2      14.0387588778      18.0000000000
10438 2      13.9838496380      14.0000000000
10439 2      14.7137828335      18.0000000000
10440 2      15.7268501766      15.0000000000
10441 2      16.6679304966      19.0000000000
10442 2      19.8031303877      18.0000000000
10443 2      21.4852900455      18.0000000000
10444 2      13.5951553768      16.0000000000
10445 2      19.4719613861      20.0000000000
10446 2      18.2502621851      19.0000000000
10447 2      16.2308526551      14.0000000000
10448 2      23.3569543001      22.0000000000
10449 2      13.3719105900      17.0000000000
10450 2      14.3710826488      18.0000000000
10451 2      14.4245631266      16.0000000000
10452 2      15.1166189151      15.0000000000
10453 2      16.2544536319      24.0000000000
10454 2      15.6627124475      21.0000000000
10455 2      13.4042138979      17.0000000000
10456 2      14.8586455652      15.0000000000
10457 2      19.4264366377      23.0000000000
10458 2      16.0106735508      18.0000000000
10459 2      17.3439262236      21.0000000000
10460 2      19.3456047807      16.0000000000
10461 2      15.0953107757      16.0000000000
10462 2      13.9071704564      19.0000000000
10463 2      14.5613341464      18.0000000000
10464 2      18.1427817696      19.0000000000
10465 2      15.4258760341      15.0000000000
10466 2      14.6364546707      17.0000000000
10467 2      18.1316004808      23.0000000000
10468 2      13.8750203859      18.0000000000
10469 2      16.3241770591      17.0000000000
10470 2      14.5627044778      14.0000000000
10471 2      16.3609748774      19.0000000000
10472 2      17.8082251794      17.0000000000
10473 2      14.4055697094      17.0000000000
10474 2      13.3353514512      18.0000000000
10475 2      13.9938004650      20.0000000000
10476 2      12.4237602785      19.0000000000
10477 2      17.5109914846      21.0000000000
10478 2      18.9111738321      15.0000000000
10479 2      18.7079711784      17.0000000000
10480 2      16.6860332663      18.0000000000
10481 2      18.4919611826      18.0000000000
10482 2      16.2378757118      20.0000000000
10483 2      18.3760651039      16.0000000000
10484 2      17.1732579322      17.0000000000
10485 2      18.0513068022      22.0000000000
10486 2      19.7651369625      21.0000000000
10487 2      14.3567314269      16.0000000000
10488 2      14.8780255358      16.0000000000
10489 2      13.9929847534      16.0000000000
10490 2      18.2439441478      20.0000000000
10491 2      14.8211362742      19.0000000000
10492 2      15.9147643362      17.0000000000
10493 2      17.0064270305      17.0000000000
10494 2      16.7192071511      18.0000000000
10495 2      17.9839567107      15.0000000000
10496 2      15.1562538501      16.0000000000
10497 2      15.9898709646      21.0000000000
10498 2      16.2903068158      15.0000000000
10499 2      14.1349470143      16.0000000000
10500 2      17.0316081208      16.0000000000
10501 2      15.6020543277      15.0000000000
10502 2      16.8907782575      20.0000000000
10503 2      14.5371148342      18.0000000000
10504 2      17.0145880607      14.0000000000
10505 2      19.0333681597      21.0000000000
10506 2      15.4896940439      20.0000000000
10507 2      15.8064309297      15.0000000000
10508 2      21.4281329272      19.0000000000
10509 2      15.8667285070      18.0000000000
10510 2      15.1284013436      17.0000000000
10511 2      14.4982514755      16.0000000000
10512 2      17.7210752587      20.0000000000
10513 2      13.7294961442      17.0000000000
10514 2      14.3822520693      20.0000000000
10515 2      15.4999332515      16.0000000000
10516 2      15.0064015884      13.0000000000
10517 2      15.7448740890      18.0000000000
10518 2      17.0274359604      22.0000000000
10519 2      13.8531998662      17.0000000000
10520 2      18.7029786440      18.0000000000
10521 2      20.2994764798      19.0000000000
10522 2      17.4858532942      21.0000000000
10523 2      13.2669957236      15.0000000000
10524 2      15.0446175103      17.0000000000
10525 2      18.1639614684      23.0000000000
10526 2      16.4225549166      19.0000000000
10527 2      16.7745934056      18.0000000000
10528 2      15.1070190788      19.0000000000
10529 2      16.1644829508      15.0000000000
10530 2      14.0284244878      18.0000000000
10531 2      18.1173568237      19.0000000000
10532 2      15.5147882543      14.0000000000
10533 2      18.1880669466      18.0000000000
10534 2      17.0069829136      17.0000000000
10535 2      15.8508120600      16.0000000000
10536 2      16.0063300615      21.0000000000
10537 2      14.8789990899      21.0000000000
10538 2      16.8603903964      17.0000000000
10539 2      16.6356477326      16.0000000000
10540 2      13.7331019761      19.0000000000
10541 2      14.5558272808      16.0000000000
10542 2      14.9921817677      17.0000000000
10543 2      14.9082953532      19.0000000000
10544 2      14.8368242591      15.0000000000
10545 2      17.1485142261      19.0000000000
10546 2      16.0807032578      16.0000000000
10547 2      15.7169933035      14.0000000000
10548 2      14.0128869331      15.0000000000
10549 2      17.3281738944      18.0000000000
10550 2      15.6931822881      17.0000000000
10551 2      15.7813231277      17.0000000000
10552 2      12.6271941283      15.0000000000
10553 2      20.2608407111      16.0000000000
10554 2      17.4721887205      21.0000000000
10555 2      15.9647436333      19.0000000000
10556 2      14.7239349414      18.0000000000
10557 2      19.8046756622      17.0000000000
10558 2      14.5113148198      20.0000000000
10559 2      16.0390985027      18.0000000000
10560 2      17.4835698229      19.0000000000
10561 2      13.3990294779      18.0000000000
10562 2      15.7785349263      19.0000000000
10563 2      12.5309739394      16.0000000000
10564 2      17.0387261686      19.0000000000
10565 2      15.9554826602      16.0000000000
10566 2      15.7890155422      19.0000000000
10567 2      16.2590013422      19.0000000000
10568 2      15.8148903917      19.0000000000
10569 2      14.0112561007      19.0000000000
10570 2      15.8311649099      17.0000000000
10571 2      16.9589777487      19.0000000000
10572 2      16.8721064964      20.0000000000
10573 2      14.6422287802      18.0000000000
10574 2      16.8044233911      19.0000000000
10575 2      14.6116028595      20.0000000000
10576 2      15.0220097408      17.0000000000
10577 2      15.2238386384      18.0000000000
10578 2      17.1701780293      18.0000000000
10579 2      14.9776332533      19.0000000000
10580 2      16.0540899684      15.0000000000
10581 2      20.4806845444      16.0000000000
10582 2      16.8251809875      15.0000000000
10583 2      17.1286003715      20.0000000000
10584 2      16.4011132253      22.0000000000
10585 2      17.5454893216      19.0000000000
10586 2      14.8157007878      21.0000000000
10587 2      16.5937135359      19.0000000000
10588 2      15.4331467302      14.0000000000
10589 2      17.8649085569      19.0000000000
10590 2      12.2310863761      14.0000000000
10591 2      16.0920914252      16.0000000000
10592 2      14.9725354128      14.0000000000
10593 2      17.6452634091      22.0000000000
10594 2      14.8049511393      16.0000000000
10595 2      14.4359700140      17.0000000000
10596 2      13.7834009818      15.0000000000
10597 2      16.7361319646      20.0000000000
10598 2      14.8570775900      17.0000000000
10599 2      15.1894615963      18.0000000000
10600 2      20.0184498871      19.0000000000
10601 2      17.2429335255      23.0000000000
10602 2      15.2178329035      17.0000000000
10603 2      15.2754104770      16.0000000000
10604 2      11.9406023404      16.0000000000
10605 2      18.5514040958      19.0000000000
10606 2      15.2771106285      20.0000000000
10607 2      14.7281197202      14.0000000000
10608 2      16.6969821976      17.0000000000
10609 2      16.1348089731      15.0000000000
10610 2      14.0126599550      16.0000000000
10611 2      14.6784496887      19.0000000000
10612 2      19.5078950480      19.0000000000
10613 2      15.6008150959      17.0000000000
10614 2      17.3212266821      17.0000000000
10615 2      17.8669234568      19.0000000000
10616 2      15.5346774656      19.0000000000
10617 2      15.6758891191      17.0000000000
10618 2      21.7397073486      25.0000000000
10619 2      16.1672879090      14.0000000000
10620 2      16.6002239569      18.0000000000
10621 2      15.0217130758      19.0000000000
10622 2      17.1067518300      16.0000000000
10623 2      16.1921491526      20.0000000000
10624 2      14.7844870631      16.0000000000
10625 2      14.2312992776      14.0000000000
10626 2      16.1370423027      16.0000000000
10627 2      17.7473356735      13.0000000000
10628 2      13.7138947588      18.0000000000
10629 2      15.1139528280      19.0000000000
10630 2      16.3890029560      17.0000000000
10631 2      15.5169385548      17.0000000000
10632 2      14.2974259036      19.0000000000
10633 2      14.3471770698      17.0000000000
10634 2      15.2623334610      18.0000000000
10635 2      14.4157787043      15.0000000000
10636 2      18.5292114567      16.0000000000
10637 2      14.6522231912      19.0000000000
10638 2      16.6586521888      17.0000000000
10639 2      15.7022486790      21.0000000000
10640 2      19.4308284832      17.0000000000
10641 2      17.2062329672      17.0000000000
10642 2      17.4419996894      20.0000000000
10643 2      14.9627719791      15.0000000000
10644 2      15.9528714229      16.0000000000
10645 2      15.6435915105      16.0000000000
10646 2      15.9661015361      14.0000000000
10647 2      14.5173386712      19.0000000000
10648 2      15.8857887117      19.0000000000
10649 2      15.5875925767      18.0000000000
10650 2      17.8728143065      18.0000000000
10651 2      14.8904642861      19.0000000000
10652 2      13.7199340958      17.0000000000
10653 2      14.5627209886      16.0000000000
10654 2      14.4128421998      19.0000000000
10655 2      16.7498205562      17.0000000000
10656 2      16.4721348884      17.0000000000
10657 2      16.4116371182      19.0000000000
10658 2      14.1137827954      14.0000000000
10659 2      15.0664201696      17.0000000000
10660 2      15.1322217145      20.0000000000
10661 2      15.2485968949      21.0000000000
10662 2      15.1447417990      19.0000000000
10663 2      14.7521595860      15.0000000000
10664 2      12.7368528848      13.0000000000
10665 2      13.2231063697      16.0000000000
10666 2      16.8965465977      15.0000000000
10667 2      14.7382919685      17.0000000000
10668 2      15.1112627013      18.0000000000
10669 2      13.6284819848      17.0000000000
10670 2      17.7882624155      16.0000000000
10671 2      16.9165816022      18.0000000000
10672 2      16.9606345803      20.0000000000
10673 2      14.1532453370      17.0000000000
10674 2      14.8557156611      18.0000000000
10675 2      14.3917832364      16.0000000000
10676 2      17.7920913966      19.0000000000
10677 2      15.3954913384      15.0000000000
10678 2      16.2977248315      17.0000000000
10679 2      17.8950597419      18.0000000000
10680 2      17.7309248909      20.0000000000
10681 2      15.8466910023      16.0000000000
10682 2      16.5491483374      20.0000000000
10683 2      14.2168991276      17.0000000000
10684 2      14.9280789854      19.0000000000
10685 2      14.2098475625      15.0000000000
10686 2      12.8448946553      15.0000000000
10687 2      15.0705482034      22.0000000000
10688 2      12.8118511659      16.0000000000
10689 2      20.1857772804      21.0000000000
10690 2      19.2494009177      20.0000000000
10691 2      16.4846003785      19.0000000000
10692 2      15.6971064386      19.0000000000
10693 2      15.2841811477      17.0000000000
10694 2      14.0897662871      19.0000000000
10695 2      13.4755332579      14.0000000000
10696 2      18.4371561243      14.0000000000
10697 2      15.7457567337      21.0000000000
10698 2      15.5407625152      15.0000000000
10699 2      17.0014117547      19.0000000000
10700 2      15.4341861693      17.0000000000
10701 2      14.4997432718      17.0000000000
10702 2      13.6589100476      19.0000000000
10703 2      16.5928521621      16.0000000000
10704 2      14.7298897321      15.0000000000
10705 2      16.9091894470      15.0000000000
10706 2      18.8654434824      20.0000000000
10707 2      17.1457399918      17.0000000000
10708 2      17.2912295632      14.0000000000
10709 2      14.7734229448      19.0000000000
10710 2      19.1905851283      20.0000000000
10711 2      16.1385616196      17.0000000000
10712 2      17.1155959630      16.0000000000
10713 2      14.4802372010      19.0000000000
10714 2      16.8768349451      19.0000000000
10715 2      14.8091528569      16.0000000000
10716 2      14.4907246664      20.0000000000
10717 2      15.2912793390      18.0000000000
10718 2      15.2699437543      20.0000000000
10719 2      17.1933074744      16.0000000000
10720 2      14.6329745513      16.0000000000
10721 2      13.4002634926      17.0000000000
10722 2      17.8686944067      21.0000000000
10723 2      14.8369840632      16.0000000000
10724 2      15.0167871247      15.0000000000
10725 2      14.1723719967      17.0000000000
10726 2      20.2411281607      17.0000000000
10727 2      14.1736297670      17.0000000000
10728 2      17.1105738557      21.0000000000
10729 2      17.7022440531      19.0000000000
10730 2      19.6837864170      16.0000000000
10731 2      14.0655321412      15.0000000000
10732 2      13.9900506748      15.0000000000
10733 2      15.5829873477      20.0000000000
10734 2      13.7738595506      15.0000000000
10735 2      17.9094858325      18.0000000000
10736 2      14.6592364256      16.0000000000
10737 2      15.5104259506      19.0000000000
10738 2      15.0608925778      14.0000000000
10739 2      16.4125542245      17.0000000000
10740 2      19.6395725608      21.0000000000
10741 2      14.2707328110      21.0000000000
10742 2      15.1544495263      17.0000000000
10743 2      15.2502122028      16.0000000000
10744 2      15.7253858402      17.0000000000
10745 2      14.5830436775      16.0000000000
10746 2      15.3876931854      16.0000000000
10747 2      16.9445983871      18.0000000000
10748 2      14.6117436351      17.0000000000
10749 2      18.2018197018      17.0000000000
10750 2      15.6978718635      16.0000000000
10751 2      15.9827885465      17.0000000000
10752 2      13.5040978980      16.0000000000
10753 2      16.1736105839      17.0000000000
10754 2      15.4158200912      20.0000000000
10755 2      18.1199461214      21.0000000000
10756 2      17.0870112689      16.0000000000
10757 2      15.8615227868      18.0000000000
10758 2      12.9662704364      17.0000000000
10759 2      18.3884267660      20.0000000000
10760 2      17.4260248147      17.0000000000
10761 2      17.4524193258      18.0000000000
10762 2      16.7939763976      13.0000000000
10763 2      15.4722459988      20.0000000000
10764 2      16.1105792762      13.0000000000
10765 2      15.6060187566      15.0000000000
10766 2      14.4497001556      19.0000000000
10767 2      17.0283503966      19.0000000000
10768 2      14.3935193668      15.0000000000
10769 2      14.4099047664      19.0000000000
10770 2      14.8250328539      18.0000000000
10771 2      14.4569850253      19.0000000000
10772 2      15.9816750221      20.0000000000
10773 2      15.6861674578      21.0000000000
10774 2      15.7801656926      18.0000000000
10775 2      13.2264363844      18.0000000000
10776 2      14.2709322026      15.0000000000
10777 2      15.6372887937      21.0000000000
10778 2      17.3639316485      19.0000000000
10779 2      18.7771112609      20.0000000000
10780 2      16.8101658727      20.0000000000
10781 2      18.7750403582      18.0000000000
10782 2      15.1924492145      17.0000000000
10783 2      17.1526833524      25.0000000000
10784 2      18.6187980660      15.0000000000
10785 2      14.3997176044      17.0000000000
10786 2      16.3110167409      18.0000000000
10787 2      16.3646528583      19.0000000000
10788 2      17.1867211873      20.0000000000
10789 2      15.2062697675      18.0000000000
10790 2      15.6508514939      17.0000000000
10791 2      15.2671331806      16.0000000000
10792 2      16.2734680403      17.0000000000
10793 2      13.3792843907      16.0000000000
10794 2      17.1167021614      15.0000000000
10795 2      17.6931559609      16.0000000000
10796 2      17.0728216500      17.0000000000
10797 2      19.5842846071      20.0000000000
10798 2      15.3553625582      20.0000000000
10799 2      15.3502152409      17.0000000000
10800 2      15.9386560535      16.0000000000
10801 2      20.4202135564      22.0000000000
10802 2      21.9476167586      20.0000000000
10803 2      14.6745008314      18.0000000000
10804 2      16.9299138863      15.0000000000
10805 2      18.0954657427      15.0000000000
10806 2      14.7686728160      16.0000000000
10807 2      15.7855677412      17.0000000000
10808 2      14.2585242534      16.0000000000
10809 2      14.2662067702      15.0000000000
10810 2      15.2751438239      18.0000000000
10811 2      14.9751887743      14.0000000000
10812 2      14.8397864301      13.0000000000
10813 2      15.6727872027      20.0000000000
10814 2      14.9595760747      20.0000000000
10815 2      15.6140760633      19.0000000000
10816 2      16.8140076760      19.0000000000
10817 2      15.8955406615      12.0000000000
10818 2      14.3675037188      18.0000000000
10819 2      16.4794044439      15.0000000000
10820 2      19.9436969034      18.0000000000
10821 2      12.3715814732      15.0000000000
10822 2      17.1113933836      16.0000000000
10823 2      15.7855622398      22.0000000000
10824 2      13.8395393952      16.0000000000
10825 2      17.6612321723      20.0000000000
10826 2      16.6230903467      16.0000000000
10827 2      17.8815376028      17.0000000000
10828 2      16.3509705587      18.0000000000
10829 2      16.2464897507      17.0000000000
10830 2      17.2474652587      19.0000000000
10831 2      17.5316508007      19.0000000000
10832 2      19.5661278098      17.0000000000
10833 2      17.0609413069      21.0000000000
10834 2      19.6325126863      17.0000000000
10835 2      14.9711896455      18.0000000000
10836 2      14.9847629155      17.0000000000
10837 2      19.1715082268      21.0000000000
10838 2      13.7344916587      14.0000000000
10839 2      16.8142706788      18.0000000000
10840 2      17.5710261749      20.0000000000
10841 2      14.8206775561      13.0000000000
10842 2      19.6649738970      17.0000000000
10843 2      16.5219256091      13.0000000000
10844 2      16.1557204111      20.0000000000
10845 2      16.1842300319      16.0000000000
10846 2      13.8807421279      16.0000000000
10847 2      16.7859196750      17.0000000000
10848 2      13.5304426058      14.0000000000
10849 2      15.8364224116      18.0000000000
10850 2      15.2738921331      17.0000000000
10851 2      13.6997812621      15.0000000000
10852 2      16.7499514792      17.0000000000
10853 2      19.0190244661      21.0000000000
10854 2      15.1804779899      17.0000000000
10855 2      13.9069816581      16.0000000000
10856 2      14.5955039000      15.0000000000
10857 2      14.5330520165      18.0000000000
10858 2      14.6065796140      15.0000000000
10859 2      17.3899996762      16.0000000000
10860 2      16.4879303874      17.0000000000
10861 2      18.4750174265      23.0000000000
10862 2      17.6434809862      22.0000000000
10863 2      16.4651588454      17.0000000000
10864 2      16.5277154423      16.0000000000
10865 2      14.8651302997      17.0000000000
10866 2      14.5879064782      20.0000000000
10867 2      15.3662716348      18.0000000000
10868 2      14.3825616692      17.0000000000
10869 2      15.9397642129      16.0000000000
10870 2      15.6826550384      17.0000000000
10871 2      14.2349438466      17.0000000000
10872 2      14.6759533226      15.0000000000
10873 2      14.4365726540      14.0000000000
10874 2      17.5609980528      19.0000000000
10875 2      16.2387647451      17.0000000000
10876 2      16.3393980418      16.0000000000
10877 2      14.2002759468      17.0000000000
10878 2      15.0060878526      20.0000000000
10879 2      15.9486622354      21.0000000000
10880 2      15.8378969564      19.0000000000
10881 2      14.1627168758      15.0000000000
10882 2      15.7654717526      13.0000000000
10883 2      12.4798166162      16.0000000000
10884 2      16.4816241140      14.0000000000
10885 2      14.9515217529      15.0000000000
10886 2      15.3355622154      18.0000000000
10887 2      17.6536533980      20.0000000000
10888 2      14.4854327846      16.0000000000
10889 2      17.7525321768      18.0000000000
10890 2      14.7470074585      17.0000000000
10891 2      14.4383293386      17.0000000000
10892 2      15.7188469366      19.0000000000
10893 2      15.2414203388      14.0000000000
10894 2      15.0666890909      14.0000000000
10895 2      15.2422980229      15.0000000000
10896 2      20.0989354687      20.0000000000
10897 2      15.6740120209      15.0000000000
10898 2      14.5117734301      21.0000000000
10899 2      15.4044030840      19.0000000000
10900 2      14.6479257290      15.0000000000
10901 2      16.1366845787      18.0000000000
10902 2      15.8663786114      18.0000000000
10903 2      16.8163245228      19.0000000000
10904 2      17.6189565741      16.0000000000
10905 2      15.8379021366      20.0000000000
10906 2      18.4361882314      18.0000000000
10907 2      13.7641889074      18.0000000000
10908 2      17.4815549033      20.0000000000
10909 2      15.1971801464      17.0000000000
10910 2      16.0919974136      21.0000000000
10911 2      16.0604289874      19.0000000000
10912 2      14.8878881225      16.0000000000
10913 2      17.5264511822      21.0000000000
10914 2      14.9518209294      19.0000000000
10915 2      16.9806759692      19.0000000000
10916 2      15.8704994449      19.0000000000
10917 2      16.6766113550      14.0000000000
10918 2      14.7697863504      18.0000000000
10919 2      16.5572936363      17.0000000000
10920 2      14.5374594984      19.0000000000
10921 2      14.4626916118      17.0000000000
10922 2      17.2248991721      18.0000000000
10923 2      14.0794656221      14.0000000000
10924 2      17.4831887699      20.0000000000
10925 2      16.5307759788      19.0000000000
10926 2      15.2697542411      16.0000000000
10927 2      18.6375571626      19.0000000000
10928 2      15.2756700364      20.0000000000
10929 2      18.2636672374      15.0000000000
10930 2      18.6448284773      18.0000000000
10931 2      15.6486582187      18.0000000000
10932 2      19.4895540770      23.0000000000
10933 2      16.1113276971      19.0000000000
10934 2      14.5554006432      18.0000000000
10935 2      15.4331252687      18.0000000000
10936 2      15.0449752463      18.0000000000
10937 2      13.7322157858      15.0000000000
10938 2      16.6078303541      18.0000000000
10939 2      14.5939797285      14.0000000000
10940 2      16.3868947241      21.0000000000
10941 2      16.4755871555      22.0000000000
10942 2      17.6719838193      18.0000000000
10943 2      14.0567437058      18.0000000000
10944 2      13.3948538670      17.0000000000
10945 2      21.9097644031      20.0000000000
10946 2      15.4835887491      15.0000000000
10947 2      18.5368672024      19.0000000000
10948 2      15.2891334858      21.0000000000
10949 2      16.6540218507      16.0000000000
10950 2      16.2352886232      17.0000000000
10951 2      16.8057564407      19.0000000000
10952 2      18.3965489814      19.0000000000
10953 2      18.7058634306      19.0000000000
10954 2      17.4496325594      20.0000000000
10955 2      16.5798984648      14.0000000000
10956 2      15.3626441167      16.0000000000
10957 2      17.3795566715      16.0000000000
10958 2      17.6135773277      17.0000000000
10959 2      15.0831394483      15.0000000000
10960 2      14.5275124105      17.0000000000
10961 2      14.2282410719      16.0000000000
10962 2      17.4306451658      18.0000000000
10963 2      15.5488997244      16.0000000000
10964 2      14.1326120170      15.0000000000
10965 2      15.4595476837      18.0000000000
10966 2      16.1349362060      21.0000000000
10967 2      14.9289009018      15.0000000000
10968 2      14.7012809205      17.0000000000
10969 2      14.7574195049      14.0000000000
10970 2      16.2693717641      17.0000000000
10971 2      15.7563571035      17.0000000000
10972 2      15.8984175170      17.0000000000
10973 2      16.5293112980      15.0000000000
10974 2      16.1500880446      16.0000000000
10975 2      15.3499604678      20.0000000000
10976 2      14.0458635096      16.0000000000
10977 2      15.7850867843      20.0000000000
10978 2      15.2525512750      17.0000000000
10979 2      14.0377776333      17.0000000000
10980 2      17.8805836963      19.0000000000
10981 2      15.7698400744      17.0000000000
10982 2      16.3234525357      18.0000000000
10983 2      16.0146226107      20.0000000000
10984 2      17.8474647787      19.0000000000
10985 2      14.6064799599      15.0000000000
10986 2      13.7834437421      16.0000000000
10987 2      18.3469104219      21.0000000000
10988 2      20.5493449366      19.0000000000
10989 2      17.0935240376      19.0000000000
10990 2      15.2599932850      19.0000000000
10991 2      18.0371410658      18.0000000000
10992 2      15.0354496082      17.0000000000
10993 2      18.3259739623      18.0000000000
10994 2      13.9387172265      15.0000000000
10995 2      14.3873898484      18.0000000000
10996 2      16.6212952463      22.0000000000
10997 2      14.4991780502      20.0000000000
10998 2      14.5738986247      17.0000000000
10999 2      16.3234976976      17.0000000000
11000 2      15.7933628340      19.0000000000
11001 2      14.2308489329      18.0000000000
11002 2      16.8853541037      18.0000000000
11003 2      14.5519476484      19.0000000000
11004 2      16.4142986854      17.0000000000
11005 2      17.1326670436      20.0000000000
11006 2      15.2905278691      16.0000000000
11007 2      15.5452248983      23.0000000000
11008 2      14.0260699423      14.0000000000
11009 2      15.3653258973      15.0000000000
11010 2      14.9761682663      15.0000000000
11011 2      14.9941670816      17.0000000000
11012 2      16.3457557662      19.0000000000
11013 2      14.8322854790      20.0000000000
11014 2      16.5038610032      19.0000000000
11015 2      14.8756384583      16.0000000000
11016 2      17.5946771532      15.0000000000
11017 2      17.7505722617      16.0000000000
11018 2      15.6021497945      18.0000000000
11019 2      17.1128788331      21.0000000000
11020 2      21.3621742606      18.0000000000
11021 2      16.5032992535      16.0000000000
11022 2      16.6496120972      18.0000000000
11023 2      14.6975476528      15.0000000000
11024 2      19.5342843072      20.0000000000
11025 2      18.0293514943      22.0000000000
11026 2      19.8947239331      21.0000000000
11027 2      16.5392625651      17.0000000000
11028 2      17.3659925969      17.0000000000
11029 2      14.8875334279      17.0000000000
11030 2      15.0852745777      16.0000000000
11031 2      15.3691506556      17.0000000000
11032 2      16.4377092582      20.0000000000
11033 2      16.4868006322      17.0000000000
11034 2      15.0726826097      16.0000000000
11035 2      15.2588764819      22.0000000000
11036 2      16.8877090877      20.0000000000
11037 2      18.8142167999      21.0000000000
11038 2      14.8681008861      21.0000000000
11039 2      17.3581408148      18.0000000000
11040 2      13.4048819856      16.0000000000
11041 2      16.1000242230      14.0000000000
11042 2      15.7148249195      17.0000000000
11043 2      19.9729723633      18.0000000000
11044 2      16.3945188315      17.0000000000
11045 2      13.7448354123      18.0000000000
11046 2      15.1308572244      15.0000000000
11047 2      18.7605182386      19.0000000000
11048 2      19.2894206822      23.0000000000
11049 2      17.8245626037      22.0000000000
11050 2      15.2104441517      15.0000000000
11051 2      15.5044156582      17.0000000000
11052 2      16.9790201735      19.0000000000
11053 2      18.7969847207      17.0000000000
11054 2      17.4861134188      18.0000000000
11055 2      14.7923269319      20.0000000000
11056 2      19.2942029067      24.0000000000
11057 2      15.5641313445      19.0000000000
11058 2      14.7785450844      18.0000000000
11059 2      17.6651089497      18.0000000000
11060 2      17.9115747212      17.0000000000
11061 2      18.3904367521      15.0000000000
11062 2      14.7443800770      16.0000000000
11063 2      15.0880050170      18.0000000000
11064 2      16.7866712833      19.0000000000
11065 2      13.2081220792      16.0000000000
11066 2      22.4503450835      23.0000000000
11067 2      14.8601927609      18.0000000000
11068 2      14.7610214151      16.0000000000
11069 2      12.8507237744      14.0000000000
11070 2      14.2985752816      16.0000000000
11071 2      16.2478107505      18.0000000000
11072 2      13.9905084820      13.0000000000
11073 2      15.8868489033      17.0000000000
11074 2      15.7141549674      21.0000000000
11075 2      22.7278941646      23.0000000000
11076 2      17.4748169243      18.0000000000
11077 2      16.4260836517      20.0000000000
11078 2      18.2430390264      20.0000000000
11079 2      16.3401341672      18.0000000000
11080 2      17.0365951675      18.0000000000
11081 2      16.8101163856      21.0000000000
11082 2      13.6836533072      17.0000000000
11083 2      16.3564857876      16.0000000000
11084 2      18.4348650597      18.0000000000
11085 2      16.3939880832      17.0000000000
11086 2      18.9447260829      21.0000000000
11087 2      15.9295604799      18.0000000000
11088 2      14.9607787429      18.0000000000
11089 2      17.6229682124      20.0000000000
11090 2      14.1480277241      15.0000000000
11091 2      14.9463610063      15.0000000000
11092 2      16.4901176144      17.0000000000
11093 2      13.9822481415      19.0000000000
11094 2      16.5200526945      16.0000000000
11095 2      15.6167268752      18.0000000000
11096 2      15.6992097576      13.0000000000
11097 2      17.2615235320      20.0000000000
11098 2      16.3052916035      18.0000000000
11099 2      16.6491630224      20.0000000000
11100 2      17.6499526682      19.0000000000
11101 2      16.0283961186      16.0000000000
11102 2      15.0449594180      19.0000000000
11103 2      18.4263468041      21.0000000000
11104 2      15.9472555802      16.0000000000
11105 2      14.9604854135      18.0000000000
11106 2      14.4120301133      16.0000000000
11107 2      14.2603870975      15.0000000000
11108 2      13.9971144328      17.0000000000
11109 2      14.9551781916      19.0000000000
11110 2      15.4242667593      17.0000000000
11111 2      14.7699624313      15.0000000000
11112 2      15.5731334994      17.0000000000
11113 2      14.9373458513      20.0000000000
11114 2      16.6335628434      17.0000000000
11115 2      17.3878475472      20.0000000000
11116 2      15.9694306945      17.0000000000
11117 2      18.4757831498      20.0000000000
11118 2      13.0323454780      17.0000000000
11119 2      17.5730043261      20.0000000000
11120 2      19.1513383466      17.0000000000
11121 2      14.9230059425      18.0000000000
11122 2      17.1229725730      20.0000000000
11123 2      15.3618775134      18.0000000000
11124 2      18.2391892325      19.0000000000
11125 2      15.2821003453      16.0000000000
11126 2      14.7336490820      20.0000000000
11127 2      14.8873103971      15.0000000000
11128 2      16.8619751197      17.0000000000
11129 2      16.1689993095      14.0000000000
11130 2      19.9966536253      21.0000000000
11131 2      16.3638894124      17.0000000000
11132 2      15.5045141135      15.0000000000
11133 2      13.6486430511      15.0000000000
11134 2      16.3276031867      19.0000000000
11135 2      14.1422903197      16.0000000000
11136 2      14.2532478025      16.0000000000
11137 2      12.8265325167      15.0000000000
11138 2      16.5963646383      19.0000000000
11139 2      16.2113698673      19.0000000000
11140 2      17.4491705589      18.0000000000
11141 2      13.3595069425      14.0000000000
11142 2      14.0377294710      18.0000000000
11143 2      14.4637069928      17.0000000000
11144 2      15.9348551457      16.0000000000
11145 2      14.9375339041      14.0000000000
11146 2      13.8780552282      17.0000000000
11147 2      15.1576737411      19.0000000000
11148 2      17.2034938340      18.0000000000
11149 2      13.8305600471      15.0000000000
11150 2      13.8052119498      16.0000000000
11151 2      13.4418594630      15.0000000000
11152 2      12.6991239515      14.0000000000
11153 2      16.6752923092      17.0000000000
11154 2      16.5547341255      18.0000000000
11155 2      15.9083484590      14.0000000000
11156 2      12.7338607717      14.0000000000
11157 2      13.6233050677      18.0000000000
11158 2      16.5586678364      19.0000000000
11159 2      14.2479524769      17.0000000000
11160 2      15.1271517965      20.0000000000
11161 2      17.6183387190      15.0000000000
11162 2      14.5451044336      14.0000000000
11163 2      13.6047998315      17.0000000000
11164 2      14.5041242071      16.0000000000
11165 2      17.9631031405      20.0000000000
11166 2      14.2278589090      17.0000000000
11167 2      17.8743568869      16.0000000000
11168 2      15.1843088935      16.0000000000
11169 2      17.5942516556      14.0000000000
11170 2      13.5134754033      14.0000000000
11171 2      17.8932308718      16.0000000000
11172 2      14.5294095056      15.0000000000
11173 2      18.7658723644      17.0000000000
11174 2      17.3036406936      18.0000000000
11175 2      17.6422156756      20.0000000000
11176 2      16.4198930882      21.0000000000
11177 2      15.1301611339      22.0000000000
11178 2      14.6372174151      16.0000000000
11179 2      14.1806441150      15.0000000000
11180 2      16.5348445023      16.0000000000
11181 2      13.9825306807      16.0000000000
11182 2      14.2736543123      17.0000000000
11183 2      15.3751673659      11.0000000000
11184 2      18.9478386392      17.0000000000
11185 2      16.0567418771      20.0000000000
11186 2      16.1771253612      15.0000000000
11187 2      13.9700251720      17.0000000000
11188 2      13.4134184303      16.0000000000
11189 2      13.1215399986      17.0000000000
11190 2      13.9462339311      17.0000000000
11191 2      15.9408366005      21.0000000000
11192 2      16.9672808052      22.0000000000
11193 2      15.4793072422      17.0000000000
11194 2      14.5048926638      15.0000000000
11195 2      17.9601355544      17.0000000000
11196 2      14.5378384123      17.0000000000
11197 2      16.9262453130      17.0000000000
11198 2      16.8546206016      23.0000000000
11199 2      17.4147956086      20.0000000000
11200 2      17.2369196881      16.0000000000
11201 2      13.8120254004      16.0000000000
11202 2      13.1088021654      14.0000000000
11203 2      14.4771902840      16.0000000000
11204 2      13.8229823650      16.0000000000
11205 2      14.0296161757      15.0000000000
11206 2      16.1023573790      16.0000000000
11207 2      14.6244661457      19.0000000000
11208 2      17.8602055042      20.0000000000
11209 2      16.3922169777      19.0000000000
11210 2      15.2353938387      20.0000000000
11211 2      15.9164281987      21.0000000000
11212 2      16.9119869617      17.0000000000
11213 2      17.5090863050      19.0000000000
11214 2      13.0555192734      17.0000000000
11215 2      16.0853755275      17.0000000000
11216 2      16.3567158157      16.0000000000
11217 2      17.1746508356      16.0000000000
11218 2      14.6346316847      17.0000000000
11219 2      14.9363561314      20.0000000000
11220 2      15.0597277185      16.0000000000
11221 2      18.0233660223      18.0000000000
11222 2      17.9923752637      16.0000000000
11223 2      15.3583070236      17.0000000000
11224 2      14.5763402019      20.0000000000
11225 2      13.9229348147      13.0000000000
11226 2      14.3882353088      20.0000000000
11227 2      13.9600156431      17.0000000000
11228 2      16.1229918748      19.0000000000
11229 2      17.0904669410      21.0000000000
11230 2      14.1932071762      17.0000000000
11231 2      14.2116576674      18.0000000000
11232 2      13.9479842201      17.0000000000
11233 2      13.8544587761      17.0000000000
11234 2      15.6114158442      17.0000000000
11235 2      17.4421551954      20.0000000000
11236 2      13.7737477410      18.0000000000
11237 2      20.2103176916      22.0000000000
11238 2      15.7227591971      17.0000000000
11239 2      14.2507734654      13.0000000000
11240 2      13.8197448227      15.0000000000
11241 2      16.0067050497      17.0000000000
11242 2      16.6956728530      19.0000000000
11243 2      14.1473270056      17.0000000000
11244 2      14.8811584970      24.0000000000
11245 2      17.4313443710      19.0000000000
11246 2      21.6799687632      18.0000000000
11247 2      14.3695929452      16.0000000000
11248 2      14.0379842432      18.0000000000
11249 2      16.5134917816      20.0000000000
11250 2      14.2350383440      16.0000000000
11251 2      19.4922492422      23.0000000000
11252 2      14.6924947611      16.0000000000
11253 2      13.0357011230      16.0000000000
11254 2      15.9443798812      18.0000000000
11255 2      16.5778614062      16.0000000000
11256 2      16.3055999522      17.0000000000
11257 2      18.6283507777      16.0000000000
11258 2      19.1571285377      17.0000000000
11259 2      17.9550260633      17.0000000000
11260 2      16.1700016933      20.0000000000
11261 2      17.6270415994      17.0000000000
11262 2      15.1894566261      19.0000000000
11263 2      15.9073272111      16.0000000000
11264 2      16.7770075977      18.0000000000
11265 2      16.5692962843      16.0000000000
11266 2      17.2262773993      18.0000000000
11267 2      14.4700771632      15.0000000000
11268 2      14.6516571053      17.0000000000
11269 2      22.5072237179      20.0000000000
11270 2      13.0751111304      21.0000000000
11271 2      14.1254695042      17.0000000000
11272 2      13.5051750540      15.0000000000
11273 2      19.0972446955      20.0000000000
11274 2      15.2016854892      17.0000000000
11275 2      14.0518368224      13.0000000000
11276 2      16.0300991901      16.0000000000
11277 2      19.0888247968      20.0000000000
11278 2      15.8195906462      18.0000000000
11279 2      14.7300156666      16.0000000000
11280 2      20.3522781766      16.0000000000
11281 2      16.8892520214      23.0000000000
11282 2      13.7933273460      16.0000000000
11283 2      15.5391059224      19.0000000000
11284 2      15.9561935356      17.0000000000
11285 2      16.2465890951      20.0000000000
11286 2      15.1062401518      18.0000000000
11287 2      13.3734592436      14.0000000000
11288 2      16.1779214966      19.0000000000
11289 2      14.0519566039      18.0000000000
11290 2      17.1124030617      21.0000000000
11291 2      16.8670012568      20.0000000000
11292 2      13.5277878966      17.0000000000
11293 2      18.3066493994      19.0000000000
11294 2      20.5489256571      19.0000000000
11295 2      14.6890039939      22.0000000000
11296 2      15.4462814147      15.0000000000
11297 2      15.5832736004      16.0000000000
11298 2      17.6852442111      18.0000000000
11299 2      19.2615614246      14.0000000000
11300 2      14.8156352260      15.0000000000
11301 2      17.2434721007      20.0000000000
11302 2      16.2012640637      15.0000000000
11303 2      16.9895902195      18.0000000000
11304 2      15.6138816799      18.0000000000
11305 2      16.3543117031      21.0000000000
11306 2      14.3621524084      15.0000000000
11307 2      16.6291388630      18.0000000000
11308 2      16.1227685565      18.0000000000
11309 2      13.8353844605      16.0000000000
11310 2      15.7398942977      18.0000000000
11311 2      17.0153721557      16.0000000000
11312 2      15.4910761526      18.0000000000
11313 2      18.3608757806      23.0000000000
11314 2      16.5818389406      14.0000000000
11315 2      14.8494519556      17.0000000000
11316 2      15.8273472946      14.0000000000
11317 2      14.3968283211      18.0000000000
11318 2      17.7918839978      19.0000000000
11319 2      17.7947247307      19.0000000000
11320 2      12.9988625197      16.0000000000
11321 2      15.9691749013      16.0000000000
11322 2      17.1516484447      20.0000000000
11323 2      19.4754605435      20.0000000000
11324 2      16.9444186212      17.0000000000
11325 2      13.0399477305      19.0000000000
11326 2      17.1241361423      20.0000000000
11327 2      18.7971000366      24.0000000000
11328 2      17.7325675777      20.0000000000
11329 2      16.6221345167      15.0000000000
11330 2      18.5231710053      19.0000000000
11331 2      13.4144771166      15.0000000000
11332 2      14.7479491417      15.0000000000
11333 2      15.5356982770      16.0000000000
11334 2      13.4849960398      16.0000000000
11335 2      16.6122161715      16.0000000000
11336 2      13.2486311662      14.0000000000
11337 2      16.9131302678      14.0000000000
11338 2      14.6569566085      17.0000000000
11339 2      14.8537578664      15.0000000000
11340 2      18.8554531674      16.0000000000
11341 2      14.1600348004      15.0000000000
11342 2      16.1051962145      20.0000000000
11343 2      18.4216340919      14.0000000000
11344 2      16.2512611569      19.0000000000
11345 2      16.4031042102      20.0000000000
11346 2      17.9013320343      17.0000000000
11347 2      18.1620699316      20.0000000000
11348 2      16.0627029113      21.0000000000
11349 2      15.5276736433      17.0000000000
11350 2      15.3357864301      17.0000000000
11351 2      14.7180139320      19.0000000000
11352 2      16.3346438753      18.0000000000
11353 2      16.0999447357      18.0000000000
11354 2      16.9935779644      16.0000000000
11355 2      15.3481625307      19.0000000000
11356 2      17.0396662382      17.0000000000
11357 2      14.9519768455      18.0000000000
11358 2      18.4826437626      17.0000000000
11359 2      15.3595836184      17.0000000000
11360 2      15.5315627794      15.0000000000
11361 2      17.9891352044      15.0000000000
11362 2      17.7189052726      19.0000000000
11363 2      19.3013281215      21.0000000000
11364 2      14.9211969666      18.0000000000
11365 2      14.2640630602      18.0000000000
11366 2      14.8384954436      16.0000000000
11367 2      16.7396135470      14.0000000000
11368 2      18.3712960037      19.0000000000
11369 2      14.1748374903      17.0000000000
11370 2      15.6670105699      19.0000000000
11371 2      18.8265697374      23.0000000000
11372 2      14.1661749035      17.0000000000
11373 2      14.0941989433      17.0000000000
11374 2      16.0790363486      20.0000000000
11375 2      14.9622792924      17.0000000000
11376 2      14.5457995274      16.0000000000
11377 2      15.6671836168      17.0000000000
11378 2      15.1630500647      17.0000000000
11379 2      15.3408252664      17.0000000000
11380 2      14.3774249077      17.0000000000
11381 2      15.3267513886      22.0000000000
11382 2      14.2417619860      16.0000000000
11383 2      13.2943547984      19.0000000000
11384 2      14.6410412197      19.0000000000
11385 2      14.9958827282      18.0000000000
11386 2      16.2345684056      19.0000000000
11387 2      14.3150363783      17.0000000000
11388 2      14.9909963626      17.0000000000
11389 2      15.5779927374      20.0000000000
11390 2      18.0789251120      20.0000000000
11391 2      16.5904914474      17.0000000000
11392 2      13.6450988451      18.0000000000
11393 2      19.6673411371      18.0000000000
11394 2      19.0871860615      20.0000000000
11395 2      14.8166905849      16.0000000000
11396 2      15.4722233098      14.0000000000
11397 2      17.3186327435      17.0000000000
11398 2      15.7963126365      19.0000000000
11399 2      17.9577121393      16.0000000000
11400 2      13.9771372181      17.0000000000
11401 2      16.7392938693      17.0000000000
11402 2      15.0849631136      15.0000000000
11403 2      14.9608827436      15.0000000000
11404 2      15.3462982187      19.0000000000
11405 2      14.8093366729      16.0000000000
11406 2      15.6104344891      19.0000000000
11407 2      16.9894187745      21.0000000000
11408 2      14.0035888863      18.0000000000
11409 2      17.8734151894      16.0000000000
11410 2      14.6174893737      18.0000000000
11411 2      14.3482179669      20.0000000000
11412 2      19.4982320044      17.0000000000
11413 2      20.6631217283      19.0000000000
11414 2      16.9266478576      16.0000000000
11415 2      14.4785221982      15.0000000000
11416 2      16.6721580463      17.0000000000
11417 2      15.6847835921      17.0000000000
11418 2      14.6827724995      16.0000000000
11419 2      15.1073787730      16.0000000000
11420 2      16.1323968493      17.0000000000
11421 2      14.2319785408      15.0000000000
11422 2      15.3773864398      16.0000000000
11423 2      13.3190461012      16.0000000000
11424 2      15.4148053652      21.0000000000
11425 2      14.0841821125      19.0000000000
11426 2      17.5544526254      17.0000000000
11427 2      14.6516772433      19.0000000000
11428 2      18.0192200576      17.0000000000
11429 2      15.2732621325      16.0000000000
11430 2      14.7437362571      19.0000000000
11431 2      14.7948125401      16.0000000000
11432 2      15.3548005721      17.0000000000
11433 2      15.5858631914      17.0000000000
11434 2      16.3774381409      19.0000000000
11435 2      16.2258762584      18.0000000000
11436 2      15.4152551267      14.0000000000
11437 2      16.9404380633      19.0000000000
11438 2      15.4473631335      17.0000000000
11439 2      14.8376184659      17.0000000000
11440 2      13.8678404657      20.0000000000
11441 2      15.2727800164      17.0000000000
11442 2      13.6500018681      18.0000000000
11443 2      17.1824533433      17.0000000000
11444 2      14.1557525301      15.0000000000
11445 2      15.4884761364      22.0000000000
11446 2      16.8854684672      15.0000000000
11447 2      17.1527435400      18.0000000000
11448 2      15.8193627266      19.0000000000
11449 2      16.1747669245      21.0000000000
11450 2      13.6603858948      22.0000000000
11451 2      17.1349141054      15.0000000000
11452 2      14.9031241610      18.0000000000
11453 2      16.5837247460      19.0000000000
11454 2      14.5747142634      18.0000000000
11455 2      15.9150532785      14.0000000000
11456 2      14.0647785219      17.0000000000
11457 2      13.9432125427      14.0000000000
11458 2      18.3251852212      20.0000000000
11459 2      16.6070996582      19.0000000000
11460 2      13.3796353954      15.0000000000
11461 2      17.5995367967      15.0000000000
11462 2      13.3679784005      16.0000000000
11463 2      15.3378654330      20.0000000000
11464 2      14.0782336444      16.0000000000
11465 2      18.6690880161      16.0000000000
11466 2      15.0635422774      17.0000000000
11467 2      16.4441704782      15.0000000000
11468 2      14.4802373683      18.0000000000
11469 2      15.6063845577      19.0000000000
11470 2      16.3471359632      16.0000000000
11471 2      17.4086786543      16.0000000000
11472 2      17.4555765811      17.0000000000
11473 2      17.7959117644      17.0000000000
11474 2      15.4296308593      21.0000000000
11475 2      13.9315893542      14.0000000000
11476 2      15.8499906348      13.0000000000
11477 2      16.9613406756      18.0000000000
11478 2      16.2639563522      20.0000000000
11479 2      17.1716583288      13.0000000000
11480 2      14.6012018443      19.0000000000
11481 2      16.6007539105      17.0000000000
11482 2      16.5334480488      20.0000000000
11483 2      15.7810425877      15.0000000000
11484 2      18.7348408512      16.0000000000
11485 2      15.3594366993      18.0000000000
11486 2      14.8976362286      17.0000000000
11487 2      15.1286602579      18.0000000000
11488 2      16.4535163057      17.0000000000
11489 2      15.6623370622      17.0000000000
11490 2      16.8618770958      18.0000000000
11491 2      14.7225446893      17.0000000000
11492 2      16.6749263562      17.0000000000
11493 2      14.5888809980      18.0000000000
11494 2      14.6537010196      18.0000000000
11495 2      15.7463573031      17.0000000000
11496 2      15.2390134724      18.0000000000
11497 2      16.9024121209      21.0000000000
11498 2      15.1027203202      21.0000000000
11499 2      17.3403641907      16.0000000000
11500 2      14.4418378429      17.0000000000
11501 2      14.7816931944      17.0000000000
11502 2      22.7126066678      21.0000000000
11503 2      13.2929855846      17.0000000000
11504 2      14.3485793873      20.0000000000
11505 2      17.3727465036      22.0000000000
11506 2      16.8264473568      16.0000000000
11507 2      14.1754906433      18.0000000000
11508 2      16.6105346789      14.0000000000
11509 2      14.7918304695      19.0000000000
11510 2      14.8827122750      19.0000000000
11511 2      14.2500818883      17.0000000000
11512 2      15.0580253779      13.0000000000
11513 2      14.4430076198      16.0000000000
11514 2      13.8373954466      15.0000000000
11515 2      15.3615589468      18.0000000000
11516 2      16.7013720530      22.0000000000
11517 2      14.2370997753      14.0000000000
11518 2      13.9757380809      14.0000000000
11519 2      15.0689381049      14.0000000000
11520 2      15.0622501160      17.0000000000
11521 2      18.3243729975      19.0000000000
11522 2      18.6179354963      15.0000000000
11523 2      15.3965007202      17.0000000000
11524 2      17.8594790391      17.0000000000
11525 2      15.0011186226      17.0000000000
11526 2      16.9971310039      17.0000000000
11527 2      16.8041099264      18.0000000000
11528 2      14.9829345947      15.0000000000
11529 2      14.2560777836      17.0000000000
11530 2      17.9820977282      20.0000000000
11531 2      15.7392841783      21.0000000000
11532 2      15.4305885539      21.0000000000
11533 2      15.0164947434      18.0000000000
11534 2      17.0803756468      22.0000000000
11535 2      13.1452742124      14.0000000000
11536 2      14.5437539851      16.0000000000
11537 2      18.1379799658      20.0000000000
11538 2      17.3143631889      19.0000000000
11539 2      15.6719392412      18.0000000000
11540 2      17.0344738041      16.0000000000
11541 2      16.0170809104      15.0000000000
11542 2      16.6590698123      15.0000000000
11543 2      17.5481837614      17.0000000000
11544 2      13.9225738050      18.0000000000
11545 2      21.8094600595      22.0000000000
11546 2      15.3861784646      16.0000000000
11547 2      17.2127708835      14.0000000000
11548 2      13.9203700658      14.0000000000
11549 2      16.4884348867      16.0000000000
11550 2      15.9536648061      20.0000000000
11551 2      14.7090354849      18.0000000000
11552 2      16.5726529835      21.0000000000
11553 2      14.8138278435      14.0000000000
11554 2      18.6362449336      15.0000000000
11555 2      14.6019276666      18.0000000000
11556 2      15.4120800530      19.0000000000
11557 2      15.2056261773      18.0000000000
11558 2      14.1800294083      18.0000000000
11559 2      17.7243831449      15.0000000000
11560 2      14.6030606974      16.0000000000
11561 2      14.6572408385      18.0000000000
11562 2      14.0057102526      15.0000000000
11563 2      15.9712780733      18.0000000000
11564 2      14.0484604531      22.0000000000
11565 2      17.1078528104      17.0000000000
11566 2      17.7595752265      21.0000000000
11567 2      17.8967312239      16.0000000000
11568 2      12.7078302560      19.0000000000
11569 2      18.4260787833      21.0000000000
11570 2      15.4051872488      16.0000000000
11571 2      15.1999985772      15.0000000000
11572 2      15.3982840699      19.0000000000
11573 2      16.2794530871      20.0000000000
11574 2      21.4140752575      17.0000000000
11575 2      15.6739166652      17.0000000000
11576 2      14.3335066029      16.0000000000
11577 2      15.5786308609      16.0000000000
11578 2      15.7294974633      18.0000000000
11579 2      16.4196008502      17.0000000000
11580 2      16.2638300347      18.0000000000
11581 2      16.7617137094      19.0000000000
11582 2      15.7295155107      19.0000000000
11583 2      14.4743229331      14.0000000000
11584 2      13.7169483185      17.0000000000
11585 2      16.7387656806      15.0000000000
11586 2      15.9860101384      15.0000000000
11587 2      15.9598223252      17.0000000000
11588 2      15.7246895692      17.0000000000
11589 2      16.3830336519      14.0000000000
11590 2      16.9916937504      18.0000000000
11591 2      15.3412379452      19.0000000000
11592 2      16.1527116605      19.0000000000
11593 2      14.8566795728      15.0000000000
11594 2      15.0815794438      20.0000000000
11595 2      16.3774333015      21.0000000000
11596 2      20.7764415427      23.0000000000
11597 2      16.7117066791      18.0000000000
11598 2      13.9193954909      16.0000000000
11599 2      13.5551115229      16.0000000000
11600 2      15.1621253390      17.0000000000
11601 2      14.1741015524      14.0000000000
11602 2      14.8279438024      20.0000000000
11603 2      17.7715941653      15.0000000000
11604 2      14.4845107799      17.0000000000
11605 2      15.0275477447      14.0000000000
11606 2      15.3552680677      15.0000000000
11607 2      17.9737509336      16.0000000000
11608 2      14.7707725622      18.0000000000
11609 2      15.7022955710      16.0000000000
11610 2      18.9303613568      24.0000000000
11611 2      14.7868528389      16.0000000000
11612 2      14.2787675508      19.0000000000
11613 2      14.7111392068      17.0000000000
11614 2      14.1049672632      16.0000000000
11615 2      15.0929230422      19.0000000000
11616 2      15.5407248602      15.0000000000
11617 2      15.8773351828      21.0000000000
11618 2      18.5960055095      20.0000000000
11619 2      15.5335749622      18.0000000000
11620 2      16.1044754597      19.0000000000
11621 2      16.8280158776      19.0000000000
11622 2      17.6194562784      20.0000000000
11623 2      17.3736128641      19.0000000000
11624 2      18.5064231370      19.0000000000
11625 2      16.9410350215      18.0000000000
11626 2      13.8871024531      14.0000000000
11627 2      18.7890386542      16.0000000000
11628 2      15.1268985779      18.0000000000
11629 2      17.6033200878      20.0000000000
11630 2      13.1560115668      18.0000000000
11631 2      13.6293997389      15.0000000000
11632 2      14.2255594081      16.0000000000
11633 2      14.7986957451      20.0000000000
11634 2      20.0892162785      24.0000000000
11635 2      16.5067332815      17.0000000000
11636 2      13.7038202188      16.0000000000
11637 2      14.9566264524      16.0000000000
11638 2      15.1519587485      20.0000000000
11639 2      14.6952011086      19.0000000000
11640 2      17.2005162042      15.0000000000
11641 2      14.2127465594      18.0000000000
11642 2      18.3289767023      18.0000000000
11643 2      17.1849604140      22.0000000000
11644 2      13.8406038136      15.0000000000
11645 2      15.8156565452      20.0000000000
11646 2      15.6713380025      18.0000000000
11647 2      15.6521373017      19.0000000000
11648 2      13.0042409741      14.0000000000
11649 2      16.4037242193      18.0000000000
11650 2      13.1082397988      15.0000000000
11651 2      14.2625905059      19.0000000000
11652 2      15.2492165147      17.0000000000
11653 2      15.4403311990      19.0000000000
11654 2      16.5350636592      20.0000000000
11655 2      14.5123101914      17.0000000000
11656 2      16.7072495962      15.0000000000
11657 2      17.2490784267      18.0000000000
11658 2      15.5135733368      17.0000000000
11659 2      14.9174233924      15.0000000000
11660 2      14.4794754241      14.0000000000
11661 2      13.7872364561      16.0000000000
11662 2      18.6885988380      22.0000000000
11663 2      13.9200948877      14.0000000000
11664 2      15.6194510706      19.0000000000
11665 2      14.3596608925      16.0000000000
11666 2      14.5832642990      16.0000000000
11667 2      16.9989698366      17.0000000000
11668 2      14.2278136399      14.0000000000
11669 2      17.5970148161      20.0000000000
11670 2      16.8007386939      17.0000000000
11671 2      15.1753336999      21.0000000000
11672 2      19.0293035408      18.0000000000
11673 2      16.3692819591      18.0000000000
11674 2      12.6237088785      15.0000000000
11675 2      13.9709579456      17.0000000000
11676 2      14.9644373253      18.0000000000
11677 2      17.1498830772      19.0000000000
11678 2      16.2018458049      22.0000000000
11679 2      16.4430437450      20.0000000000
11680 2      15.9402956770      18.0000000000
11681 2      14.1215399792      19.0000000000
11682 2      15.8430833689      17.0000000000
11683 2      16.6604346754      14.0000000000
11684 2      16.2490946699      17.0000000000
11685 2      14.4688730848      18.0000000000
11686 2      15.8766165977      19.0000000000
11687 2      15.5404964414      16.0000000000
11688 2      15.6893227822      17.0000000000
11689 2      14.8817397527      17.0000000000
11690 2      16.5083300422      18.0000000000
11691 2      15.3542817797      17.0000000000
11692 2      15.2099964649      19.0000000000
11693 2      14.6592090986      18.0000000000
11694 2      17.5470274119      14.0000000000
11695 2      13.6426686886      15.0000000000
11696 2      16.6055428407      18.0000000000
11697 2      14.9797971604      14.0000000000
11698 2      16.7136148626      14.0000000000
11699 2      14.4254646536      17.0000000000
11700 2      16.6848521550      13.0000000000
11701 2      19.1223286149      15.0000000000
11702 2      19.2998739193      22.0000000000
11703 2      15.4605136573      16.0000000000
11704 2      15.7292360311      19.0000000000
11705 2      17.5819152211      18.0000000000
11706 2      18.3262960331      19.0000000000
11707 2      14.0055211461      16.0000000000
11708 2      15.1415589197      18.0000000000
11709 2      14.6041123182      17.0000000000
11710 2      15.2796290957      17.0000000000
11711 2      16.3431012270      15.0000000000
11712 2      15.4116567638      19.0000000000
11713 2      15.2333621800      14.0000000000
11714 2      15.5293315228      16.0000000000
11715 2      18.1986055947      17.0000000000
11716 2      16.5580461286      16.0000000000
11717 2      13.7496531084      17.0000000000
11718 2      17.8155511237      18.0000000000
11719 2      16.9035232865      18.0000000000
11720 2      13.1807513594      12.0000000000
11721 2      15.5273633592      17.0000000000
11722 2      17.4578754568      15.0000000000
11723 2      18.6350583989      15.0000000000
11724 2      13.9178952957      15.0000000000
11725 2      13.9881147058      14.0000000000
11726 2      13.4647854739      14.0000000000
11727 2      14.6073357038      18.0000000000
11728 2      13.3707718178      18.0000000000
11729 2      16.9963408259      22.0000000000
11730 2      16.9876449887      15.0000000000
11731 2      16.8443698649      14.0000000000
11732 2      18.2496779423      15.0000000000
11733 2      15.6855217243      14.0000000000
11734 2      14.5954512817      19.0000000000
11735 2      14.5128906980      16.0000000000
11736 2      13.4597025200      14.0000000000
11737 2      15.0865187106      19.0000000000
11738 2      13.7744198660      16.0000000000
11739 2      14.8912745936      16.0000000000
11740 2      13.1058348361      15.0000000000
11741 2      18.8950839651      23.0000000000
11742 2      13.1736505158      17.0000000000
11743 2      17.4629961649      14.0000000000
11744 2      17.0193676115      18.0000000000
11745 2      16.5208589977      20.0000000000
11746 2      15.7836194463      19.0000000000
11747 2      15.6532890147      17.0000000000
11748 2      16.5419033827      19.0000000000
11749 2      15.6628872269      17.0000000000
11750 2      14.4812472400      18.0000000000
11751 2      12.4196795158      11.0000000000
11752 2      18.1157543316      15.0000000000
11753 2      18.0284988651      17.0000000000
11754 2      13.9427652674      15.0000000000
11755 2      14.2326402151      15.0000000000
11756 2      16.3940428471      15.0000000000
11757 2      17.5885510464      21.0000000000
11758 2      14.6144189104      17.0000000000
11759 2      14.3506675142      16.0000000000
11760 2      16.8778322368      20.0000000000
11761 2      15.6399577750      17.0000000000
11762 2      13.2054632067      16.0000000000
11763 2      13.8726832757      20.0000000000
11764 2      15.9995020884      19.0000000000
11765 2      17.2573675013      17.0000000000
11766 2      16.4508753476      18.0000000000
11767 2      15.1670856276      19.0000000000
11768 2      19.6572108862      20.0000000000
11769 2      13.5025292904      18.0000000000
11770 2      17.0236655052      19.0000000000
11771 2      13.1958515499      15.0000000000
11772 2      18.3310539601      20.0000000000
11773 2      14.6956877056      15.0000000000
11774 2      15.6922205998      16.0000000000
11775 2      16.4065244218      19.0000000000
11776 2      14.1713629935      15.0000000000
11777 2      15.1250722185      20.0000000000
11778 2      15.3438465339      17.0000000000
11779 2      13.7037016886      15.0000000000
11780 2      15.8325880071      14.0000000000
11781 2      18.1461240126      18.0000000000
11782 2      13.5826391349      16.0000000000
11783 2      16.4233425034      18.0000000000
11784 2      15.5278648606      20.0000000000
11785 2      16.7537216130      21.0000000000
11786 2      16.9005786287      19.0000000000
11787 2      16.0971077003      19.0000000000
11788 2      16.5223783948      18.0000000000
11789 2      14.2719845278      15.0000000000
11790 2      17.8872273510      19.0000000000
11791 2      21.1395323898      25.0000000000
11792 2      18.3512710933      23.0000000000
11793 2      14.3165408223      16.0000000000
11794 2      16.6484575618      16.0000000000
11795 2      17.2160872936      21.0000000000
11796 2      17.3712143255      21.0000000000
11797 2      15.8281897653      15.0000000000
11798 2      17.5875217277      17.0000000000
11799 2      14.9191648092      18.0000000000
11800 2      14.5696888488      15.0000000000
11801 2      18.9631671527      19.0000000000
11802 2      18.4273925314      19.0000000000
11803 2      13.8011339403      16.0000000000
11804 2      15.5045222040      18.0000000000
11805 2      14.8359533135      17.0000000000
11806 2      20.0218584952      22.0000000000
11807 2      12.2815921294      14.0000000000
11808 2      15.7991082407      20.0000000000
11809 2      17.9516850532      19.0000000000
11810 2      17.2016802902      21.0000000000
11811 2      13.9197168171      15.0000000000
11812 2      16.2709428686      21.0000000000
11813 2      16.0677804950      21.0000000000
11814 2      13.3425633630      15.0000000000
11815 2      14.9618956298      15.0000000000
11816 2      15.8481947820      14.0000000000
11817 2      16.1052118325      19.0000000000
11818 2      19.8077049118      16.0000000000
11819 2      15.0082252523      18.0000000000
11820 2      19.7436840707      19.0000000000
11821 2      15.2002045939      17.0000000000
11822 2      13.0356598700      17.0000000000
11823 2      17.1237514844      16.0000000000
11824 2      15.2636704763      18.0000000000
11825 2      19.0688950796      18.0000000000
11826 2      15.0643865604      20.0000000000
11827 2      13.8137473313      17.0000000000
11828 2      16.7351243218      17.0000000000
11829 2      14.5916868155      19.0000000000
11830 2      16.8222667914      19.0000000000
11831 2      17.0776815331      16.0000000000
11832 2      15.8873076947      17.0000000000
11833 2      14.8813058822      18.0000000000
11834 2      18.0930898208      16.0000000000
11835 2      17.1646935684      20.0000000000
11836 2      16.9295391894      13.0000000000
11837 2      16.7666821273      14.0000000000
11838 2      17.2077849085      20.0000000000
11839 2      15.9534246141      19.0000000000
11840 2      17.3146381963      18.0000000000
11841 2      15.6860970321      18.0000000000
11842 2      15.4580304950      20.0000000000
11843 2      18.5807168323      19.0000000000
11844 2      12.7506140293      14.0000000000
11845 2      14.2773913785      18.0000000000
11846 2      12.9918224285      15.0000000000
11847 2      16.6125314876      19.0000000000
11848 2      16.5664988147      18.0000000000
11849 2      15.7641461387      19.0000000000
11850 2      16.0413169860      15.0000000000
11851 2      16.9647601147      17.0000000000
11852 2      12.6584545847      12.0000000000
11853 2      13.6770359450      15.0000000000
11854 2      13.7888833046      16.0000000000
11855 2      16.7295342749      16.0000000000
11856 2      17.6414004700      14.0000000000
11857 2      17.2413928265      23.0000000000
11858 2      15.5631884809      17.0000000000
11859 2      16.8564100070      21.0000000000
11860 2      14.7990118840      16.0000000000
11861 2      14.8057869361      17.0000000000
11862 2      14.5443796005      14.0000000000
11863 2      14.2264342007      18.0000000000
11864 2      15.1838250818      17.0000000000
11865 2      16.0591580860      15.0000000000
11866 2      17.6691997184      19.0000000000
11867 2      16.0878295880      17.0000000000
11868 2      14.5107600396      18.0000000000
11869 2      15.9774100054      20.0000000000
11870 2      19.5138251905      18.0000000000
11871 2      15.4361146946      18.0000000000
11872 2      19.0793581149      18.0000000000
11873 2      16.2070089205      22.0000000000
11874 2      15.3405681485      18.0000000000
11875 2      13.8153769138      14.0000000000
11876 2      14.8364232107      16.0000000000
11877 2      15.8173686057      16.0000000000
11878 2      14.6336828468      15.0000000000
11879 2      15.7855108666      17.0000000000
11880 2      14.0623737805      19.0000000000
11881 2      16.2886230730      19.0000000000
11882 2      13.4814973439      15.0000000000
11883 2      16.0754927830      16.0000000000
11884 2      15.9542649041      19.0000000000
11885 2      16.2570848119      16.0000000000
11886 2      14.1177297422      18.0000000000
11887 2      14.1011403340      21.0000000000
11888 2      14.3167510731      17.0000000000
11889 2      16.3416217266      17.0000000000
11890 2      14.8084948968      18.0000000000
11891 2      13.3553938033      20.0000000000
11892 2      15.1140088859      18.0000000000
11893 2      15.4071558561      19.0000000000
11894 2      19.3764017426      16.0000000000
11895 2      14.8453275519      15.0000000000
11896 2      17.8853480970      15.0000000000
11897 2      14.9838605187      16.0000000000
11898 2      18.5896631457      18.0000000000
11899 2      15.7938201020      19.0000000000
11900 2      14.1798583693      19.0000000000
11901 2      13.2725657725      18.0000000000
11902 2      18.4925739516      21.0000000000
11903 2      16.9728968231      19.0000000000
11904 2      15.3689690634      19.0000000000
11905 2      13.8229934782      18.0000000000
11906 2      15.7699724044      19.0000000000
11907 2      15.0662627937      14.0000000000
11908 2      15.5461630205      20.0000000000
11909 2      13.6819437532      19.0000000000
11910 2      15.7508113483      17.0000000000
11911 2      17.5004371804      19.0000000000
11912 2      14.3627352919      17.0000000000
11913 2      15.5010762626      16.0000000000
11914 2      16.0589543228      17.0000000000
11915 2      17.2001892773      17.0000000000
11916 2      15.3829601990      20.0000000000
11917 2      17.2306888008      14.0000000000
11918 2      15.6549346178      19.0000000000
11919 2      15.3332849416      19.0000000000
11920 2      16.3426085807      14.0000000000
11921 2      16.6765296206      19.0000000000
11922 2      14.4284048174      18.0000000000
11923 2      16.2933506893      15.0000000000
11924 2      15.7353908131      19.0000000000
11925 2      15.0329919677      19.0000000000
11926 2      13.9787864003      18.0000000000
11927 2      15.0078713043      16.0000000000
11928 2      16.1248056497      20.0000000000
11929 2      13.6406553714      16.0000000000
11930 2      15.2579023485      19.0000000000
11931 2      19.5395034996      23.0000000000
11932 2      15.9374034306      18.0000000000
11933 2      15.4087527665      14.0000000000
11934 2      15.5857490669      17.0000000000
11935 2      14.2719863959      17.0000000000
11936 2      16.8185324986      18.0000000000
11937 2      17.5441455853      16.0000000000
11938 2      14.3235963422      13.0000000000
11939 2      14.9881711481      15.0000000000
11940 2      18.2366393930      15.0000000000
11941 2      16.1385787312      24.0000000000
11942 2      17.1919745943      21.0000000000
11943 2      14.6459196435      21.0000000000
11944 2      17.6566736686      17.0000000000
11945 2      17.4920206751      19.0000000000
11946 2      15.5426860398      15.0000000000
11947 2      17.8848363424      19.0000000000
11948 2      16.5728335948      19.0000000000
11949 2      14.3110730425      14.0000000000
11950 2      16.6905844362      16.0000000000
11951 2      17.7275264234      18.0000000000
11952 2      16.0450276055      14.0000000000
11953 2      14.8316719597      17.0000000000
11954 2      16.6050241351      18.0000000000
11955 2      15.0742738112      17.0000000000
11956 2      18.5627609453      16.0000000000
11957 2      13.9239440267      18.0000000000
11958 2      14.3829975002      18.0000000000
11959 2      16.5823660514      17.0000000000
11960 2      13.4288527991      16.0000000000
11961 2      19.4212904216      20.0000000000
11962 2      14.7355488268      20.0000000000
11963 2      13.2739517498      15.0000000000
11964 2      14.4810223761      18.0000000000
11965 2      19.7194063160      17.0000000000
11966 2      15.9253904592      19.0000000000
11967 2      13.9329101882      15.0000000000
11968 2      17.6523099258      20.0000000000
11969 2      15.9326071065      18.0000000000
11970 2      18.3374520860      21.0000000000
11971 2      13.6990793430      15.0000000000
11972 2      16.0840728789      19.0000000000
11973 2      17.9001951096      22.0000000000
11974 2      16.0174299457      16.0000000000
11975 2      14.7124970551      18.0000000000
11976 2      16.6275849878      17.0000000000
11977 2      13.3312811833      14.0000000000
11978 2      14.6854131332      18.0000000000
11979 2      17.8541284757      19.0000000000
11980 2      15.0782490588      17.0000000000
11981 2      16.0650062152      17.0000000000
11982 2      15.7970908559      18.0000000000
11983 2      14.2977488557      17.0000000000
11984 2      13.9989506637      15.0000000000
11985 2      15.5093927109      15.0000000000
11986 2      15.3591050211      19.0000000000
11987 2      15.6883648764      16.0000000000
11988 2      16.0297448373      13.0000000000
11989 2      14.0710236152      15.0000000000
11990 2      16.6391075317      17.0000000000
11991 2      15.0176186093      17.0000000000
11992 2      15.7388809895      17.0000000000
11993 2      14.9559772480      18.0000000000
11994 2      15.1294942204      20.0000000000
11995 2      14.0428304982      22.0000000000
11996 2      17.8336402271      20.0000000000
11997 2      16.3134009015      21.0000000000
11998 2      16.3578653908      18.0000000000
11999 2      12.8180879699      17.0000000000
12000 2      14.3099517131      16.0000000000
12001 2      14.0715912402      16.0000000000
12002 2      17.6143568302      19.0000000000
12003 2      13.6260373103      18.0000000000
12004 2      13.6719154586      15.0000000000
12005 2      14.9991475532      16.0000000000
12006 2      17.0601479962      18.0000000000
12007 2      16.2496862818      19.0000000000
12008 2      17.8660513459      20.0000000000
12009 2      14.9973795992      18.0000000000
12010 2      14.2313575078      17.0000000000
12011 2      14.4250296807      17.0000000000
12012 2      15.3805123706      15.0000000000
12013 2      15.7824909062      20.0000000000
12014 2      14.7031547490      16.0000000000
12015 2      17.4354675051      16.0000000000
12016 2      17.0798081454      20.0000000000
12017 2      13.0664866545      14.0000000000
12018 2      17.0017630866      20.0000000000
12019 2      14.2125474083      17.0000000000
12020 2      16.7714250374      17.0000000000
12021 2      17.2323470718      16.0000000000
12022 2      16.9150243906      19.0000000000
12023 2      17.1692680004      17.0000000000
12024 2      15.2002266512      16.0000000000
12025 2      17.1479855045      16.0000000000
12026 2      15.3450207490      16.0000000000
12027 2      15.3831592861      16.0000000000
12028 2      18.5844093852      18.0000000000
12029 2      15.4301397894      17.0000000000
12030 2      18.6414302292      19.0000000000
12031 2      17.1728204182      20.0000000000
12032 2      19.1616109545      15.0000000000
12033 2      15.4483748106      18.0000000000
12034 2      17.2693210226      13.0000000000
12035 2      14.9439238411      21.0000000000
12036 2      16.0658451836      18.0000000000
12037 2      17.4848873167      21.0000000000
12038 2      16.3030233657      15.0000000000
12039 2      16.6437107869      21.0000000000
12040 2      15.3814303101      19.0000000000
12041 2      13.5000001139      14.0000000000
12042 2      14.3289340098      17.0000000000
12043 2      17.6836216662      21.0000000000
12044 2      15.7578166195      18.0000000000
12045 2      16.0264864084      20.0000000000
12046 2      16.7331078626      16.0000000000
12047 2      16.0554630684      23.0000000000
12048 2      13.2545257758      17.0000000000
12049 2      16.6608519823      18.0000000000
12050 2      13.3776711148      13.0000000000
12051 2      14.2610020640      16.0000000000
12052 2      15.5584896309      18.0000000000
12053 2      15.6740491097      13.0000000000
12054 2      14.4509467690      17.0000000000
12055 2      15.8770703332      18.0000000000
12056 2      12.4363022251      16.0000000000
12057 2      15.4709088966      15.0000000000
12058 2      14.0697568132      19.0000000000
12059 2      14.7462069890      16.0000000000
12060 2      15.3199797179      18.0000000000
12061 2      17.4633872037      19.0000000000
12062 2      17.2732918138      13.0000000000
12063 2      16.4946939511      18.0000000000
12064 2      18.9734764487      21.0000000000
12065 2      14.1118012649      15.0000000000
12066 2      14.7989246652      17.0000000000
12067 2      13.7653787850      17.0000000000
12068 2      18.2769917112      17.0000000000
12069 2      18.0035594833      18.0000000000
12070 2      15.8023489335      17.0000000000
12071 2      17.2936287836      20.0000000000
12072 2      19.0757405776      20.0000000000
12073 2      18.4600554859      20.0000000000
12074 2      13.4303979765      13.0000000000
12075 2      14.3351590461      17.0000000000
12076 2      16.0556951349      14.0000000000
12077 2      14.3959098589      16.0000000000
12078 2      16.9944450135      19.0000000000
12079 2      15.8937909449      16.0000000000
12080 2      14.1065930003      17.0000000000
12081 2      16.0894512682      18.0000000000
12082 2      11.8651732287      16.0000000000
12083 2      18.7352267994      20.0000000000
12084 2      13.7787438014      15.0000000000
12085 2      14.2816749382      16.0000000000
12086 2      13.7553512411      17.0000000000
12087 2      17.3939326105      19.0000000000
12088 2      16.0919247130      19.0000000000
12089 2      14.2809661814      16.0000000000
12090 2      14.9120578569      16.0000000000
12091 2      15.6418565551      19.0000000000
12092 2      14.9158984968      16.0000000000
12093 2      16.1948849342      15.0000000000
12094 2      18.3509065253      14.0000000000
12095 2      15.6361710109      14.0000000000
12096 2      19.3754031968      18.0000000000
12097 2      15.3356564760      16.0000000000
12098 2      15.0853555215      17.0000000000
12099 2      16.9672106770      15.0000000000
12100 2      14.3174305512      16.0000000000
12101 2      16.2023584048      17.0000000000
12102 2      17.5430489162      16.0000000000
12103 2      14.7281628728      15.0000000000
12104 2      14.8593796686      17.0000000000
12105 2      16.8981659762      15.0000000000
12106 2      15.9518118831      21.0000000000
12107 2      15.1195251610      14.0000000000
12108 2      15.4859400877      16.0000000000
12109 2      16.6571282143      19.0000000000
12110 2      15.5997843229      18.0000000000
12111 2      16.3754460127      17.0000000000
12112 2      16.5773864208      18.0000000000
12113 2      16.1529435022      18.0000000000
12114 2      17.3721984202      19.0000000000
12115 2      17.6467739572      17.0000000000
12116 2      18.1508725383      18.0000000000
12117 2      13.9201329212      19.0000000000
12118 2      13.3288951270      17.0000000000
12119 2      13.7018469384      17.0000000000
12120 2      14.3705595719      19.0000000000
12121 2      16.1678085631      18.0000000000
12122 2      15.6890270189      17.0000000000
12123 2      15.6078097454      18.0000000000
12124 2      14.6534236510      18.0000000000
12125 2      16.7156903710      16.0000000000
12126 2      15.5612519920      18.0000000000
12127 2      15.9711517200      17.0000000000
12128 2      18.3447849387      21.0000000000
12129 2      15.8734632510      16.0000000000
12130 2      16.9992497589      18.0000000000
12131 2      15.6555988856      18.0000000000
12132 2      18.2836465386      20.0000000000
12133 2      15.7951486187      16.0000000000
12134 2      16.0440516953      18.0000000000
12135 2      15.6697764880      17.0000000000
12136 2      14.3313574582      16.0000000000
12137 2      15.2511519594      17.0000000000
12138 2      14.6208406028      15.0000000000
12139 2      15.4040298264      17.0000000000
12140 2      16.0669456155      20.0000000000
12141 2      14.5835713997      16.0000000000
12142 2      16.2526777492      18.0000000000
12143 2      13.9361929653      17.0000000000
12144 2      19.1471706572      20.0000000000
12145 2      15.1858590355      16.0000000000
12146 2      15.7762038213      22.0000000000
12147 2      14.8337410574      20.0000000000
12148 2      17.6493594049      16.0000000000
12149 2      13.7932039363      17.0000000000
12150 2      14.5557299078      18.0000000000
12151 2      13.0440426960      17.0000000000
12152 2      14.4089194849      17.0000000000
12153 2      17.8435449146      18.0000000000
12154 2      17.8544724516      18.0000000000
12155 2      15.9961012285      16.0000000000
12156 2      15.6441992317      21.0000000000
12157 2      14.8596023648      17.0000000000
12158 2      15.3918152853      16.0000000000
12159 2      15.1689708480      17.0000000000
12160 2      14.8315174673      21.0000000000
12161 2      13.4107279491      18.0000000000
12162 2      14.7125341786      19.0000000000
12163 2      17.8180618819      19.0000000000
12164 2      14.5879408588      18.0000000000
12165 2      15.5664730364      18.0000000000
12166 2      14.8829706327      18.0000000000
12167 2      17.4887401715      16.0000000000
12168 2      17.4136058819      16.0000000000
12169 2      19.2397584373      18.0000000000
12170 2      14.1096767800      18.0000000000
12171 2      15.6749884996      22.0000000000
12172 2      17.7822684656      16.0000000000
12173 2      15.1033308986      16.0000000000
12174 2      17.3139206675      14.0000000000
12175 2      15.4104684564      19.0000000000
12176 2      13.8796268687      15.0000000000
12177 2      13.4002459355      15.0000000000
12178 2      14.6991468641      13.0000000000
12179 2      16.4736049022      20.0000000000
12180 2      16.1888197563      17.0000000000
12181 2      19.8789560909      17.0000000000
12182 2      14.4527647835      17.0000000000
12183 2      15.4855987989      14.0000000000
12184 2      17.6639617649      15.0000000000
12185 2      18.5343066364      19.0000000000
12186 2      18.4925276742      18.0000000000
12187 2      15.3135069836      16.0000000000
12188 2      16.6556838202      18.0000000000
12189 2      15.4992526217      16.0000000000
12190 2      16.9180386755      17.0000000000
12191 2      14.6040480027      22.0000000000
12192 2      13.6257410403      13.0000000000
12193 2      18.7987501238      17.0000000000
12194 2      15.5317232271      17.0000000000
12195 2      16.9037488918      19.0000000000
12196 2      15.7944521063      19.0000000000
12197 2      15.6488208547      17.0000000000
12198 2      18.3522123735      19.0000000000
12199 2      20.2292417982      21.0000000000
12200 2      14.5523940197      19.0000000000
12201 2      15.6020592244      16.0000000000
12202 2      17.2058861330      19.0000000000
12203 2      19.7593219692      23.0000000000
12204 2      13.7537382520      15.0000000000
12205 2      14.0375014485      15.0000000000
12206 2      19.1763625343      20.0000000000
12207 2      16.6567949364      18.0000000000
12208 2      15.6176087360      23.0000000000
12209 2      15.3569630983      17.0000000000
12210 2      15.9310325136      20.0000000000
12211 2      18.4474994506      16.0000000000
12212 2      15.8929465837      16.0000000000
12213 2      17.6995455810      21.0000000000
12214 2      15.9403991675      17.0000000000
12215 2      18.8793643316      17.0000000000
12216 2      16.5510732292      16.0000000000
12217 2      14.7837008057      18.0000000000
12218 2      16.5590319410      15.0000000000
12219 2      15.5390280400      20.0000000000
12220 2      15.8031330109      14.0000000000
12221 2      16.4617214116      21.0000000000
12222 2      16.4377225045      19.0000000000
12223 2      15.3791116759      15.0000000000
12224 2      20.9906593398      20.0000000000
12225 2      13.6573012871      14.0000000000
12226 2      16.6702771681      18.0000000000
12227 2      16.1921578485      15.0000000000
12228 2      15.5643151233      17.0000000000
12229 2      14.3687693297      19.0000000000
12230 2      19.2105778613      18.0000000000
12231 2      15.9690303636      15.0000000000
12232 2      15.2759361743      19.0000000000
12233 2      18.7804372352      20.0000000000
12234 2      14.0286126094      18.0000000000
12235 2      17.2751445815      17.0000000000
12236 2      14.5180287974      20.0000000000
12237 2      13.4060737984      16.0000000000
12238 2      15.9721301977      22.0000000000
12239 2      14.1442029477      15.0000000000
12240 2      15.0717065272      21.0000000000
12241 2      15.6094547554      19.0000000000
12242 2      15.5198416859      16.0000000000
12243 2      15.4104864291      19.0000000000
12244 2      14.5547268963      17.0000000000
12245 2      14.3065384875      18.0000000000
12246 2      14.2633769815      15.0000000000
12247 2      18.1151539344      20.0000000000
12248 2      13.9640299495      19.0000000000
12249 2      15.9482456333      17.0000000000
12250 2      18.4255640689      18.0000000000
12251 2      13.6265385043      17.0000000000
12252 2      15.5781664683      19.0000000000
12253 2      18.0518674527      23.0000000000
12254 2      14.0127777687      15.0000000000
12255 2      16.3133300178      18.0000000000
12256 2      16.8507715276      18.0000000000
12257 2      15.4848336476      18.0000000000
12258 2      15.8985681973      21.0000000000
12259 2      13.8482569227      17.0000000000
12260 2      13.5350720903      15.0000000000
12261 2      16.7811765849      18.0000000000
12262 2      14.6638096914      16.0000000000
12263 2      16.1524013222      15.0000000000
12264 2      15.7565354840      17.0000000000
12265 2      15.5128891935      20.0000000000
12266 2      15.4457254884      17.0000000000
12267 2      15.6413669068      16.0000000000
12268 2      21.1309535833      20.0000000000
12269 2      17.3590614090      17.0000000000
12270 2      14.0411048334      16.0000000000
12271 2      17.2679553647      15.0000000000
12272 2      18.0476963691      17.0000000000
12273 2      15.4193098716      24.0000000000
12274 2      13.3802773428      16.0000000000
12275 2      16.5353480676      19.0000000000
12276 2      14.8210743646      15.0000000000
12277 2      16.9559440690      16.0000000000
12278 2      13.4101981035      14.0000000000
12279 2      14.6753873435      16.0000000000
12280 2      18.9287448366      23.0000000000
12281 2      19.8513536888      17.0000000000
12282 2      22.3716754751      22.0000000000
12283 2      13.9399365047      17.0000000000
12284 2      15.0088613705      18.0000000000
12285 2      15.8903352473      20.0000000000
12286 2      15.7648372648      18.0000000000
12287 2      15.0196570852      19.0000000000
12288 2      15.2374222153      20.0000000000
12289 2      15.5223508981      17.0000000000
12290 2      13.7304297022      16.0000000000
12291 2      16.0673926665      17.0000000000
12292 2      13.6297876969      17.0000000000
12293 2      17.5550839238      17.0000000000
12294 2      18.1170856243      22.0000000000
12295 2      17.5382116398      19.0000000000
12296 2      15.6021256535      15.0000000000
12297 2      15.7276489159      18.0000000000
12298 2      13.9232415322      16.0000000000
12299 2      17.5605210047      21.0000000000
12300 2      15.6886664326      18.0000000000
12301 2      16.3977352376      18.0000000000
12302 2      16.9468736746      21.0000000000
12303 2      17.6324118897      19.0000000000
12304 2      14.7159146422      18.0000000000
12305 2      14.7048881271      15.0000000000
12306 2      14.6512304418      19.0000000000
12307 2      13.9656421018      17.0000000000
12308 2      17.9346585573      15.0000000000
12309 2      18.6072544461      19.0000000000
12310 2      13.3661431336      16.0000000000
12311 2      16.3620896825      20.0000000000
12312 2      15.5034216956      16.0000000000
12313 2      17.2566527106      14.0000000000
12314 2      16.4598381333      17.0000000000
12315 2      17.1541399861      15.0000000000
12316 2      16.1667474603      13.0000000000
12317 2      16.1956838381      15.0000000000
12318 2      17.3037299058      18.0000000000
12319 2      13.7115741562      16.0000000000
12320 2      16.1881853079      19.0000000000
12321 2      16.6065358616      15.0000000000
12322 2      13.8685725832      17.0000000000
12323 2      15.4697583171      16.0000000000
12324 2      15.3383396043      17.0000000000
12325 2      17.2209796713      21.0000000000
12326 2      16.8794452403      18.0000000000
12327 2      14.5728198110      16.0000000000
12328 2      15.5798167637      19.0000000000
12329 2      16.6576338083      15.0000000000
12330 2      14.6306887396      16.0000000000
12331 2      16.7083579580      18.0000000000
12332 2      19.6267651262      19.0000000000
12333 2      14.1874387926      18.0000000000
12334 2      13.7519660738      20.0000000000
12335 2      16.9890226433      18.0000000000
12336 2      15.6373941156      14.0000000000
12337 2      15.9062108905      19.0000000000
12338 2      13.5714311120      15.0000000000
12339 2      15.2098227909      20.0000000000
12340 2      15.2978886288      16.0000000000
12341 2      17.9164281095      16.0000000000
12342 2      14.3508821424      20.0000000000
12343 2      14.0640951170      16.0000000000
12344 2      13.8725784807      15.0000000000
12345 2      16.7031386423      20.0000000000
12346 2      16.0539722668      15.0000000000
12347 2      16.4647543919      20.0000000000
12348 2      13.7292686410      18.0000000000
12349 2      15.3035989524      16.0000000000
12350 2      15.3715881456      20.0000000000
12351 2      14.9195711565      20.0000000000
12352 2      19.4644893719      22.0000000000
12353 2      16.5869733960      16.0000000000
12354 2      16.7238944723      22.0000000000
12355 2      15.0428280007      20.0000000000
12356 2      16.7843355443      16.0000000000
12357 2      15.7682874109      19.0000000000
12358 2      14.0375265023      17.0000000000
12359 2      13.5208407612      16.0000000000
12360 2      15.1333814683      15.0000000000
12361 2      14.4075154676      17.0000000000
12362 2      15.3316121376      15.0000000000
12363 2      15.7802660566      15.0000000000
12364 2      16.4947824418      15.0000000000
12365 2      14.3792112679      19.0000000000
12366 2      15.5062559951      17.0000000000
12367 2      16.0870070057      17.0000000000
12368 2      14.8723492900      20.0000000000
12369 2      17.7405740197      21.0000000000
12370 2      14.0820039975      14.0000000000
12371 2      16.7867538200      16.0000000000
12372 2      14.4240340092      16.0000000000
12373 2      18.8187921260      13.0000000000
12374 2      16.2293832160      18.0000000000
12375 2      16.8357815007      15.0000000000
12376 2      13.8183100193      15.0000000000
12377 2      14.7514281837      15.0000000000
12378 2      13.7394910396      16.0000000000
12379 2      15.9293202758      17.0000000000
12380 2      14.5841081128      18.0000000000
12381 2      17.8100436711      20.0000000000
12382 2      17.3243771740      16.0000000000
12383 2      16.2205985369      20.0000000000
12384 2      14.3486247606      15.0000000000
12385 2      15.9659092087      17.0000000000
12386 2      15.7310274906      15.0000000000
12387 2      17.4798186824      16.0000000000
12388 2      14.4733691175      18.0000000000
12389 2      15.9484635029      19.0000000000
12390 2      15.5351860456      19.0000000000
12391 2      18.4091222942      21.0000000000
12392 2      14.7504354379      20.0000000000
12393 2      16.2716407882      16.0000000000
12394 2      16.4386550853      18.0000000000
12395 2      15.8666926088      15.0000000000
12396 2      16.1419550011      17.0000000000
12397 2      13.5895445662      16.0000000000
12398 2      14.4644428838      14.0000000000
12399 2      17.0562045833      16.0000000000
12400 2      13.5406345057      15.0000000000
12401 2      15.3393103017      17.0000000000
12402 2      14.5607702545      14.0000000000
12403 2      15.4884371115      17.0000000000
12404 2      17.0184194729      18.0000000000
12405 2      14.3132525813      17.0000000000
12406 2      13.9676189053      19.0000000000
12407 2      18.7585570985      18.0000000000
12408 2      14.9957156982      18.0000000000
12409 2      14.4678295604      18.0000000000
12410 2      16.5063157047      18.0000000000
12411 2      16.1588546774      20.0000000000
12412 2      17.7799875118      16.0000000000
12413 2      16.4694455811      18.0000000000
12414 2      16.5344662427      18.0000000000
12415 2      15.3101488782      19.0000000000
12416 2      16.0552893343      17.0000000000
12417 2      17.2538945852      18.0000000000
12418 2      20.4704652442      19.0000000000
12419 2      15.4353634594      19.0000000000
12420 2      13.4247028295      15.0000000000
12421 2      13.5427391263      17.0000000000
12422 2      16.8216094205      18.0000000000
12423 2      15.0323292478      22.0000000000
12424 2      17.7547675190      20.0000000000
12425 2      13.1208963078      15.0000000000
12426 2      13.2880864895      16.0000000000
12427 2      14.7775816459      17.0000000000
12428 2      19.2458692958      19.0000000000
12429 2      16.3166177019      18.0000000000
12430 2      14.3664486994      15.0000000000
12431 2      15.6907380391      16.0000000000
12432 2      16.3645808126      17.0000000000
12433 2      16.3408769507      16.0000000000
12434 2      19.0022519302      16.0000000000
12435 2      17.9329473478      18.0000000000
12436 2      13.3783185630      18.0000000000
12437 2      15.9482675273      15.0000000000
12438 2      17.5708003157      19.0000000000
12439 2      15.5941975866      19.0000000000
12440 2      17.5560679952      17.0000000000
12441 2      15.0002640941      14.0000000000
12442 2      17.1759637207      21.0000000000
12443 2      14.3237467071      22.0000000000
12444 2      14.5545962724      21.0000000000
12445 2      19.8776329472      19.0000000000
12446 2      16.8869797843      17.0000000000
12447 2      14.6791214447      16.0000000000
12448 2      14.4986165238      17.0000000000
12449 2      16.3039692615      15.0000000000
12450 2      15.3678115284      15.0000000000
12451 2      14.9012249221      20.0000000000
12452 2      16.9902299230      17.0000000000
12453 2      16.9021230122      19.0000000000
12454 2      15.2888786279      22.0000000000
12455 2      16.3738001535      18.0000000000
12456 2      18.6571795804      17.0000000000
12457 2      14.3843881913      16.0000000000
12458 2      15.2149539289      15.0000000000
12459 2      17.4516881733      16.0000000000
12460 2      15.1584346924      14.0000000000
12461 2      14.9520579213      19.0000000000
12462 2      13.1217369932      15.0000000000
12463 2      14.8426252580      18.0000000000
12464 2      20.6206720561      22.0000000000
12465 2      14.0007290113      16.0000000000
12466 2      16.2455922891      15.0000000000
12467 2      16.1039450225      17.0000000000
12468 2      16.1480029633      15.0000000000
12469 2      14.2636922360      18.0000000000
12470 2      12.3253123120      16.0000000000
12471 2      15.1081983570      17.0000000000
12472 2      15.9396372657      19.0000000000
12473 2      14.6039532336      19.0000000000
12474 2      16.2483587837      15.0000000000
12475 2      16.9445694316      18.0000000000
12476 2      15.1021109422      13.0000000000
12477 2      16.3538389933      19.0000000000
12478 2      17.5970230035      22.0000000000
12479 2      12.9787803655      18.0000000000
12480 2      19.7040812667      19.0000000000
12481 2      17.5893967902      16.0000000000
12482 2      20.2053874649      20.0000000000
12483 2      16.0827116645      21.0000000000
12484 2      16.0292709822      18.0000000000
12485 2      16.2876189038      22.0000000000
12486 2      14.9691704329      18.0000000000
12487 2      14.5252330277      16.0000000000
12488 2      16.2234896908      14.0000000000
12489 2      14.6260208991      16.0000000000
12490 2      16.7637836227      19.0000000000
12491 2      16.3382600642      18.0000000000
12492 2      16.3504250951      15.0000000000
12493 2      15.0599772144      19.0000000000
12494 2      14.2407616376      14.0000000000
12495 2      17.5993469199      25.0000000000
12496 2      15.5657894894      20.0000000000
12497 2      15.5632298585      17.0000000000
12498 2      15.0251991752      17.0000000000
12499 2      16.4310343921      19.0000000000
12500 2      18.5958341925      18.0000000000
12501 5      19.6151682714      19.0000000000
12502 5      20.5183609914      16.0000000000
12503 5      19.0530726068      20.0000000000
12504 5      22.3161557690      22.0000000000
12505 5      23.8807954970      17.0000000000
12506 5      19.9715656130      22.0000000000
12507 5      16.7050064056      16.0000000000
12508 5      20.5758023766      19.0000000000
12509 5      17.5470686584      16.0000000000
12510 5      18.9456259448      16.0000000000
12511 5      22.1914590656      20.0000000000
12512 5      20.2292454598      23.0000000000
12513 5      22.5534750276      18.0000000000
12514 5      20.9164247479      18.0000000000
12515 5      21.0278226729      18.0000000000
12516 5      20.3270999032      20.0000000000
12517 5      18.5564465467      17.0000000000
12518 5      21.8122912171      18.0000000000
12519 5      22.7295958438      20.0000000000
12520 5      21.0243849208      19.0000000000
12521 5      25.5220499674      16.0000000000
12522 5      17.6606014443      18.0000000000
12523 5      19.1012376331      13.0000000000
12524 5      23.0499468898      25.0000000000
12525 5      20.3659019938      13.0000000000
12526 5      21.4684677264      17.0000000000
12527 5      21.2942786123      21.0000000000
12528 5      20.5319303732      19.0000000000
12529 5      18.8672690437      16.0000000000
12530 5      21.5289671750      17.0000000000
12531 5      22.4528920702      15.0000000000
12532 5      22.1921884560      16.0000000000
12533 5      21.3524489812      20.0000000000
12534 5      18.1801926855      20.0000000000
12535 5      22.4789223226      19.0000000000
12536 5      18.6958902651      13.0000000000
12537 5      21.6683520890      19.0000000000
12538 5      27.3845200214      23.0000000000
12539 5      21.0055298835      17.0000000000
12540 5      24.7966728525      18.0000000000
12541 5      19.2553309269      17.0000000000
12542 5      20.4965368083      17.0000000000
12543 5      20.9625377212      16.0000000000
12544 5      20.0544427119      18.0000000000
12545 5      20.9876551073      18.0000000000
12546 5      22.2103796287      16.0000000000
12547 5      24.8733976710      20.0000000000
12548 5      20.0843283664      20.0000000000
12549 5      19.6673754799      21.0000000000
12550 5      19.5469382758      22.0000000000
12551 5      24.5426535013      21.0000000000
12552 5      19.1475781435      18.0000000000
12553 5      22.7424819787      17.0000000000
12554 5      20.8308996007      17.0000000000
12555 5      27.4168224097      22.0000000000
12556 5      24.1677192374      22.0000000000
12557 5      21.2710745574      15.0000000000
12558 5      22.1718281006      20.0000000000
12559 5      19.1588140316      21.0000000000
12560 5      27.2219357149      22.0000000000
12561 5      24.6148360568      18.0000000000
12562 5      20.5689851906      19.0000000000
12563 5      21.2918397904      16.0000000000
12564 5      19.7468626848      18.0000000000
12565 5      19.8944424264      17.0000000000
12566 5      20.7071090082      19.0000000000
12567 5      20.4269250028      17.0000000000
12568 5      22.7105015581      18.0000000000
12569 5      22.3586938956      19.0000000000
12570 5      21.2176845195      20.0000000000
12571 5      21.8406619574      15.0000000000
12572 5      21.8622981492      20.0000000000
12573 5      23.2754849363      17.0000000000
12574 5      22.9673203777      17.0000000000
12575 5      19.2744491269      16.0000000000
12576 5      21.1423811660      20.0000000000
12577 5      23.6165676150      19.0000000000
12578 5      17.7225293205      16.0000000000
12579 5      19.4851829968      20.0000000000
12580 5      21.3958719084      24.0000000000
12581 5      20.5385242532      17.0000000000
12582 5      22.9058584586      20.0000000000
12583 5      19.7506279235      17.0000000000
12584 5      22.9985180427      17.0000000000
12585 5      21.8353130710      17.0000000000
12586 5      21.3243882206      17.0000000000
12587 5      19.0298502180      20.0000000000
12588 5      20.0116168607      19.0000000000
12589 5      19.0276008506      21.0000000000
12590 5      19.9746132719      18.0000000000
12591 5      19.4699156999      18.0000000000
12592 5      26.1202027350      20.0000000000
12593 5      23.0650403697      22.0000000000
12594 5      19.3874235878      16.0000000000
12595 5      19.7009541211      15.0000000000
12596 5      21.3646094767      18.0000000000
12597 5      25.3092710606      28.0000000000
12598 5      21.7627890744      21.0000000000
12599 5      21.9903756339      19.0000000000
12600 5      22.2297176152      19.0000000000
12601 5      25.0193326680      22.0000000000
12602 5      19.9966944461      16.0000000000
12603 5      18.3857819669      13.0000000000
12604 5      21.0499801659      18.0000000000
12605 5      23.0516726069      25.0000000000
12606 5      17.9443854941      17.0000000000
12607 5      17.6744657074      15.0000000000
12608 5      21.6707475255      17.0000000000
12609 5      19.9168863999      17.0000000000
12610 5      17.0321406131      15.0000000000
12611 5      24.0347295549      23.0000000000
12612 5      20.7305639676      15.0000000000
12613 5      24.9583692305      23.0000000000
12614 5      22.6864208808      19.0000000000
12615 5      22.5344552871      22.0000000000
12616 5      19.8239091141      16.0000000000
12617 5      24.3824675579      20.0000000000
12618 5      21.1381315476      18.0000000000
12619 5      21.9867501064      14.0000000000
12620 5      18.9464077877      20.0000000000
12621 5      21.8930576239      19.0000000000
12622 5      21.2898761619      19.0000000000
12623 5      20.0251025091      16.0000000000
12624 5      23.8352741676      21.0000000000
12625 5      23.4641993126      18.0000000000
12626 5      25.3052544929      18.0000000000
12627 5      22.6984692792      23.0000000000
12628 5      24.3597998669      23.0000000000
12629 5      18.7539524178      16.0000000000
12630 5      26.0586602870      20.0000000000
12631 5      21.5415781882      17.0000000000
12632 5      23.1328784063      18.0000000000
12633 5      20.2083354224      22.0000000000
12634 5      20.2712607483      18.0000000000
12635 5      22.2602469415      14.0000000000
12636 5      22.1929901031      21.0000000000
12637 5      20.8405890524      19.0000000000
12638 5      22.7901404212      15.0000000000
12639 5      22.5392064609      17.0000000000
12640 5      22.2953047764      21.0000000000
12641 5      19.3492317992      18.0000000000
12642 5      19.2087116504      16.0000000000
12643 5      20.5221031616      19.0000000000
12644 5      17.6828588891      15.0000000000
12645 5      19.5314512729      17.0000000000
12646 5      21.2913191040      22.0000000000
12647 5      20.0851106588      18.0000000000
12648 5      23.5584255883      20.0000000000
12649 5      27.5462353529      21.0000000000
12650 5      21.7799229471      19.0000000000
12651 5      22.1609018802      15.0000000000
12652 5      20.7985330651      16.0000000000
12653 5      24.3818258096      18.0000000000
12654 5      25.5444008863      18.0000000000
12655 5      24.4082082999      20.0000000000
12656 5      25.6970305789      19.0000000000
12657 5      20.7475694069      20.0000000000
12658 5      20.6072976051      17.0000000000
12659 5      23.3268251628      18.0000000000
12660 5      20.1542821075      18.0000000000
12661 5      18.8588377404      19.0000000000
12662 5      19.8147891337      18.0000000000
12663 5      24.4629012175      20.0000000000
12664 5      24.7030836181      20.0000000000
12665 5      21.5101109005      20.0000000000
12666 5      17.9461429297      16.0000000000
12667 5      21.3722108230      24.0000000000
12668 5      19.1049231353      20.0000000000
12669 5      21.2402721845      19.0000000000
12670 5      24.4161798682      23.0000000000
12671 5      20.4199757724      13.0000000000
12672 5      24.2036749337      23.0000000000
12673 5      21.8620148902      15.0000000000
12674 5      25.8539928323      20.0000000000
12675 5      19.3294888783      19.0000000000
12676 5      20.0617973942      18.0000000000
12677 5      26.9516889956      16.0000000000
12678 5      22.5399997143      22.0000000000
12679 5      19.1365771563      16.0000000000
12680 5      20.3056727559      15.0000000000
12681 5      17.7286370373      15.0000000000
12682 5      17.3927505164      16.0000000000
12683 5      22.4261743316      17.0000000000
12684 5      20.7763031033      19.0000000000
12685 5      22.1673297991      16.0000000000
12686 5      20.3529930381      16.0000000000
12687 5      18.5675474255      22.0000000000
12688 5      22.1296040730      18.0000000000
12689 5      20.1949247165      17.0000000000
12690 5      24.5367628121      19.0000000000
12691 5      19.0679610203      19.0000000000
12692 5      20.3814561389      22.0000000000
12693 5      20.6153116328      17.0000000000
12694 5      21.3722678650      19.0000000000
12695 5      23.7374192186      17.0000000000
12696 5      22.2757958078      19.0000000000
12697 5      17.5217319374      16.0000000000
12698 5      23.3707625501      18.0000000000
12699 5      24.6949373746      18.0000000000
12700 5      19.9521357790      19.0000000000
12701 5      18.7576684576      15.0000000000
12702 5      19.9920819561      17.0000000000
12703 5      25.9266432110      22.0000000000
12704 5      20.3062070887      21.0000000000
12705 5      23.6020279620      15.0000000000
12706 5      19.1953279320      19.0000000000
12707 5      20.2488051944      18.0000000000
12708 5      20.2840561917      17.0000000000
12709 5      20.5653581498      17.0000000000
12710 5      19.7069131517      24.0000000000
12711 5      20.6899081621      18.0000000000
12712 5      20.4902796250      20.0000000000
12713 5      20.7846953953      18.0000000000
12714 5      19.8431475628      17.0000000000
12715 5      25.0569265189      18.0000000000
12716 5      24.0687473491      23.0000000000
12717 5      19.6656416476      18.0000000000
12718 5      18.4456457198      16.0000000000
12719 5      18.5479531499      15.0000000000
12720 5      24.4771156127      23.0000000000
12721 5      22.0449693623      22.0000000000
12722 5      19.0802616393      19.0000000000
12723 5      22.3877056080      21.0000000000
12724 5      19.6458029659      19.0000000000
12725 5      18.3271286598      17.0000000000
12726 5      22.7184377327      21.0000000000
12727 5      20.5357322014      17.0000000000
12728 5      27.7103497701      22.0000000000
12729 5      20.2988105080      18.0000000000
12730 5      20.9308317534      24.0000000000
12731 5      21.3299762582      19.0000000000
12732 5      25.4164677714      24.0000000000
12733 5      18.5703969105      14.0000000000
12734 5      23.3909807485      14.0000000000
12735 5      21.6221962738      20.0000000000
12736 5      20.9541021137      21.0000000000
12737 5      21.0077960496      17.0000000000
12738 5      20.5507636410      21.0000000000
12739 5      19.0337801879      18.0000000000
12740 5      17.9450770064      15.0000000000
12741 5      23.7682737988      23.0000000000
12742 5      22.3520467048      14.0000000000
12743 5      21.8741541854      19.0000000000
12744 5      18.2039517818      20.0000000000
12745 5      16.6796904194      16.0000000000
12746 5      19.0785293610      19.0000000000
12747 5      21.4461515442      20.0000000000
12748 5      19.4564209974      17.0000000000
12749 5      19.4535402916      16.0000000000
12750 5      19.6872597196      17.0000000000
12751 5      20.7304858722      20.0000000000
12752 5      22.7864999940      22.0000000000
12753 5      20.1082434504      18.0000000000
12754 5      21.6657146776      20.0000000000
12755 5      17.8314655426      15.0000000000
12756 5      22.7819092029      18.0000000000
12757 5      21.1676854588      18.0000000000
12758 5      18.9490420168      17.0000000000
12759 5      21.4624592730      18.0000000000
12760 5      18.0246137175      19.0000000000
12761 5      23.8310101576      20.0000000000
12762 5      21.0040148323      16.0000000000
12763 5      19.4001272910      16.0000000000
12764 5      18.7517466476      17.0000000000
12765 5      20.5779211175      19.0000000000
12766 5      21.8633628198      21.0000000000
12767 5      23.0173417916      17.0000000000
12768 5      20.2022690559      25.0000000000
12769 5      20.0165187538      22.0000000000
12770 5      19.8939912006      15.0000000000
12771 5      24.6159250941      19.0000000000
12772 5      21.6007965672      21.0000000000
12773 5      18.5999012693      16.0000000000
12774 5      21.0148981977      15.0000000000
12775 5      20.1203895179      18.0000000000
12776 5      21.0080574105      13.0000000000
12777 5      18.8128223423      14.0000000000
12778 5      25.7560128781      19.0000000000
12779 5      17.7956493746      14.0000000000
12780 5      23.1138505988      20.0000000000
12781 5      18.9082541842      16.0000000000
12782 5      22.7058072318      18.0000000000
12783 5      22.2993700847      15.0000000000
12784 5      18.9982516874      19.0000000000
12785 5      24.4339094089      23.0000000000
12786 5      20.2665273245      16.0000000000
12787 5      23.3238121949      19.0000000000
12788 5      19.8980404644      17.0000000000
12789 5      20.6618348964      19.0000000000
12790 5      19.5463980728      19.0000000000
12791 5      21.3537255982      20.0000000000
12792 5      20.1465081626      17.0000000000
12793 5      27.7282841103      24.0000000000
12794 5      20.7172501449      17.0000000000
12795 5      24.9172826811      19.0000000000
12796 5      17.9304180206      17.0000000000
12797 5      20.8918511707      21.0000000000
12798 5      22.6312104685      16.0000000000
12799 5      22.3730122734      18.0000000000
12800 5      22.5486259913      17.0000000000
12801 5      19.0704440602      15.0000000000
12802 5      22.8710374360      18.0000000000
12803 5      24.2181765900      20.0000000000
12804 5      23.1177855376      21.0000000000
12805 5      20.7393888371      16.0000000000
12806 5      17.8864410299      19.0000000000
12807 5      21.3147762431      16.0000000000
12808 5      20.6160482147      21.0000000000
12809 5      20.0709322773      16.0000000000
12810 5      23.9377805675      21.0000000000
12811 5      18.4907127545      19.0000000000
12812 5      23.6884298860      19.0000000000
12813 5      22.1619301835      20.0000000000
12814 5      18.5839807892      17.0000000000
12815 5      20.1817476048      16.0000000000
12816 5      21.3588331643      18.0000000000
12817 5      19.1881644206      17.0000000000
12818 5      21.2011712530      21.0000000000
12819 5      17.1599721537      12.0000000000
12820 5      23.6902472979      15.0000000000
12821 5      19.3538747868      22.0000000000
12822 5      23.5953014775      20.0000000000
12823 5      22.8605148549      19.0000000000
12824 5      20.2257922429      18.0000000000
12825 5      20.5824994944      20.0000000000
12826 5      18.1252329649      18.0000000000
12827 5      24.3955825722      15.0000000000
12828 5      25.5335057445      26.0000000000
12829 5      25.5699985099      21.0000000000
12830 5      19.4601584320      14.0000000000
12831 5      20.8457530317      16.0000000000
12832 5      23.0407851340      20.0000000000
12833 5      19.4980557974      18.0000000000
12834 5      21.5121069815      19.0000000000
12835 5      22.4778200961      20.0000000000
12836 5      19.0163932306      14.0000000000
12837 5      21.2188138251      18.0000000000
12838 5      20.1936096673      16.0000000000
12839 5      20.5652003389      18.0000000000
12840 5      21.7042410890      19.0000000000
12841 5      21.7650353343      18.0000000000
12842 5      18.7514162325      15.0000000000
12843 5      19.8775219377      15.0000000000
12844 5      22.2688767129      19.0000000000
12845 5      20.8863500141      20.0000000000
12846 5      25.0147305110      25.0000000000
12847 5      21.7082792750      20.0000000000
12848 5      25.8477478216      16.0000000000
12849 5      23.2520419234      17.0000000000
12850 5      20.1136549931      12.0000000000
12851 5      20.1640977943      19.0000000000
12852 5      18.9676649029      19.0000000000
12853 5      22.0898628539      20.0000000000
12854 5      21.2103084406      18.0000000000
12855 5      19.2227876222      20.0000000000
12856 5      20.5565120006      19.0000000000
12857 5      17.1189667919      15.0000000000
12858 5      21.1894317895      16.0000000000
12859 5      23.3276013053      18.0000000000
12860 5      22.3553972280      18.0000000000
12861 5      22.8797794158      20.0000000000
12862 5      20.4493137888      19.0000000000
12863 5      24.0810480873      24.0000000000
12864 5      22.0208695072      16.0000000000
12865 5      20.5540909284      20.0000000000
12866 5      21.7992975974      19.0000000000
12867 5      23.9384107384      22.0000000000
12868 5      23.1203652016      25.0000000000
12869 5      19.9822851723      18.0000000000
12870 5      19.9822789501      17.0000000000
12871 5      19.8461772093      18.0000000000
12872 5      20.2004068256      18.0000000000
12873 5      18.9145810849      16.0000000000
12874 5      19.8495058362      16.0000000000
12875 5      24.8641512266      20.0000000000
12876 5      21.1836204891      19.0000000000
12877 5      23.1962909314      23.0000000000
12878 5      20.5254350118      20.0000000000
12879 5      22.8838850787      17.0000000000
12880 5      21.1066527396      21.0000000000
12881 5      20.6636454577      18.0000000000
12882 5      21.1388551556      18.0000000000
12883 5      18.9366905298      16.0000000000
12884 5      17.9817710712      15.0000000000
12885 5      19.5104809650      15.0000000000
12886 5      22.0875092321      17.0000000000
12887 5      25.1984128779      20.0000000000
12888 5      21.5753106701      17.0000000000
12889 5      21.2508260318      23.0000000000
12890 5      17.9005807712      15.0000000000
12891 5      15.6801713064      18.0000000000
12892 5      25.1819287553      23.0000000000
12893 5      24.2871723361      24.0000000000
12894 5      18.7565649141      16.0000000000
12895 5      19.0826568519      20.0000000000
12896 5      24.9104033146      21.0000000000
12897 5      19.4172684291      22.0000000000
12898 5      18.3269608337      16.0000000000
12899 5      22.3307965287      21.0000000000
12900 5      19.9293405044      19.0000000000
12901 5      19.8477199914      23.0000000000
12902 5      18.2224998816      15.0000000000
12903 5      19.8158538719      19.0000000000
12904 5      19.9463468272      17.0000000000
12905 5      22.5501460850      19.0000000000
12906 5      20.3834603592      16.0000000000
12907 5      19.0296309136      20.0000000000
12908 5      18.6400343488      16.0000000000
12909 5      17.6780829885      17.0000000000
12910 5      23.1848276008      20.0000000000
12911 5      20.4667856686      18.0000000000
12912 5      20.0821939095      19.0000000000
12913 5      19.4863063339      12.0000000000
12914 5      21.0680300189      22.0000000000
12915 5      23.2590326525      21.0000000000
12916 5      24.4465306702      21.0000000000
12917 5      26.3042458868      24.0000000000
12918 5      17.6536031488      15.0000000000
12919 5      18.7782460876      16.0000000000
12920 5      19.1518006428      16.0000000000
12921 5      24.4478537569      22.0000000000
12922 5      19.8157237362      16.0000000000
12923 5      22.3946468431      17.0000000000
12924 5      19.4685667897      20.0000000000
12925 5      20.3820308964      22.0000000000
12926 5      18.5029065778      17.0000000000
12927 5      18.2240409068      14.0000000000
12928 5      21.0573216157      17.0000000000
12929 5      17.9748910021      14.0000000000
12930 5      20.8469499007      18.0000000000
12931 5      18.7087818445      15.0000000000
12932 5      24.2878173115      21.0000000000
12933 5      19.9058575955      17.0000000000
12934 5      20.3881733169      14.0000000000
12935 5      20.9821675124      16.0000000000
12936 5      23.9226972876      22.0000000000
12937 5      26.4613035708      16.0000000000
12938 5      19.6981988739      21.0000000000
12939 5      22.1786096498      19.0000000000
12940 5      22.0722202008      18.0000000000
12941 5      18.3542325255      19.0000000000
12942 5      22.3804957074      21.0000000000
12943 5      24.8192925253      22.0000000000
12944 5      19.7145952427      18.0000000000
12945 5      20.0377677422      19.0000000000
12946 5      23.8868825271      18.0000000000
12947 5      23.0454130750      17.0000000000
12948 5      19.4635308219      15.0000000000
12949 5      20.6775851605      18.0000000000
12950 5      27.3747202305      26.0000000000
12951 5      20.1879808525      15.0000000000
12952 5      22.4515312961      22.0000000000
12953 5      19.0701022904      17.0000000000
12954 5      19.0814194124      17.0000000000
12955 5      19.6835012535      19.0000000000
12956 5      23.4914958991      20.0000000000
12957 5      21.8223836737      18.0000000000
12958 5      21.6248551340      18.0000000000
12959 5      19.8703200012      23.0000000000
12960 5      18.1809112807      17.0000000000
12961 5      20.8972558853      17.0000000000
12962 5      18.9173464656      18.0000000000
12963 5      22.2670667403      18.0000000000
12964 5      18.6083915851      17.0000000000
12965 5      19.8562877912      21.0000000000
12966 5      24.4520050245      20.0000000000
12967 5      20.1529625989      22.0000000000
12968 5      15.8111530559      15.0000000000
12969 5      19.1770173502      17.0000000000
12970 5      19.6495339698      16.0000000000
12971 5      21.0770611613      19.0000000000
12972 5      21.8055097163      23.0000000000
12973 5      20.4680461918      18.0000000000
12974 5      21.2838102524      23.0000000000
12975 5      18.3994317914      17.0000000000
12976 5      20.7060881606      22.0000000000
12977 5      18.9160322981      17.0000000000
12978 5      21.0716320821      17.0000000000
12979 5      22.3521770747      19.0000000000
12980 5      24.0426659691      20.0000000000
12981 5      20.8871707269      19.0000000000
12982 5      20.3678157588      18.0000000000
12983 5      19.4388657282      17.0000000000
12984 5      20.0133409423      19.0000000000
12985 5      17.7321101448      17.0000000000
12986 5      19.5707810958      16.0000000000
12987 5      18.1638399959      17.0000000000
12988 5      22.5562067352      21.0000000000
12989 5      20.9607762676      18.0000000000
12990 5      19.7132303703      16.0000000000
12991 5      20.1394949237      15.0000000000
12992 5      20.9068959834      17.0000000000
12993 5      21.6696303582      18.0000000000
12994 5      22.7496193238      18.0000000000
12995 5      21.6791668005      19.0000000000
12996 5      21.6290931126      20.0000000000
12997 5      18.5930961903      12.0000000000
12998 5      20.6317949953      19.0000000000
12999 5      21.5839728618      19.0000000000
13000 5      23.0706614799      25.0000000000
13001 5      20.8523767069      16.0000000000
13002 5      18.0516011592      16.0000000000
13003 5      24.8953256529      17.0000000000
13004 5      20.7034247105      21.0000000000
13005 5      20.9908183234      17.0000000000
13006 5      25.2948494614      18.0000000000
13007 5      18.5166592765      14.0000000000
13008 5      22.2207407241      19.0000000000
13009 5      25.4560182782      22.0000000000
13010 5      25.3581594141      20.0000000000
13011 5      22.6736777999      18.0000000000
13012 5      22.4847135291      18.0000000000
13013 5      22.0757497115      21.0000000000
13014 5      18.7354931579      16.0000000000
13015 5      18.9402154410      21.0000000000
13016 5      22.3213201924      19.0000000000
13017 5      22.8565587070      19.0000000000
13018 5      23.3928165009      20.0000000000
13019 5      18.2197921750      19.0000000000
13020 5      20.7387626540      18.0000000000
13021 5      19.7090439435      20.0000000000
13022 5      22.9236871384      18.0000000000
13023 5      20.8106751924      20.0000000000
13024 5      18.4175016195      15.0000000000
13025 5      23.0437282458      17.0000000000
13026 5      19.6082048887      13.0000000000
13027 5      24.1087038246      20.0000000000
13028 5      20.1501827347      16.0000000000
13029 5      23.1753641933      20.0000000000
13030 5      20.2379206385      21.0000000000
13031 5      21.5502240390      19.0000000000
13032 5      16.9847801996      14.0000000000
13033 5      18.4889562124      15.0000000000
13034 5      17.6651011909      14.0000000000
13035 5      21.2383835921      18.0000000000
13036 5      21.8021602919      17.0000000000
13037 5      25.3161494022      21.0000000000
13038 5      24.0407057088      25.0000000000
13039 5      26.7581864417      19.0000000000
13040 5      19.9266301255      16.0000000000
13041 5      23.3874254944      19.0000000000
13042 5      25.0631284586      20.0000000000
13043 5      27.1441456765      21.0000000000
13044 5      21.5693165295      20.0000000000
13045 5      15.6640179488      13.0000000000
13046 5      21.7382147132      16.0000000000
13047 5      19.7123678178      21.0000000000
13048 5      20.3315291295      13.0000000000
13049 5      21.2920839577      20.0000000000
13050 5      21.0801448655      16.0000000000
13051 5      22.9824545937      17.0000000000
13052 5      20.0906017903      22.0000000000
13053 5      22.7666818360      17.0000000000
13054 5      17.2514900090      17.0000000000
13055 5      17.6842831350      16.0000000000
13056 5      22.2419485330      17.0000000000
13057 5      19.4355075343      19.0000000000
13058 5      20.2640322222      16.0000000000
13059 5      21.3983413334      16.0000000000
13060 5      18.4238042685      19.0000000000
13061 5      20.5344704105      13.0000000000
13062 5      22.2609303152      20.0000000000
13063 5      21.4285981063      21.0000000000
13064 5      20.0543862977      18.0000000000
13065 5      19.5933882568      18.0000000000
13066 5      23.1582080254      17.0000000000
13067 5      22.1964529904      18.0000000000
13068 5      20.1714012264      18.0000000000
13069 5      20.7056312936      21.0000000000
13070 5      21.9700261116      20.0000000000
13071 5      22.7488872164      18.0000000000
13072 5      20.0866577382      22.0000000000
13073 5      23.1382395930      16.0000000000
13074 5      17.5983396592      19.0000000000
13075 5      23.4068638062      21.0000000000
13076 5      31.2357863665      23.0000000000
13077 5      25.9345933874      19.0000000000
13078 5      18.2516481323      14.0000000000
13079 5      22.4860045512      21.0000000000
13080 5      20.5334527647      20.0000000000
13081 5      17.4667819834      18.0000000000
13082 5      19.9316142909      23.0000000000
13083 5      20.9629283572      18.0000000000
13084 5      15.4764294474      13.0000000000
13085 5      20.2033845554      14.0000000000
13086 5      22.5630967229      20.0000000000
13087 5      28.1364640194      21.0000000000
13088 5      16.9133538256      15.0000000000
13089 5      24.5089936063      19.0000000000
13090 5      19.2287797981      17.0000000000
13091 5      18.4478808175      13.0000000000
13092 5      22.2559056748      14.0000000000
13093 5      21.5646641462      18.0000000000
13094 5      19.1047662539      17.0000000000
13095 5      17.5183055290      14.0000000000
13096 5      19.5630842282      15.0000000000
13097 5      19.5095522123      15.0000000000
13098 5      20.5918605336      18.0000000000
13099 5      22.5726265842      17.0000000000
13100 5      26.0234761207      18.0000000000
13101 5      20.7888117481      19.0000000000
13102 5      26.9063599209      26.0000000000
13103 5      24.7254287159      22.0000000000
13104 5      21.3265261800      21.0000000000
13105 5      24.1721383660      18.0000000000
13106 5      23.0520098382      24.0000000000
13107 5      23.0321185298      20.0000000000
13108 5      24.5148937489      19.0000000000
13109 5      21.8773703839      23.0000000000
13110 5      17.6472339266      17.0000000000
13111 5      24.6212053845      20.0000000000
13112 5      18.6137399030      18.0000000000
13113 5      21.7292286937      19.0000000000
13114 5      19.3049996248      25.0000000000
13115 5      19.7566254818      15.0000000000
13116 5      23.5777940963      18.0000000000
13117 5      21.3936367378      20.0000000000
13118 5      24.8711166384      19.0000000000
13119 5      26.5355520961      18.0000000000
13120 5      20.6680184616      15.0000000000
13121 5      18.8606040992      16.0000000000
13122 5      20.7050188830      16.0000000000
13123 5      19.2880407198      19.0000000000
13124 5      22.1251656537      22.0000000000
13125 5      23.7281912212      16.0000000000
13126 5      21.4485449777      17.0000000000
13127 5      21.2539564881      21.0000000000
13128 5      19.9063293346      18.0000000000
13129 5      20.4640372413      21.0000000000
13130 5      25.1476470310      18.0000000000
13131 5      15.9581991319      13.0000000000
13132 5      21.6132249636      18.0000000000
13133 5      23.8247595852      22.0000000000
13134 5      23.4908937143      20.0000000000
13135 5      16.6974132521      14.0000000000
13136 5      18.5018592437      17.0000000000
13137 5      19.7107751528      19.0000000000
13138 5      20.9422723101      20.0000000000
13139 5      23.5275633512      20.0000000000
13140 5      21.8171595349      20.0000000000
13141 5      20.2505937012      17.0000000000
13142 5      20.5364466444      20.0000000000
13143 5      19.8566098538      18.0000000000
13144 5      20.7151493284      22.0000000000
13145 5      19.5256552949      17.0000000000
13146 5      20.2298243942      22.0000000000
13147 5      20.1690265049      17.0000000000
13148 5      21.1593485297      18.0000000000
13149 5      26.1506611327      21.0000000000
13150 5      30.5767211494      22.0000000000
13151 5      20.9121363248      19.0000000000
13152 5      23.0150213579      23.0000000000
13153 5      20.4581078572      16.0000000000
13154 5      22.9930906206      20.0000000000
13155 5      22.9621854148      19.0000000000
13156 5      24.2628390417      24.0000000000
13157 5      20.2368489942      15.0000000000
13158 5      22.6420323400      23.0000000000
13159 5      19.0211888569      20.0000000000
13160 5      19.8684156612      15.0000000000
13161 5      20.3870136263      24.0000000000
13162 5      24.2986393350      16.0000000000
13163 5      20.0633051925      14.0000000000
13164 5      25.1964231667      20.0000000000
13165 5      20.0804697476      17.0000000000
13166 5      20.0227693193      14.0000000000
13167 5      20.8236065612      17.0000000000
13168 5      22.8263097296      18.0000000000
13169 5      23.0192461398      19.0000000000
13170 5      22.4119521646      17.0000000000
13171 5      23.3275142790      20.0000000000
13172 5      19.9486705629      21.0000000000
13173 5      19.1516350295      16.0000000000
13174 5      21.4571749268      19.0000000000
13175 5      26.4001117721      23.0000000000
13176 5      22.2939555554      19.0000000000
13177 5      22.9981178616      18.0000000000
13178 5      18.8873356640      17.0000000000
13179 5      22.1760144445      23.0000000000
13180 5      21.4660301419      19.0000000000
13181 5      18.9426498090      18.0000000000
13182 5      19.7156975733      19.0000000000
13183 5      18.3190341171      18.0000000000
13184 5      21.6818076371      18.0000000000
13185 5      22.6973317888      18.0000000000
13186 5      17.9379930793      17.0000000000
13187 5      23.7179734400      19.0000000000
13188 5      21.9397883638      20.0000000000
13189 5      20.9050476172      19.0000000000
13190 5      20.7756933439      19.0000000000
13191 5      23.3647061002      19.0000000000
13192 5      20.5134227907      20.0000000000
13193 5      18.9442941074      16.0000000000
13194 5      21.1214933403      19.0000000000
13195 5      21.4770730443      20.0000000000
13196 5      20.2092504337      15.0000000000
13197 5      22.3113841453      21.0000000000
13198 5      24.3397286727      21.0000000000
13199 5      22.2094014081      22.0000000000
13200 5      20.7948443468      17.0000000000
13201 5      24.0524784272      16.0000000000
13202 5      23.5451417692      25.0000000000
13203 5      22.4980484041      17.0000000000
13204 5      22.0757711103      20.0000000000
13205 5      23.6232278880      23.0000000000
13206 5      20.6989068734      17.0000000000
13207 5      20.5698177697      17.0000000000
13208 5      24.3758669704      22.0000000000
13209 5      20.7424842767      15.0000000000
13210 5      20.0616645676      17.0000000000
13211 5      19.8785746165      14.0000000000
13212 5      26.8163568531      23.0000000000
13213 5      19.7500437315      16.0000000000
13214 5      20.9828219103      18.0000000000
13215 5      18.7182280252      15.0000000000
13216 5      19.8947572869      17.0000000000
13217 5      20.6031606466      18.0000000000
13218 5      18.0820792525      17.0000000000
13219 5      20.3664180278      22.0000000000
13220 5      17.1379121577      12.0000000000
13221 5      26.9426127102      20.0000000000
13222 5      21.1647749595      19.0000000000
13223 5      19.2845209699      19.0000000000
13224 5      26.5920325060      24.0000000000
13225 5      20.2233644413      17.0000000000
13226 5      19.4099606888      20.0000000000
13227 5      20.2078372003      19.0000000000
13228 5      19.8715607266      16.0000000000
13229 5      20.5045658546      19.0000000000
13230 5      22.8233105615      19.0000000000
13231 5      18.5336575981      16.0000000000
13232 5      20.9106690022      18.0000000000
13233 5      30.4330986206      26.0000000000
13234 5      23.7863592820      21.0000000000
13235 5      25.0504515731      19.0000000000
13236 5      19.1465274639      17.0000000000
13237 5      24.6509034677      21.0000000000
13238 5      20.1183275599      15.0000000000
13239 5      22.8585098138      21.0000000000
13240 5      21.7160271316      19.0000000000
13241 5      21.5732563104      20.0000000000
13242 5      19.4551204318      15.0000000000
13243 5      24.6031977161      17.0000000000
13244 5      22.8499453626      22.0000000000
13245 5      23.9400296513      23.0000000000
13246 5      21.5411896892      23.0000000000
13247 5      23.3804126874      20.0000000000
13248 5      20.9414109388      22.0000000000
13249 5      19.7287620581      18.0000000000
13250 5      20.9730267359      18.0000000000
13251 5      23.9846339624      18.0000000000
13252 5      21.1119723368      18.0000000000
13253 5      22.1483422380      21.0000000000
13254 5      18.6782865011      17.0000000000
13255 5      18.0565648448      18.0000000000
13256 5      17.8593533035      13.0000000000
13257 5      27.5278803688      21.0000000000
13258 5      19.5491971364      16.0000000000
13259 5      17.9634469609      16.0000000000
13260 5      17.5252424781      16.0000000000
13261 5      21.1349474669      19.0000000000
13262 5      20.0665963950      18.0000000000
13263 5      21.3212612491      14.0000000000
13264 5      22.3124566500      19.0000000000
13265 5      19.4392048557      18.0000000000
13266 5      19.8226606048      19.0000000000
13267 5      22.3438022024      18.0000000000
13268 5      22.0985673988      16.0000000000
13269 5      25.3413586895      22.0000000000
13270 5      18.0561656420      16.0000000000
13271 5      23.5810671700      15.0000000000
13272 5      18.3498894996      21.0000000000
13273 5      21.7461635494      18.0000000000
13274 5      21.5577042021      17.0000000000
13275 5      21.5268821770      19.0000000000
13276 5      19.7670993705      17.0000000000
13277 5      17.2667729755      15.0000000000
13278 5      19.5217872956      19.0000000000
13279 5      20.4399666475      16.0000000000
13280 5      15.9077769808      17.0000000000
13281 5      20.5027512001      16.0000000000
13282 5      20.1693392515      20.0000000000
13283 5      21.3586109660      17.0000000000
13284 5      28.6341086126      24.0000000000
13285 5      21.8753438922      18.0000000000
13286 5      21.8843203720      18.0000000000
13287 5      18.9763267469      13.0000000000
13288 5      20.7842842916      21.0000000000
13289 5      23.5868231707      21.0000000000
13290 5      20.6660274189      18.0000000000
13291 5      18.3961797928      14.0000000000
13292 5      20.4337536121      21.0000000000
13293 5      21.1159353450      16.0000000000
13294 5      18.2971681720      16.0000000000
13295 5      20.4153797109      19.0000000000
13296 5      23.5164884945      19.0000000000
13297 5      25.6097944927      22.0000000000
13298 5      17.1836125848      13.0000000000
13299 5      19.8439126556      19.0000000000
13300 5      17.6989336025      11.0000000000
13301 5      21.2201655489      21.0000000000
13302 5      20.3490863486      19.0000000000
13303 5      24.8513744806      20.0000000000
13304 5      23.9647124307      18.0000000000
13305 5      20.6254724354      21.0000000000
13306 5      19.6001737994      20.0000000000
13307 5      18.3625319853      19.0000000000
13308 5      20.4083511803      18.0000000000
13309 5      20.5067423358      18.0000000000
13310 5      22.4204438455      21.0000000000
13311 5      24.5195633898      20.0000000000
13312 5      22.1472588189      21.0000000000
13313 5      21.6414846537      17.0000000000
13314 5      19.8852665144      20.0000000000
13315 5      16.6403300250      12.0000000000
13316 5      21.1329756217      18.0000000000
13317 5      21.2124859769      19.0000000000
13318 5      26.6841707616      19.0000000000
13319 5      25.1206376180      22.0000000000
13320 5      21.7653311096      20.0000000000
13321 5      22.1215743843      21.0000000000
13322 5      20.7350533691      20.0000000000
13323 5      24.4311336736      20.0000000000
13324 5      20.6382774844      18.0000000000
13325 5      20.1009622542      19.0000000000
13326 5      21.3647049496      20.0000000000
13327 5      26.1461211469      27.0000000000
13328 5      20.9221881437      20.0000000000
13329 5      21.0751445876      17.0000000000
13330 5      22.9485181174      16.0000000000
13331 5      21.8470869291      20.0000000000
13332 5      19.9151186968      14.0000000000
13333 5      24.0145701112      21.0000000000
13334 5      18.2450297477      15.0000000000
13335 5      19.3781499756      18.0000000000
13336 5      19.7240120757      14.0000000000
13337 5      27.3355944822      25.0000000000
13338 5      20.5569052442      23.0000000000
13339 5      20.3508386314      20.0000000000
13340 5      18.0399863012      14.0000000000
13341 5      20.6195675387      19.0000000000
13342 5      24.9966964868      22.0000000000
13343 5      20.8823856959      19.0000000000
13344 5      18.7460703089      16.0000000000
13345 5      21.6640371101      20.0000000000
13346 5      21.3654809198      16.0000000000
13347 5      19.8556624816      19.0000000000
13348 5      26.4842344467      20.0000000000
13349 5      23.0729172578      17.0000000000
13350 5      20.8634945914      21.0000000000
13351 5      21.3466840560      16.0000000000
13352 5      23.2303720631      17.0000000000
13353 5      24.7641083507      21.0000000000
13354 5      22.0702659486      22.0000000000
13355 5      24.2468477625      18.0000000000
13356 5      20.6750000929      18.0000000000
13357 5      20.8610956762      19.0000000000
13358 5      27.4563420861      19.0000000000
13359 5      25.5978928963      24.0000000000
13360 5      21.8712897059      21.0000000000
13361 5      22.1331771280      17.0000000000
13362 5      20.1128389775      19.0000000000
13363 5      25.5576770366      21.0000000000
13364 5      20.7974538030      18.0000000000
13365 5      25.8631554585      19.0000000000
13366 5      19.7503385866      17.0000000000
13367 5      21.2177304018      15.0000000000
13368 5      20.0416591034      20.0000000000
13369 5      21.4213233194      19.0000000000
13370 5      19.6474864006      20.0000000000
13371 5      19.4074935363      14.0000000000
13372 5      20.4646942415      16.0000000000
13373 5      20.1108244221      17.0000000000
13374 5      24.0332302303      21.0000000000
13375 5      21.2480255809      16.0000000000
13376 5      20.5217876885      18.0000000000
13377 5      19.8275996532      13.0000000000
13378 5      19.7364786679      13.0000000000
13379 5      23.7095671325      19.0000000000
13380 5      20.0493980053      22.0000000000
13381 5      27.0653517674      20.0000000000
13382 5      27.2223137988      22.0000000000
13383 5      18.5393921494      16.0000000000
13384 5      25.2818491867      19.0000000000
13385 5      18.5152943244      18.0000000000
13386 5      22.6823398231      17.0000000000
13387 5      19.3511678740      17.0000000000
13388 5      23.9155458579      22.0000000000
13389 5      20.4055723332      18.0000000000
13390 5      22.7184705438      23.0000000000
13391 5      19.5228296837      24.0000000000
13392 5      20.1057489470      20.0000000000
13393 5      16.5834936731      15.0000000000
13394 5      20.9702061379      17.0000000000
13395 5      24.3565989567      17.0000000000
13396 5      21.2823830533      21.0000000000
13397 5      21.2609656748      19.0000000000
13398 5      27.6156852669      14.0000000000
13399 5      19.2703982391      18.0000000000
13400 5      19.6103501024      15.0000000000
13401 5      23.7494140060      25.0000000000
13402 5      18.7801653423      17.0000000000
13403 5      21.5721562557      19.0000000000
13404 5      23.0252194802      19.0000000000
13405 5      22.7482851131      17.0000000000
13406 5      26.0937590781      19.0000000000
13407 5      27.8714007464      25.0000000000
13408 5      22.4488386358      21.0000000000
13409 5      23.2634901016      21.0000000000
13410 5      20.1378350960      17.0000000000
13411 5      20.7310497276      15.0000000000
13412 5      26.9340356471      21.0000000000
13413 5      20.2764342685      24.0000000000
13414 5      28.3718399999      23.0000000000
13415 5      20.7952359858      18.0000000000
13416 5      19.8629327841      20.0000000000
13417 5      21.7725062844      17.0000000000
13418 5      17.1364876059      17.0000000000
13419 5      19.9471262530      17.0000000000
13420 5      26.0085223743      23.0000000000
13421 5      18.6881713874      19.0000000000
13422 5      20.4913194605      17.0000000000
13423 5      20.0774945088      16.0000000000
13424 5      19.2224525855      15.0000000000
13425 5      20.8662066820      21.0000000000
13426 5      21.6442527139      19.0000000000
13427 5      18.6639356112      13.0000000000
13428 5      19.6462880055      20.0000000000
13429 5      20.2779895532      25.0000000000
13430 5      20.9788165786      18.0000000000
13431 5      19.3476391764      19.0000000000
13432 5      20.3061179643      18.0000000000
13433 5      20.0039259794      17.0000000000
13434 5      18.2075651195      19.0000000000
13435 5      15.1844551066      14.0000000000
13436 5      17.7657451603      14.0000000000
13437 5      24.7040324871      23.0000000000
13438 5      24.3401694089      17.0000000000
13439 5      25.0363522901      22.0000000000
13440 5      19.4259725378      18.0000000000
13441 5      21.2305302473      17.0000000000
13442 5      18.8139841513      14.0000000000
13443 5      22.0685405234      17.0000000000
13444 5      22.6751491642      20.0000000000
13445 5      22.1662144072      21.0000000000
13446 5      21.5120895547      16.0000000000
13447 5      21.5229623002      14.0000000000
13448 5      20.4452552248      19.0000000000
13449 5      23.9141507641      21.0000000000
13450 5      20.8423684439      21.0000000000
13451 5      22.4279144752      23.0000000000
13452 5      23.5944973481      21.0000000000
13453 5      24.0653430159      22.0000000000
13454 5      19.1846304341      16.0000000000
13455 5      20.8900965560      21.0000000000
13456 5      20.2042507839      16.0000000000
13457 5      25.6349049444      23.0000000000
13458 5      22.9496303253      17.0000000000
13459 5      19.1727888931      18.0000000000
13460 5      21.5000903199      16.0000000000
13461 5      20.4346177239      19.0000000000
13462 5      21.5421140189      14.0000000000
13463 5      18.5908610854      19.0000000000
13464 5      21.3888529706      15.0000000000
13465 5      19.8042599074      16.0000000000
13466 5      22.5386809766      19.0000000000
13467 5      24.6802247850      22.0000000000
13468 5      19.4077907457      15.0000000000
13469 5      23.1791833206      19.0000000000
13470 5      21.2883568363      21.0000000000
13471 5      20.8824158512      16.0000000000
13472 5      18.4367846076      20.0000000000
13473 5      20.9174603964      17.0000000000
13474 5      22.2547919730      19.0000000000
13475 5      19.4341088068      17.0000000000
13476 5      17.5658184577      15.0000000000
13477 5      23.0505103604      18.0000000000
13478 5      21.4612892348      18.0000000000
13479 5      22.5336628952      22.0000000000
13480 5      21.1488031012      21.0000000000
13481 5      22.9087347595      22.0000000000
13482 5      19.4276348699      19.0000000000
13483 5      20.0696619040      16.0000000000
13484 5      22.6264734260      18.0000000000
13485 5      17.9048170950      22.0000000000
13486 5      19.2407383403      21.0000000000
13487 5      24.5133291557      21.0000000000
13488 5      20.4916388542      18.0000000000
13489 5      18.2523150009      19.0000000000
13490 5      20.0349193617      18.0000000000
13491 5      18.9413919518      17.0000000000
13492 5      21.7624666523      25.0000000000
13493 5      19.4983083314      13.0000000000
13494 5      23.4668193572      18.0000000000
13495 5      22.1365352657      17.0000000000
13496 5      18.9201934439      19.0000000000
13497 5      21.5343330187      19.0000000000
13498 5      18.7114534925      18.0000000000
13499 5      20.9612444995      21.0000000000
13500 5      21.3106478880      19.0000000000
13501 5      20.5974269300      17.0000000000
13502 5      17.8593306104      19.0000000000
13503 5      23.4866628636      23.0000000000
13504 5      21.9918860723      20.0000000000
13505 5      19.9144479887      17.0000000000
13506 5      19.0631903991      17.0000000000
13507 5      19.6497775819      18.0000000000
13508 5      17.4127975439      15.0000000000
13509 5      19.7315078846      19.0000000000
13510 5      23.0899846483      18.0000000000
13511 5      22.1205981799      17.0000000000
13512 5      20.7126082779      18.0000000000
13513 5      25.2671801272      26.0000000000
13514 5      21.1728949028      18.0000000000
13515 5      20.2015243259      18.0000000000
13516 5      16.9739013565      17.0000000000
13517 5      18.3450812678      18.0000000000
13518 5      22.4417258786      17.0000000000
13519 5      17.6943478049      20.0000000000
13520 5      24.2938381394      20.0000000000
13521 5      20.4292453645      20.0000000000
13522 5      21.6967099879      22.0000000000
13523 5      21.5358108080      19.0000000000
13524 5      17.6347391231      15.0000000000
13525 5      21.2056757605      19.0000000000
13526 5      20.5679722179      14.0000000000
13527 5      21.6130082459      24.0000000000
13528 5      20.8241148705      18.0000000000
13529 5      22.5984905039      18.0000000000
13530 5      19.1898703723      18.0000000000
13531 5      19.9608225667      13.0000000000
13532 5      20.0757356371      15.0000000000
13533 5      16.8892679627      17.0000000000
13534 5      23.6049571678      20.0000000000
13535 5      20.8545734769      19.0000000000
13536 5      19.4406263091      19.0000000000
13537 5      18.5028997331      16.0000000000
13538 5      20.7279546224      17.0000000000
13539 5      16.9864060647      16.0000000000
13540 5      21.5425355495      21.0000000000
13541 5      20.2458581106      21.0000000000
13542 5      19.1243065985      15.0000000000
13543 5      18.1006279938      18.0000000000
13544 5      20.0494979849      16.0000000000
13545 5      22.2916964207      18.0000000000
13546 5      20.0015412789      15.0000000000
13547 5      20.4132601863      20.0000000000
13548 5      19.7639849224      18.0000000000
13549 5      21.1451447825      21.0000000000
13550 5      18.9354554452      18.0000000000
13551 5      25.3115868156      21.0000000000
13552 5      19.6860583327      13.0000000000
13553 5      18.5439002928      19.0000000000
13554 5      16.8295354932      12.0000000000
13555 5      23.6918079968      19.0000000000
13556 5      20.3259966576      17.0000000000
13557 5      20.1869803700      13.0000000000
13558 5      19.5709630797      18.0000000000
13559 5      24.1537460754      17.0000000000
13560 5      21.9441321398      17.0000000000
13561 5      18.5304530930      19.0000000000
13562 5      23.3456256300      21.0000000000
13563 5      20.2297271678      15.0000000000
13564 5      18.8421429839      16.0000000000
13565 5      20.1282622195      20.0000000000
13566 5      29.4223610466      18.0000000000
13567 5      19.7682715787      19.0000000000
13568 5      17.3967092155      18.0000000000
13569 5      18.0937993386      14.0000000000
13570 5      22.6192888844      18.0000000000
13571 5      17.1667612426      13.0000000000
13572 5      22.2907195432      17.0000000000
13573 5      18.4171529545      15.0000000000
13574 5      23.9748972998      19.0000000000
13575 5      19.2632048217      16.0000000000
13576 5      21.0353656942      21.0000000000
13577 5      18.5573392832      17.0000000000
13578 5      18.1358340258      15.0000000000
13579 5      24.7234898934      22.0000000000
13580 5      23.3374505166      21.0000000000
13581 5      20.5684984221      20.0000000000
13582 5      19.4094409588      13.0000000000
13583 5      17.1340329463      14.0000000000
13584 5      20.9532810870      21.0000000000
13585 5      18.3149107397      19.0000000000
13586 5      21.4150726560      21.0000000000
13587 5      22.4196522659      17.0000000000
13588 5      18.8692132600      20.0000000000
13589 5      24.2451935142      23.0000000000
13590 5      22.5781556200      17.0000000000
13591 5      24.0673066155      21.0000000000
13592 5      19.9617972736      16.0000000000
13593 5      21.0409333269      19.0000000000
13594 5      21.2482493335      22.0000000000
13595 5      19.0333775189      17.0000000000
13596 5      19.8296588025      18.0000000000
13597 5      20.8239043408      17.0000000000
13598 5      18.5380408503      16.0000000000
13599 5      19.1058913519      15.0000000000
13600 5      20.3532736659      17.0000000000
13601 5      25.7346841815      21.0000000000
13602 5      17.4949596815      17.0000000000
13603 5      22.1527354116      19.0000000000
13604 5      21.7824254625      19.0000000000
13605 5      27.2017473562      23.0000000000
13606 5      20.1360609226      17.0000000000
13607 5      19.0171764087      16.0000000000
13608 5      19.5019172292      17.0000000000
13609 5      18.0821178183      13.0000000000
13610 5      19.5551822380      19.0000000000
13611 5      22.9659464382      17.0000000000
13612 5      20.8517529452      22.0000000000
13613 5      19.9510182334      16.0000000000
13614 5      22.3010260403      17.0000000000
13615 5      20.1580747768      16.0000000000
13616 5      18.3112281462      17.0000000000
13617 5      22.5383595496      21.0000000000
13618 5      20.7070466057      18.0000000000
13619 5      22.6935999295      22.0000000000
13620 5      20.7561073577      15.0000000000
13621 5      22.7329741708      17.0000000000
13622 5      19.9195745472      24.0000000000
13623 5      18.5924875337      17.0000000000
13624 5      25.7266452847      24.0000000000
13625 5      21.2711878986      17.0000000000
13626 5      19.8584093662      21.0000000000
13627 5      20.7457710015      16.0000000000
13628 5      20.5494401394      21.0000000000
13629 5      24.0147256034      19.0000000000
13630 5      23.2010672073      16.0000000000
13631 5      19.4623745887      15.0000000000
13632 5      22.6071879221      17.0000000000
13633 5      25.9470636225      24.0000000000
13634 5      19.5243213472      16.0000000000
13635 5      24.9729545098      19.0000000000
13636 5      27.4612532375      20.0000000000
13637 5      19.4484142636      16.0000000000
13638 5      19.4606826334      18.0000000000
13639 5      23.0238785848      20.0000000000
13640 5      21.6149259746      19.0000000000
13641 5      16.0281374146      15.0000000000
13642 5      19.2287278383      12.0000000000
13643 5      18.6669711448      17.0000000000
13644 5      21.2792422205      18.0000000000
13645 5      21.2217710204      17.0000000000
13646 5      23.7588078531      23.0000000000
13647 5      19.1028502481      19.0000000000
13648 5      21.1483468403      18.0000000000
13649 5      25.6494504646      21.0000000000
13650 5      26.3729615881      21.0000000000
13651 5      18.7066745628      22.0000000000
13652 5      20.8658991129      17.0000000000
13653 5      23.2153041657      20.0000000000
13654 5      19.9980776575      22.0000000000
13655 5      20.4245830359      14.0000000000
13656 5      20.2560773435      17.0000000000
13657 5      17.8008027280      15.0000000000
13658 5      22.3462460824      19.0000000000
13659 5      20.7660132989      16.0000000000
13660 5      26.0202810412      18.0000000000
13661 5      21.9555183845      24.0000000000
13662 5      19.7909009329      17.0000000000
13663 5      22.1180536198      16.0000000000
13664 5      21.7064862792      23.0000000000
13665 5      19.2212492571      18.0000000000
13666 5      22.6343096695      20.0000000000
13667 5      21.6137775742      19.0000000000
13668 5      22.4545924853      21.0000000000
13669 5      19.2380980158      17.0000000000
13670 5      25.0263964278      21.0000000000
13671 5      25.1489056049      19.0000000000
13672 5      19.5874722140      14.0000000000
13673 5      23.0036172040      19.0000000000
13674 5      20.2520102770      18.0000000000
13675 5      19.5187864978      19.0000000000
13676 5      18.8892665885      21.0000000000
13677 5      17.7641971403      19.0000000000
13678 5      19.1435733790      14.0000000000
13679 5      23.5199410272      16.0000000000
13680 5      19.6722588742      13.0000000000
13681 5      20.9971804309      21.0000000000
13682 5      20.9614747090      20.0000000000
13683 5      22.1523069296      22.0000000000
13684 5      22.9063609407      21.0000000000
13685 5      24.1379221860      22.0000000000
13686 5      21.4041529786      18.0000000000
13687 5      22.8875940159      23.0000000000
13688 5      21.0236828767      18.0000000000
13689 5      22.1513777404      17.0000000000
13690 5      19.6565316664      18.0000000000
13691 5      24.3894355879      23.0000000000
13692 5      22.5197604830      20.0000000000
13693 5      23.4962198113      25.0000000000
13694 5      20.5072994153      13.0000000000
13695 5      24.1668752892      22.0000000000
13696 5      23.5921303315      15.0000000000
13697 5      19.2478868927      18.0000000000
13698 5      21.6130251569      18.0000000000
13699 5      18.2279543276      18.0000000000
13700 5      23.4717490728      18.0000000000
13701 5      23.9454574202      21.0000000000
13702 5      19.3182430353      13.0000000000
13703 5      20.0314041662      15.0000000000
13704 5      22.0478849599      20.0000000000
13705 5      21.8570628465      21.0000000000
13706 5      22.7220385967      19.0000000000
13707 5      21.8431082271      15.0000000000
13708 5      21.5777277500      19.0000000000
13709 5      17.3542122831      20.0000000000
13710 5      18.9320839779      19.0000000000
13711 5      23.9004476851      22.0000000000
13712 5      20.8000099019      21.0000000000
13713 5      21.0281218693      20.0000000000
13714 5      24.4815479938      21.0000000000
13715 5      23.8984027370      20.0000000000
13716 5      22.8801730850      21.0000000000
13717 5      21.7544696748      17.0000000000
13718 5      17.3564372617      14.0000000000
13719 5      19.1003747878      17.0000000000
13720 5      22.6994525656      23.0000000000
13721 5      23.4433498958      18.0000000000
13722 5      20.3911666822      19.0000000000
13723 5      26.9940962141      25.0000000000
13724 5      19.7827273001      14.0000000000
13725 5      27.0985696454      19.0000000000
13726 5      22.0476320551      21.0000000000
13727 5      27.3579846817      22.0000000000
13728 5      18.0840986612      20.0000000000
13729 5      21.9616573074      22.0000000000
13730 5      20.5746660646      21.0000000000
13731 5      20.6449727951      19.0000000000
13732 5      19.9554753124      16.0000000000
13733 5      22.5716056136      20.0000000000
13734 5      18.2284703881      23.0000000000
13735 5      20.4776511233      15.0000000000
13736 5      25.3045163418      20.0000000000
13737 5      22.1458206160      21.0000000000
13738 5      22.3407743222      23.0000000000
13739 5      22.3107624824      17.0000000000
13740 5      22.2219137743      20.0000000000
13741 5      22.4230117046      16.0000000000
13742 5      23.3622178687      17.0000000000
13743 5      19.6149647970      19.0000000000
13744 5      20.5725188014      15.0000000000
13745 5      20.4395182553      22.0000000000
13746 5      24.5021106938      22.0000000000
13747 5      26.2953782883      27.0000000000
13748 5      21.3625641251      20.0000000000
13749 5      21.7300162610      19.0000000000
13750 5      19.2241545428      21.0000000000
13751 5      21.1477594422      20.0000000000
13752 5      18.1912634933      13.0000000000
13753 5      22.8577632202      19.0000000000
13754 5      24.4921890593      21.0000000000
13755 5      17.6602004965      17.0000000000
13756 5      23.4788493515      20.0000000000
13757 5      23.0508374623      19.0000000000
13758 5      22.1302764009      19.0000000000
13759 5      21.2503331370      18.0000000000
13760 5      20.5774209512      19.0000000000
13761 5      22.2867977283      22.0000000000
13762 5      24.0704172883      22.0000000000
13763 5      18.1892813698      19.0000000000
13764 5      23.7026594580      21.0000000000
13765 5      21.5367170066      22.0000000000
13766 5      22.9363025623      22.0000000000
13767 5      22.4911651113      25.0000000000
13768 5      19.1162638466      12.0000000000
13769 5      18.4216048945      19.0000000000
13770 5      20.1145105338      21.0000000000
13771 5      21.9321078350      18.0000000000
13772 5      16.6391853321      13.0000000000
13773 5      22.3069613670      20.0000000000
13774 5      16.2193938753      12.0000000000
13775 5      23.3433264922      19.0000000000
13776 5      21.8020883057      19.0000000000
13777 5      21.5706775803      19.0000000000
13778 5      27.8087097833      26.0000000000
13779 5      23.4675395557      18.0000000000
13780 5      19.6038956415      20.0000000000
13781 5      22.1109334625      20.0000000000
13782 5      19.1328134636      18.0000000000
13783 5      21.9479201095      18.0000000000
13784 5      21.6876332425      17.0000000000
13785 5      22.2322138280      21.0000000000
13786 5      20.2721075346      21.0000000000
13787 5      24.4439633016      24.0000000000
13788 5      23.5673345616      23.0000000000
13789 5      22.8278287158      16.0000000000
13790 5      22.9901445677      22.0000000000
13791 5      19.2412641752      15.0000000000
13792 5      25.6423457313      20.0000000000
13793 5      21.4697988218      13.0000000000
13794 5      22.6690146523      22.0000000000
13795 5      23.1506234377      25.0000000000
13796 5      19.2838623705      15.0000000000
13797 5      20.9201538594      18.0000000000
13798 5      19.2231926116      17.0000000000
13799 5      22.4756231253      18.0000000000
13800 5      18.2037257104      15.0000000000
13801 5      22.1301486887      21.0000000000
13802 5      18.7649028753      19.0000000000
13803 5      20.1820226942      19.0000000000
13804 5      22.8964382334      22.0000000000
13805 5      18.7025284583      20.0000000000
13806 5      21.4677048229      19.0000000000
13807 5      25.8816066328      24.0000000000
13808 5      23.3717760057      20.0000000000
13809 5      19.1125383891      19.0000000000
13810 5      22.2478322230      20.0000000000
13811 5      21.1844920120      20.0000000000
13812 5      18.8870310957      18.0000000000
13813 5      20.3329184120      15.0000000000
13814 5      20.2720539623      22.0000000000
13815 5      19.5705860042      17.0000000000
13816 5      18.9041488588      16.0000000000
13817 5      19.6086646045      16.0000000000
13818 5      16.9750502395      17.0000000000
13819 5      19.1887587404      18.0000000000
13820 5      20.1876821106      19.0000000000
13821 5      20.7759316258      17.0000000000
13822 5      24.0748834924      21.0000000000
13823 5      22.2699007998      18.0000000000
13824 5      21.2300468564      17.0000000000
13825 5      17.5297978874      17.0000000000
13826 5      23.5741179731      18.0000000000
13827 5      20.4133058990      18.0000000000
13828 5      19.1385915294      18.0000000000
13829 5      23.4527223624      16.0000000000
13830 5      23.3586056630      21.0000000000
13831 5      20.5755579315      19.0000000000
13832 5      22.1156460408      16.0000000000
13833 5      20.1312472419      20.0000000000
13834 5      21.6317535107      22.0000000000
13835 5      19.2203823492      18.0000000000
13836 5      20.9889734192      16.0000000000
13837 5      18.6108139935      16.0000000000
13838 5      21.2678412458      17.0000000000
13839 5      15.8276783075      15.0000000000
13840 5      24.1632709537      22.0000000000
13841 5      21.8772447035      15.0000000000
13842 5      25.1025976285      17.0000000000
13843 5      22.2245352817      19.0000000000
13844 5      21.0569740486      18.0000000000
13845 5      22.7673161718      20.0000000000
13846 5      20.2140707303      19.0000000000
13847 5      22.4163762216      20.0000000000
13848 5      19.4760302842      17.0000000000
13849 5      22.9233491524      20.0000000000
13850 5      18.0239934401      15.0000000000
13851 5      19.0603381097      18.0000000000
13852 5      23.6865380744      18.0000000000
13853 5      20.0589573678      23.0000000000
13854 5      20.9529097617      19.0000000000
13855 5      23.1501230284      19.0000000000
13856 5      24.5808204512      22.0000000000
13857 5      22.4702942380      16.0000000000
13858 5      22.5019664986      18.0000000000
13859 5      19.0155906807      14.0000000000
13860 5      22.6889662797      19.0000000000
13861 5      23.2933124014      19.0000000000
13862 5      24.4160698621      20.0000000000
13863 5      17.8720186632      15.0000000000
13864 5      20.3761928253      17.0000000000
13865 5      24.4385425867      23.0000000000
13866 5      22.3695650682      16.0000000000
13867 5      19.8104571590      14.0000000000
13868 5      20.2607391255      22.0000000000
13869 5      21.4106966182      20.0000000000
13870 5      21.8675342819      19.0000000000
13871 5      21.8879559890      17.0000000000
13872 5      17.2812618615      16.0000000000
13873 5      18.8450096632      18.0000000000
13874 5      22.0658652309      18.0000000000
13875 5      19.6206551926      13.0000000000
13876 5      23.8781671591      19.0000000000
13877 5      18.8343907832      14.0000000000
13878 5      19.0417409297      17.0000000000
13879 5      21.1432841229      15.0000000000
13880 5      19.4327926735      18.0000000000
13881 5      23.3092318935      20.0000000000
13882 5      18.4497810480      16.0000000000
13883 5      19.6117420057      19.0000000000
13884 5      23.2205749255      20.0000000000
13885 5      19.2501512407      13.0000000000
13886 5      19.2435475091      19.0000000000
13887 5      20.0610870802      21.0000000000
13888 5      26.1057385724      16.0000000000
13889 5      23.6455335394      20.0000000000
13890 5      19.5556953022      20.0000000000
13891 5      22.0462945746      20.0000000000
13892 5      22.9524474505      22.0000000000
13893 5      19.9439520551      16.0000000000
13894 5      18.6388019405      18.0000000000
13895 5      22.4172400304      20.0000000000
13896 5      24.6344731523      18.0000000000
13897 5      21.1216436945      15.0000000000
13898 5      21.9210148841      18.0000000000
13899 5      19.7764640550      17.0000000000
13900 5      21.9524794148      19.0000000000
13901 5      23.0607730502      21.0000000000
13902 5      20.2129584055      15.0000000000
13903 5      23.5425989436      20.0000000000
13904 5      21.4000453836      22.0000000000
13905 5      20.7078484080      22.0000000000
13906 5      19.0645109570      20.0000000000
13907 5      27.1529194206      20.0000000000
13908 5      23.2655736127      17.0000000000
13909 5      22.6698389425      18.0000000000
13910 5      21.6058695190      18.0000000000
13911 5      21.6382121732      18.0000000000
13912 5      22.9468953613      21.0000000000
13913 5      20.7956316546      18.0000000000
13914 5      20.3799177121      17.0000000000
13915 5      22.6130498862      19.0000000000
13916 5      20.5038513029      19.0000000000
13917 5      23.1453750849      20.0000000000
13918 5      17.1622003885      15.0000000000
13919 5      18.3031346085      14.0000000000
13920 5      18.2679479195      17.0000000000
13921 5      22.9158781697      19.0000000000
13922 5      18.2555498617      19.0000000000
13923 5      19.9328494393      17.0000000000
13924 5      23.8030437515      22.0000000000
13925 5      19.2349199871      19.0000000000
13926 5      19.9776587076      16.0000000000
13927 5      21.2656986918      17.0000000000
13928 5      19.9014722355      15.0000000000
13929 5      19.0470897297      14.0000000000
13930 5      16.4749636714      12.0000000000
13931 5      22.2696640591      17.0000000000
13932 5      17.3680297698      16.0000000000
13933 5      17.4963823207      17.0000000000
13934 5      21.5400663197      15.0000000000
13935 5      21.6752792283      14.0000000000
13936 5      18.7157722892      24.0000000000
13937 5      24.0420040962      19.0000000000
13938 5      18.2526167120      18.0000000000
13939 5      21.8278892205      18.0000000000
13940 5      19.1649408736      17.0000000000
13941 5      19.9786311782      22.0000000000
13942 5      23.3494458958      19.0000000000
13943 5      24.0928064392      16.0000000000
13944 5      20.9075993910      16.0000000000
13945 5      23.9178412478      21.0000000000
13946 5      20.8355611718      17.0000000000
13947 5      24.1296162512      21.0000000000
13948 5      21.4811618938      18.0000000000
13949 5      18.5859693800      18.0000000000
13950 5      25.2450571905      17.0000000000
13951 5      18.9068226057      18.0000000000
13952 5      22.1879794969      18.0000000000
13953 5      26.3049660810      24.0000000000
13954 5      19.3906277811      14.0000000000
13955 5      20.0874335924      19.0000000000
13956 5      19.1583038284      20.0000000000
13957 5      21.0554623925      22.0000000000
13958 5      20.9191188663      21.0000000000
13959 5      20.0887059983      18.0000000000
13960 5      20.0356804292      17.0000000000
13961 5      23.4399597811      20.0000000000
13962 5      21.2327656313      14.0000000000
13963 5      22.0372432765      18.0000000000
13964 5      19.2140369342      20.0000000000
13965 5      22.3660230613      16.0000000000
13966 5      22.5634147616      21.0000000000
13967 5      22.5937363852      19.0000000000
13968 5      21.5818990723      17.0000000000
13969 5      24.5840921012      21.0000000000
13970 5      22.6389179875      16.0000000000
13971 5      22.8462246832      23.0000000000
13972 5      20.2035368208      18.0000000000
13973 5      21.3903678945      21.0000000000
13974 5      20.1540176536      18.0000000000
13975 5      17.9085084857      17.0000000000
13976 5      19.6936920033      22.0000000000
13977 5      24.8757033154      20.0000000000
13978 5      22.9438901232      19.0000000000
13979 5      19.5006660529      14.0000000000
13980 5      19.9949177741      19.0000000000
13981 5      19.8711597876      19.0000000000
13982 5      19.2666722429      20.0000000000
13983 5      19.0434637861      18.0000000000
13984 5      18.9706713893      21.0000000000
13985 5      23.0692132796      23.0000000000
13986 5      19.4548694132      16.0000000000
13987 5      20.4468859797      21.0000000000
13988 5      19.2022410076      12.0000000000
13989 5      24.9709994545      17.0000000000
13990 5      24.3332048756      16.0000000000
13991 5      22.5596064402      20.0000000000
13992 5      23.8197396598      18.0000000000
13993 5      23.1140760888      19.0000000000
13994 5      18.6117314878      15.0000000000
13995 5      20.0499628696      15.0000000000
13996 5      25.9328909549      21.0000000000
13997 5      23.5032265902      20.0000000000
13998 5      21.0678041672      22.0000000000
13999 5      19.0715873290      14.0000000000
14000 5      21.3659713449      19.0000000000
14001 5      21.0404541086      16.0000000000
14002 5      19.2013579247      15.0000000000
14003 5      19.3998845125      19.0000000000
14004 5      20.8029113025      18.0000000000
14005 5      25.5933304746      20.0000000000
14006 5      20.0544755417      19.0000000000
14007 5      18.5928932609      13.0000000000
14008 5      19.8735626827      18.0000000000
14009 5      21.2249654891      21.0000000000
14010 5      20.3732410832      17.0000000000
14011 5      20.2527627209      20.0000000000
14012 5      22.5943052268      21.0000000000
14013 5      19.6522411121      17.0000000000
14014 5      21.0733028013      18.0000000000
14015 5      22.4949429476      18.0000000000
14016 5      20.6052671587      17.0000000000
14017 5      23.6240276409      26.0000000000
14018 5      19.5308708784      19.0000000000
14019 5      23.8829791486      22.0000000000
14020 5      19.6504511709      20.0000000000
14021 5      20.8411476093      20.0000000000
14022 5      18.8805353853      18.0000000000
14023 5      28.1635683114      21.0000000000
14024 5      19.3420011270      15.0000000000
14025 5      22.8083724645      15.0000000000
14026 5      16.3836798908      13.0000000000
14027 5      24.4883306881      20.0000000000
14028 5      18.8703533271      19.0000000000
14029 5      24.4503105119      20.0000000000
14030 5      20.7825613347      17.0000000000
14031 5      20.5046314421      15.0000000000
14032 5      20.7726371588      16.0000000000
14033 5      18.1622145842      15.0000000000
14034 5      21.6569341423      18.0000000000
14035 5      21.4214582365      20.0000000000
14036 5      19.3858244636      14.0000000000
14037 5      17.1854653089      13.0000000000
14038 5      20.6791091371      19.0000000000
14039 5      23.0443831853      23.0000000000
14040 5      22.0621127105      17.0000000000
14041 5      16.7768669417      16.0000000000
14042 5      27.0500125658      20.0000000000
14043 5      20.7169647106      16.0000000000
14044 5      21.2194475648      15.0000000000
14045 5      17.9592026319      17.0000000000
14046 5      25.3023962396      21.0000000000
14047 5      18.5920159734      19.0000000000
14048 5      26.3193703659      23.0000000000
14049 5      25.6891574954      21.0000000000
14050 5      19.2742286198      18.0000000000
14051 5      22.5225750746      21.0000000000
14052 5      19.2640782266      15.0000000000
14053 5      19.0114470789      20.0000000000
14054 5      21.0843148003      21.0000000000
14055 5      20.7879494934      20.0000000000
14056 5      19.4765199302      18.0000000000
14057 5      18.3467231093      20.0000000000
14058 5      21.9142399291      19.0000000000
14059 5      19.4443264667      20.0000000000
14060 5      17.0946700858      15.0000000000
14061 5      20.4266614309      19.0000000000
14062 5      18.3646733920      16.0000000000
14063 5      22.0046654550      18.0000000000
14064 5      22.3559590309      18.0000000000
14065 5      18.1756046352      13.0000000000
14066 5      24.6165821777      20.0000000000
14067 5      21.4585524582      19.0000000000
14068 5      19.4532837382      20.0000000000
14069 5      23.4459786088      19.0000000000
14070 5      16.9570016284      15.0000000000
14071 5      25.4260160582      18.0000000000
14072 5      24.4017994797      22.0000000000
14073 5      25.0426367381      21.0000000000
14074 5      23.9246983422      20.0000000000
14075 5      18.6234699140      20.0000000000
14076 5      21.9978203495      22.0000000000
14077 5      18.6523449630      17.0000000000
14078 5      21.4612533430      20.0000000000
14079 5      22.0132719632      17.0000000000
14080 5      19.2334752394      18.0000000000
14081 5      15.6752387996      14.0000000000
14082 5      22.3494817395      17.0000000000
14083 5      18.9076561474      18.0000000000
14084 5      21.3994294952      20.0000000000
14085 5      20.5327046797      19.0000000000
14086 5      22.5980130271      19.0000000000
14087 5      19.6678949516      24.0000000000
14088 5      21.2416952848      19.0000000000
14089 5      19.3761453160      14.0000000000
14090 5      24.4010019661      24.0000000000
14091 5      22.3046747072      15.0000000000
14092 5      18.9745648894      19.0000000000
14093 5      20.2191509555      20.0000000000
14094 5      22.3679097972      16.0000000000
14095 5      19.1264421999      16.0000000000
14096 5      20.5021155805      19.0000000000
14097 5      20.8650489523      15.0000000000
14098 5      21.6443187598      22.0000000000
14099 5      23.2628433399      21.0000000000
14100 5      19.5861148625      17.0000000000
14101 5      22.6264428049      20.0000000000
14102 5      22.5942697370      23.0000000000
14103 5      19.0439849846      16.0000000000
14104 5      20.0881560404      18.0000000000
14105 5      26.1808236547      19.0000000000
14106 5      21.3823524306      21.0000000000
14107 5      20.1693487088      16.0000000000
14108 5      18.2749738729      15.0000000000
14109 5      21.9181191383      19.0000000000
14110 5      20.4055144244      18.0000000000
14111 5      19.3216497936      20.0000000000
14112 5      23.8233160712      22.0000000000
14113 5      19.5446116750      16.0000000000
14114 5      25.0966903160      20.0000000000
14115 5      19.4674012387      18.0000000000
14116 5      19.7515486890      17.0000000000
14117 5      18.0332387169      20.0000000000
14118 5      18.7793937461      21.0000000000
14119 5      22.6944762958      17.0000000000
14120 5      20.2917289567      21.0000000000
14121 5      22.5494117486      20.0000000000
14122 5      22.4939814936      17.0000000000
14123 5      22.9340997018      20.0000000000
14124 5      20.0007277324      17.0000000000
14125 5      22.8479115817      18.0000000000
14126 5      23.7914892608      17.0000000000
14127 5      18.4899572305      13.0000000000
14128 5      23.8901600342      21.0000000000
14129 5      19.5137458696      15.0000000000
14130 5      22.9835546192      19.0000000000
14131 5      20.6199605666      17.0000000000
14132 5      19.8506317961      13.0000000000
14133 5      24.3883088717      20.0000000000
14134 5      24.2680797108      18.0000000000
14135 5      17.7681091524      15.0000000000
14136 5      19.2159889016      18.0000000000
14137 5      18.2261152056      16.0000000000
14138 5      21.5018658415      18.0000000000
14139 5      20.1657150430      19.0000000000
14140 5      19.9144228091      19.0000000000
14141 5      25.8189803232      21.0000000000
14142 5      19.0059377181      21.0000000000
14143 5      19.8641546394      18.0000000000
14144 5      18.8380300961      15.0000000000
14145 5      22.6256270074      18.0000000000
14146 5      20.3824861629      13.0000000000
14147 5      21.5990363180      13.0000000000
14148 5      22.9657010794      20.0000000000
14149 5      21.0058760894      20.0000000000
14150 5      20.7562223197      22.0000000000
14151 5      22.9239289616      17.0000000000
14152 5      22.8483485171      22.0000000000
14153 5      22.3895988516      19.0000000000
14154 5      20.8051188753      22.0000000000
14155 5      19.6932826249      17.0000000000
14156 5      25.1613669095      24.0000000000
14157 5      21.3484905484      17.0000000000
14158 5      20.6747348195      19.0000000000
14159 5      22.8431352414      19.0000000000
14160 5      20.1652137358      18.0000000000
14161 5      23.1983512531      24.0000000000
14162 5      23.2658821148      21.0000000000
14163 5      19.4106553525      17.0000000000
14164 5      18.8464357212      18.0000000000
14165 5      19.6989606875      17.0000000000
14166 5      24.5545135842      17.0000000000
14167 5      22.3869310745      17.0000000000
14168 5      23.0040621167      18.0000000000
14169 5      21.4402870076      20.0000000000
14170 5      22.6364006556      23.0000000000
14171 5      17.1964402230      12.0000000000
14172 5      23.9389872897      20.0000000000
14173 5      18.6888374158      16.0000000000
14174 5      22.8877670376      22.0000000000
14175 5      19.3390083655      17.0000000000
14176 5      24.8872456308      21.0000000000
14177 5      25.8633565406      22.0000000000
14178 5      21.3601395369      16.0000000000
14179 5      24.0274557699      21.0000000000
14180 5      19.1689089111      16.0000000000
14181 5      18.3533716894      18.0000000000
14182 5      24.7960246755      19.0000000000
14183 5      20.9759732330      22.0000000000
14184 5      20.7977981962      20.0000000000
14185 5      17.5117299292      20.0000000000
14186 5      17.9692887349      17.0000000000
14187 5      24.2775215065      23.0000000000
14188 5      22.3581637361      21.0000000000
14189 5      22.1183285246      17.0000000000
14190 5      18.9439855056      14.0000000000
14191 5      19.7460936562      17.0000000000
14192 5      18.3718930651      16.0000000000
14193 5      22.0018936056      21.0000000000
14194 5      25.8214013807      21.0000000000
14195 5      18.4325080114      17.0000000000
14196 5      21.1619271463      17.0000000000
14197 5      18.2689218978      18.0000000000
14198 5      23.7774008543      24.0000000000
14199 5      22.4085019095      15.0000000000
14200 5      24.2280535172      20.0000000000
14201 5      21.5541760022      18.0000000000
14202 5      23.5980832912      16.0000000000
14203 5      20.9544035053      17.0000000000
14204 5      19.1467707178      16.0000000000
14205 5      22.0176180254      16.0000000000
14206 5      19.5626497548      16.0000000000
14207 5      22.3665891877      19.0000000000
14208 5      18.7031121610      23.0000000000
14209 5      19.9653955512      19.0000000000
14210 5      19.0851765644      17.0000000000
14211 5      20.3014647900      16.0000000000
14212 5      19.1119432675      16.0000000000
14213 5      20.7699087151      15.0000000000
14214 5      21.2164176759      15.0000000000
14215 5      20.2277023049      18.0000000000
14216 5      17.9226768092      17.0000000000
14217 5      24.2505833837      19.0000000000
14218 5      22.4247753899      17.0000000000
14219 5      19.9167154501      17.0000000000
14220 5      18.8290603584      14.0000000000
14221 5      21.6067945900      18.0000000000
14222 5      17.1391974370      17.0000000000
14223 5      22.1195571029      16.0000000000
14224 5      20.0433327405      18.0000000000
14225 5      21.2203798905      23.0000000000
14226 5      19.4926182279      17.0000000000
14227 5      22.6918509365      18.0000000000
14228 5      21.2451104891      22.0000000000
14229 5      21.1359740956      20.0000000000
14230 5      20.3955648561      14.0000000000
14231 5      23.4211500785      21.0000000000
14232 5      23.8816112547      17.0000000000
14233 5      18.3797990882      13.0000000000
14234 5      22.9494191871      24.0000000000
14235 5      20.3986879002      13.0000000000
14236 5      27.9442232497      23.0000000000
14237 5      18.3555680396      22.0000000000
14238 5      23.8705648634      22.0000000000
14239 5      22.2499410133      22.0000000000
14240 5      21.8609093125      20.0000000000
14241 5      21.1513388066      17.0000000000
14242 5      19.6298873879      21.0000000000
14243 5      23.2963102023      19.0000000000
14244 5      20.5674426024      21.0000000000
14245 5      16.4964416246      13.0000000000
14246 5      17.9034452091      17.0000000000
14247 5      21.1237971107      18.0000000000
14248 5      18.9315048948      15.0000000000
14249 5      21.2429709338      20.0000000000
14250 5      19.8855211918      19.0000000000
14251 5      18.5166144003      16.0000000000
14252 5      19.9122173068      17.0000000000
14253 5      27.1722725191      24.0000000000
14254 5      26.4511442628      18.0000000000
14255 5      21.4782895806      22.0000000000
14256 5      22.0972681834      20.0000000000
14257 5      21.7328014766      22.0000000000
14258 5      22.2222630018      20.0000000000
14259 5      19.8649210916      19.0000000000
14260 5      26.7831703340      19.0000000000
14261 5      18.3784650490      18.0000000000
14262 5      19.8572906335      17.0000000000
14263 5      18.3527083653      14.0000000000
14264 5      17.5765078785      18.0000000000
14265 5      22.4303069889      22.0000000000
14266 5      22.6608701210      15.0000000000
14267 5      22.9047973669      22.0000000000
14268 5      19.5834495599      16.0000000000
14269 5      20.9510223265      18.0000000000
14270 5      21.5060099249      19.0000000000
14271 5      17.4379927335      13.0000000000
14272 5      24.8396532279      18.0000000000
14273 5      19.0872938000      20.0000000000
14274 5      22.8530856058      16.0000000000
14275 5      20.3677467672      20.0000000000
14276 5      20.8361795444      20.0000000000
14277 5      24.4913519660      17.0000000000
14278 5      25.1260516667      22.0000000000
14279 5      18.6117036016      18.0000000000
14280 5      22.9756380022      22.0000000000
14281 5      20.3448751477      17.0000000000
14282 5      22.5797046431      14.0000000000
14283 5      26.9531271120      18.0000000000
14284 5      22.5563752711      18.0000000000
14285 5      22.0325667047      15.0000000000
14286 5      22.6431756467      22.0000000000
14287 5      22.3691228913      20.0000000000
14288 5      24.8261267490      20.0000000000
14289 5      18.3845173222      17.0000000000
14290 5      20.1144009697      17.0000000000
14291 5      22.1717387873      22.0000000000
14292 5      20.2345805476      18.0000000000
14293 5      22.6009522047      17.0000000000
14294 5      19.3283151357      16.0000000000
14295 5      21.8859060721      16.0000000000
14296 5      22.2754419452      18.0000000000
14297 5      19.0946882622      13.0000000000
14298 5      20.7959126777      20.0000000000
14299 5      20.8619408396      20.0000000000
14300 5      21.1845626436      16.0000000000
14301 5      19.5405492121      16.0000000000
14302 5      21.6808998937      14.0000000000
14303 5      21.0121132076      19.0000000000
14304 5      22.4580863805      19.0000000000
14305 5      20.2810216867      20.0000000000
14306 5      23.4795350753      19.0000000000
14307 5      20.0340223819      21.0000000000
14308 5      17.6273760630      18.0000000000
14309 5      31.1707306261      20.0000000000
14310 5      25.1983031522      18.0000000000
14311 5      20.4397341651      19.0000000000
14312 5      21.4770005844      18.0000000000
14313 5      23.5053361934      21.0000000000
14314 5      17.6325146071      17.0000000000
14315 5      20.8222468796      19.0000000000
14316 5      20.5012619751      19.0000000000
14317 5      22.1718487137      18.0000000000
14318 5      19.5653835745      15.0000000000
14319 5      24.8870728169      23.0000000000
14320 5      21.6438131924      21.0000000000
14321 5      19.9709808129      19.0000000000
14322 5      17.7562609638      17.0000000000
14323 5      18.5015834645      17.0000000000
14324 5      19.6289811931      22.0000000000
14325 5      18.8135845470      15.0000000000
14326 5      19.2031270293      17.0000000000
14327 5      21.4721949223      22.0000000000
14328 5      23.9691427397      18.0000000000
14329 5      22.6834179174      21.0000000000
14330 5      19.7579537182      19.0000000000
14331 5      19.5851164055      15.0000000000
14332 5      21.9975028443      23.0000000000
14333 5      16.5168430990      15.0000000000
14334 5      19.9686201175      16.0000000000
14335 5      22.0435442413      16.0000000000
14336 5      24.3706316635      19.0000000000
14337 5      21.6596423829      18.0000000000
14338 5      22.6192259265      23.0000000000
14339 5      24.8314026907      25.0000000000
14340 5      18.8112779229      14.0000000000
14341 5      24.5839020267      18.0000000000
14342 5      20.8165937770      18.0000000000
14343 5      18.6580663424      15.0000000000
14344 5      24.4954236509      19.0000000000
14345 5      18.4294197280      19.0000000000
14346 5      25.1308106431      19.0000000000
14347 5      21.6546219180      22.0000000000
14348 5      18.7166999087      16.0000000000
14349 5      22.9149692511      17.0000000000
14350 5      18.2931804142      17.0000000000
14351 5      19.5106957477      18.0000000000
14352 5      20.6016804543      16.0000000000
14353 5      18.6751293403      15.0000000000
14354 5      20.3961685749      16.0000000000
14355 5      26.2942902033      22.0000000000
14356 5      21.7292668942      21.0000000000
14357 5      17.8127198256      23.0000000000
14358 5      19.7155755744      19.0000000000
14359 5      26.3908785267      19.0000000000
14360 5      18.8212270686      15.0000000000
14361 5      19.9920251941      18.0000000000
14362 5      15.8391672451      10.0000000000
14363 5      19.9904777675      16.0000000000
14364 5      19.4651965009      21.0000000000
14365 5      19.7377376199      18.0000000000
14366 5      22.0318902051      20.0000000000
14367 5      23.0975631158      16.0000000000
14368 5      20.9170684053      18.0000000000
14369 5      20.0895304822      17.0000000000
14370 5      23.4569983295      19.0000000000
14371 5      20.6289623769      21.0000000000
14372 5      20.3637848967      17.0000000000
14373 5      19.7985183527      19.0000000000
14374 5      18.3718141660      14.0000000000
14375 5      19.6941182810      20.0000000000
14376 5      19.2800192556      14.0000000000
14377 5      21.4526152312      22.0000000000
14378 5      20.8149796510      21.0000000000
14379 5      18.9383335682      19.0000000000
14380 5      19.8277406869      17.0000000000
14381 5      19.9260841923      16.0000000000
14382 5      18.3064473901      18.0000000000
14383 5      22.0742597641      20.0000000000
14384 5      19.6304783942      13.0000000000
14385 5      17.6446479499      16.0000000000
14386 5      22.5010441584      17.0000000000
14387 5      17.1774033260      16.0000000000
14388 5      19.4306592757      18.0000000000
14389 5      21.1475590762      15.0000000000
14390 5      21.9382855296      20.0000000000
14391 5      18.7448615385      19.0000000000
14392 5      21.6171172128      21.0000000000
14393 5      21.0173847520      19.0000000000
14394 5      16.4784250591      16.0000000000
14395 5      21.4512518905      26.0000000000
14396 5      19.1549714842      18.0000000000
14397 5      19.0745419068      19.0000000000
14398 5      23.2891081913      21.0000000000
14399 5      22.1596546611      19.0000000000
14400 5      20.6554125016      21.0000000000
14401 5      23.9500485012      26.0000000000
14402 5      22.2124988021      20.0000000000
14403 5      23.2339312543      17.0000000000
14404 5      21.8023450796      23.0000000000
14405 5      20.1775604865      18.0000000000
14406 5      20.1750700036      19.0000000000
14407 5      20.2317806828      18.0000000000
14408 5      22.1252729498      20.0000000000
14409 5      23.5263353441      20.0000000000
14410 5      22.3803848744      24.0000000000
14411 5      19.8402111457      21.0000000000
14412 5      21.9877976793      16.0000000000
14413 5      20.1861788724      21.0000000000
14414 5      22.4566466395      19.0000000000
14415 5      22.5485832919      21.0000000000
14416 5      20.7501216408      19.0000000000
14417 5      18.0348709433      17.0000000000
14418 5      19.8189433603      18.0000000000
14419 5      20.4887232763      20.0000000000
14420 5      21.3084120547      19.0000000000
14421 5      21.3760066721      18.0000000000
14422 5      18.1608982566      13.0000000000
14423 5      19.5972082408      18.0000000000
14424 5      21.4011212647      20.0000000000
14425 5      20.8228942516      18.0000000000
14426 5      19.2056829477      22.0000000000
14427 5      20.2175111989      24.0000000000
14428 5      19.4714911411      16.0000000000
14429 5      23.0562302069      16.0000000000
14430 5      22.8173105688      20.0000000000
14431 5      20.2901878518      16.0000000000
14432 5      20.8976625135      14.0000000000
14433 5      23.3214340335      21.0000000000
14434 5      23.6193573030      20.0000000000
14435 5      18.6296088153      16.0000000000
14436 5      22.7403071428      20.0000000000
14437 5      24.1141426506      23.0000000000
14438 5      19.9953793811      17.0000000000
14439 5      20.9507908333      22.0000000000
14440 5      23.4122738929      19.0000000000
14441 5      18.7268955437      21.0000000000
14442 5      20.9888972610      19.0000000000
14443 5      21.0253859334      20.0000000000
14444 5      23.1601313768      22.0000000000
14445 5      20.3125481671      21.0000000000
14446 5      18.5102158563      14.0000000000
14447 5      17.8419208278      13.0000000000
14448 5      19.8083355052      17.0000000000
14449 5      17.0910276241      19.0000000000
14450 5      19.2737273687      17.0000000000
14451 5      20.8205544154      25.0000000000
14452 5      18.1636545296      18.0000000000
14453 5      17.7487812625      15.0000000000
14454 5      22.7639616801      17.0000000000
14455 5      20.0873081683      18.0000000000
14456 5      19.7561377332      19.0000000000
14457 5      21.2648543099      12.0000000000
14458 5      21.7758719214      21.0000000000
14459 5      23.1154954802      21.0000000000
14460 5      25.9178728579      27.0000000000
14461 5      21.3522149013      18.0000000000
14462 5      22.0533616711      16.0000000000
14463 5      24.0203948481      16.0000000000
14464 5      20.9141390708      15.0000000000
14465 5      24.8128967275      21.0000000000
14466 5      19.0986163828      17.0000000000
14467 5      25.2071924755      18.0000000000
14468 5      24.6271655823      24.0000000000
14469 5      17.2307587829      13.0000000000
14470 5      23.6712739397      20.0000000000
14471 5      24.8354571171      23.0000000000
14472 5      21.3946721349      18.0000000000
14473 5      22.3046262995      23.0000000000
14474 5      21.8725978921      21.0000000000
14475 5      23.8648883043      18.0000000000
14476 5      22.9021651383      16.0000000000
14477 5      25.4052743262      24.0000000000
14478 5      21.6091230103      19.0000000000
14479 5      20.9063025013      17.0000000000
14480 5      19.5982289524      17.0000000000
14481 5      20.6266306138      15.0000000000
14482 5      20.6668397817      21.0000000000
14483 5      25.2813438665      24.0000000000
14484 5      23.2230063694      17.0000000000
14485 5      21.3808716406      22.0000000000
14486 5      18.9677598087      16.0000000000
14487 5      21.4579087409      22.0000000000
14488 5      22.1471422887      22.0000000000
14489 5      20.4903654217      21.0000000000
14490 5      19.4549605728      17.0000000000
14491 5      21.7886717402      14.0000000000
14492 5      23.4861312126      18.0000000000
14493 5      17.4181353363      16.0000000000
14494 5      20.0812959582      16.0000000000
14495 5      29.5417131777      24.0000000000
14496 5      19.3187200103      17.0000000000
14497 5      19.7423561744      20.0000000000
14498 5      21.2899568816      20.0000000000
14499 5      18.1832731356      13.0000000000
14500 5      21.8844931027      16.0000000000
14501 5      21.8685793380      22.0000000000
14502 5      22.5946784555      24.0000000000
14503 5      25.1028400135      16.0000000000
14504 5      24.5269504126      19.0000000000
14505 5      21.1691048874      20.0000000000
14506 5      20.2056761473      16.0000000000
14507 5      19.1660817129      19.0000000000
14508 5      22.8812132303      18.0000000000
14509 5      18.5635088854      16.0000000000
14510 5      19.2054918179      20.0000000000
14511 5      21.8477777877      20.0000000000
14512 5      27.4144229142      25.0000000000
14513 5      19.8557151848      19.0000000000
14514 5      20.9341501027      15.0000000000
14515 5      20.9372452406      21.0000000000
14516 5      26.8227829498      21.0000000000
14517 5      22.4392813535      17.0000000000
14518 5      18.0212811018      18.0000000000
14519 5      20.4795441477      20.0000000000
14520 5      19.1470757970      20.0000000000
14521 5      20.4393436919      17.0000000000
14522 5      22.9730342007      23.0000000000
14523 5      21.9487960158      18.0000000000
14524 5      23.1766791390      19.0000000000
14525 5      28.7113016825      23.0000000000
14526 5      22.0038471173      20.0000000000
14527 5      19.7086030945      22.0000000000
14528 5      19.1993271930      16.0000000000
14529 5      21.9976818002      20.0000000000
14530 5      20.5175428352      15.0000000000
14531 5      20.8152645006      22.0000000000
14532 5      21.9471603362      21.0000000000
14533 5      23.4181114473      17.0000000000
14534 5      22.9978266575      20.0000000000
14535 5      21.3699666645      22.0000000000
14536 5      23.7337148480      17.0000000000
14537 5      17.7978624729      17.0000000000
14538 5      21.4180766357      17.0000000000
14539 5      24.8203547175      20.0000000000
14540 5      21.1425585667      16.0000000000
14541 5      19.8046354052      17.0000000000
14542 5      21.8619381492      19.0000000000
14543 5      20.3416957165      19.0000000000
14544 5      18.6263863041      12.0000000000
14545 5      19.6202631443      19.0000000000
14546 5      18.2879161919      14.0000000000
14547 5      19.4658554698      15.0000000000
14548 5      22.2853945161      19.0000000000
14549 5      22.2648271118      19.0000000000
14550 5      20.9702302908      18.0000000000
14551 5      21.7559499277      19.0000000000
14552 5      19.8454762678      19.0000000000
14553 5      20.4107956246      17.0000000000
14554 5      21.1205062964      20.0000000000
14555 5      18.5786354010      19.0000000000
14556 5      18.5424246725      11.0000000000
14557 5      20.4823983601      17.0000000000
14558 5      21.0962557801      16.0000000000
14559 5      21.2349285499      17.0000000000
14560 5      21.7196003181      21.0000000000
14561 5      22.3523642091      23.0000000000
14562 5      22.7391261305      18.0000000000
14563 5      18.8506509006      13.0000000000
14564 5      24.6920845437      19.0000000000
14565 5      23.3474098384      21.0000000000
14566 5      22.6209173221      20.0000000000
14567 5      23.0061653700      18.0000000000
14568 5      23.2674798815      16.0000000000
14569 5      22.2039656885      22.0000000000
14570 5      20.1133452170      22.0000000000
14571 5      23.0641080924      26.0000000000
14572 5      21.7350231101      16.0000000000
14573 5      22.9249795407      18.0000000000
14574 5      16.8215319359      15.0000000000
14575 5      18.4231219929      19.0000000000
14576 5      20.9332561549      18.0000000000
14577 5      19.4679654528      19.0000000000
14578 5      27.7994785575      25.0000000000
14579 5      19.3264743431      15.0000000000
14580 5      20.0263139884      21.0000000000
14581 5      24.2473652573      22.0000000000
14582 5      18.8404418187      18.0000000000
14583 5      25.8353441767      21.0000000000
14584 5      23.6645170640      22.0000000000
14585 5      20.4108699432      18.0000000000
14586 5      21.6772307144      22.0000000000
14587 5      21.0343309538      18.0000000000
14588 5      22.4065570943      17.0000000000
14589 5      23.5397813156      22.0000000000
14590 5      20.9168032245      17.0000000000
14591 5      20.6122043775      21.0000000000
14592 5      21.5473354235      20.0000000000
14593 5      24.6318858113      20.0000000000
14594 5      22.0287318999      19.0000000000
14595 5      24.0850176943      23.0000000000
14596 5      23.3528619978      15.0000000000
14597 5      25.8176093765      24.0000000000
14598 5      22.3501284630      20.0000000000
14599 5      20.3228366401      17.0000000000
14600 5      23.8573306530      23.0000000000
14601 5      20.4340883502      19.0000000000
14602 5      21.3111372531      22.0000000000
14603 5      24.7114294263      20.0000000000
14604 5      20.7102665094      15.0000000000
14605 5      21.6055413761      21.0000000000
14606 5      17.6977277316      13.0000000000
14607 5      24.2064859377      17.0000000000
14608 5      21.5528480278      18.0000000000
14609 5      20.0530697284      16.0000000000
14610 5      20.2895185514      19.0000000000
14611 5      23.8270961075      22.0000000000
14612 5      18.7915957151      14.0000000000
14613 5      18.1408795428      21.0000000000
14614 5      27.2329570880      22.0000000000
14615 5      20.6235799810      17.0000000000
14616 5      20.7366505072      18.0000000000
14617 5      17.8784068388      17.0000000000
14618 5      19.8749383700      20.0000000000
14619 5      18.1461526875      17.0000000000
14620 5      20.6270039327      19.0000000000
14621 5      21.7290914548      20.0000000000
14622 5      23.2573015253      19.0000000000
14623 5      19.1037004612      16.0000000000
14624 5      21.1928649767      18.0000000000
14625 5      26.6086802934      20.0000000000
14626 5      20.8579493993      19.0000000000
14627 5      22.5153494237      19.0000000000
14628 5      19.0592252699      17.0000000000
14629 5      24.9923219447      21.0000000000
14630 5      22.2273684972      22.0000000000
14631 5      21.3056110893      20.0000000000
14632 5      19.8402453556      17.0000000000
14633 5      22.6541661174      27.0000000000
14634 5      20.5978309273      20.0000000000
14635 5      22.5021191389      21.0000000000
14636 5      24.7267721852      17.0000000000
14637 5      25.9345640662      21.0000000000
14638 5      19.4647418052      18.0000000000
14639 5      20.7080285947      16.0000000000
14640 5      23.0105829479      20.0000000000
14641 5      20.0216283382      16.0000000000
14642 5      21.4235004985      15.0000000000
14643 5      22.2262768558      21.0000000000
14644 5      21.6636477742      17.0000000000
14645 5      23.5458055151      17.0000000000
14646 5      20.2806073849      15.0000000000
14647 5      22.0994435523      20.0000000000
14648 5      23.9585389874      17.0000000000
14649 5      23.0425211904      22.0000000000
14650 5      17.8313496239      16.0000000000
14651 5      20.7577709698      22.0000000000
14652 5      21.4261326615      18.0000000000
14653 5      21.5156432323      20.0000000000
14654 5      21.6316639318      17.0000000000
14655 5      19.2087041355      19.0000000000
14656 5      18.7656514501      15.0000000000
14657 5      24.4712426599      18.0000000000
14658 5      19.9119187313      18.0000000000
14659 5      20.1118191171      20.0000000000
14660 5      23.8749212241      17.0000000000
14661 5      22.3559686197      23.0000000000
14662 5      20.4674087606      19.0000000000
14663 5      22.6112295519      20.0000000000
14664 5      21.6917916824      18.0000000000
14665 5      21.8205247832      20.0000000000
14666 5      16.5615827573      14.0000000000
14667 5      24.3576663397      17.0000000000
14668 5      23.8534536229      20.0000000000
14669 5      19.4589788181      18.0000000000
14670 5      20.8181465165      19.0000000000
14671 5      23.9151364811      20.0000000000
14672 5      20.3379727623      17.0000000000
14673 5      25.7928608037      22.0000000000
14674 5      18.7628248795      18.0000000000
14675 5      21.3755802395      17.0000000000
14676 5      21.0333613807      19.0000000000
14677 5      21.2320254122      17.0000000000
14678 5      20.6283039980      20.0000000000
14679 5      23.0529275969      20.0000000000
14680 5      19.4934279778      15.0000000000
14681 5      19.0816365649      21.0000000000
14682 5      23.7620821583      19.0000000000
14683 5      21.3360334470      20.0000000000
14684 5      25.1140068733      26.0000000000
14685 5      19.7629985198      19.0000000000
14686 5      22.2727513715      18.0000000000
14687 5      19.0197033824      19.0000000000
14688 5      16.7970495290      14.0000000000
14689 5      22.0078600533      19.0000000000
14690 5      18.9816758103      21.0000000000
14691 5      20.2044008890      16.0000000000
14692 5      19.8821458836      15.0000000000
14693 5      20.3270707512      19.0000000000
14694 5      19.1140362397      15.0000000000
14695 5      18.8217895742      17.0000000000
14696 5      20.1179031192      19.0000000000
14697 5      20.3301515458      19.0000000000
14698 5      18.0667315909      19.0000000000
14699 5      21.7196482007      18.0000000000
14700 5      22.3966545659      17.0000000000
14701 5      19.6734134410      17.0000000000
14702 5      19.3530016387      18.0000000000
14703 5      19.6008322532      18.0000000000
14704 5      22.3639778259      18.0000000000
14705 5      18.4530211867      17.0000000000
14706 5      22.0796964101      16.0000000000
14707 5      24.7633004163      19.0000000000
14708 5      20.2058378497      14.0000000000
14709 5      20.3497868120      18.0000000000
14710 5      26.8032084237      24.0000000000
14711 5      20.3665343318      17.0000000000
14712 5      21.9078997443      20.0000000000
14713 5      24.8565008196      20.0000000000
14714 5      21.8096765685      21.0000000000
14715 5      19.1478053699      18.0000000000
14716 5      23.0794404764      16.0000000000
14717 5      26.1519776208      25.0000000000
14718 5      20.9948096399      15.0000000000
14719 5      24.2295866418      20.0000000000
14720 5      25.1187903710      19.0000000000
14721 5      23.1318504268      16.0000000000
14722 5      18.2124647790      12.0000000000
14723 5      21.2154280037      19.0000000000
14724 5      21.3959377523      20.0000000000
14725 5      18.9073276305      17.0000000000
14726 5      17.8086235569      14.0000000000
14727 5      18.3655387423      17.0000000000
14728 5      25.2415697759      26.0000000000
14729 5      30.9832034847      22.0000000000
14730 5      18.7242348945      17.0000000000
14731 5      22.6172732482      21.0000000000
14732 5      21.1506855502      19.0000000000
14733 5      18.0767720209      19.0000000000
14734 5      20.3850072453      19.0000000000
14735 5      22.5591814914      21.0000000000
14736 5      17.0653377371      15.0000000000
14737 5      21.3355468561      15.0000000000
14738 5      18.0616782609      18.0000000000
14739 5      17.8944584040      15.0000000000
14740 5      21.2332758778      17.0000000000
14741 5      19.0660297941      15.0000000000
14742 5      21.1053832463      20.0000000000
14743 5      21.4818467983      20.0000000000
14744 5      22.0839379028      15.0000000000
14745 5      25.8834090488      25.0000000000
14746 5      25.9457332627      21.0000000000
14747 5      23.4900995388      20.0000000000
14748 5      22.9612410668      19.0000000000
14749 5      25.7444637512      21.0000000000
14750 5      18.0060982995      14.0000000000
14751 5      23.7773588873      17.0000000000
14752 5      22.5615995201      21.0000000000
14753 5      18.9703784185      17.0000000000
14754 5      18.7954382848      17.0000000000
14755 5      21.5133169190      19.0000000000
14756 5      22.3689743270      24.0000000000
14757 5      18.7954075049      16.0000000000
14758 5      20.8873320044      16.0000000000
14759 5      19.9966793232      20.0000000000
14760 5      19.5398718469      17.0000000000
14761 5      22.0054213295      17.0000000000
14762 5      20.1601803916      18.0000000000
14763 5      24.6799685256      18.0000000000
14764 5      23.0384740903      21.0000000000
14765 5      19.8128842783      19.0000000000
14766 5      27.6746796451      23.0000000000
14767 5      19.8919831140      17.0000000000
14768 5      22.6337412877      19.0000000000
14769 5      19.3002407834      16.0000000000
14770 5      20.5398694410      19.0000000000
14771 5      21.5973883485      22.0000000000
14772 5      23.8937090369      20.0000000000
14773 5      19.4441768746      17.0000000000
14774 5      22.3454007950      22.0000000000
14775 5      20.2626363311      17.0000000000
14776 5      18.4233071004      20.0000000000
14777 5      18.2390880819      16.0000000000
14778 5      16.7168683994      20.0000000000
14779 5      17.5348609036      19.0000000000
14780 5      20.6125418271      17.0000000000
14781 5      20.9867183026      20.0000000000
14782 5      22.3119721668      17.0000000000
14783 5      22.6904033391      20.0000000000
14784 5      20.7709865043      17.0000000000
14785 5      21.4438347639      18.0000000000
14786 5      22.7183407028      20.0000000000
14787 5      22.0707887465      20.0000000000
14788 5      19.8897269728      18.0000000000
14789 5      17.6344901019      14.0000000000
14790 5      24.7805637427      22.0000000000
14791 5      20.9353291765      18.0000000000
14792 5      20.8799831742      20.0000000000
14793 5      18.9283073106      16.0000000000
14794 5      22.0837114575      18.0000000000
14795 5      17.8883062697      17.0000000000
14796 5      19.7244920675      18.0000000000
14797 5      23.9549062013      17.0000000000
14798 5      17.9967950838      13.0000000000
14799 5      23.2542445643      20.0000000000
14800 5      20.1120306076      17.0000000000
14801 5      22.6423166825      17.0000000000
14802 5      21.2986232237      21.0000000000
14803 5      19.5835754111      21.0000000000
14804 5      22.6847332252      23.0000000000
14805 5      21.6747271627      15.0000000000
14806 5      18.6816647828      16.0000000000
14807 5      19.6453810915      17.0000000000
14808 5      22.6706716807      20.0000000000
14809 5      21.9882137044      19.0000000000
14810 5      24.0598971107      21.0000000000
14811 5      19.8810966699      16.0000000000
14812 5      24.8451251968      18.0000000000
14813 5      18.7367911613      22.0000000000
14814 5      18.7172270562      15.0000000000
14815 5      20.5054402525      18.0000000000
14816 5      20.8933594684      19.0000000000
14817 5      19.4748011909      17.0000000000
14818 5      23.3798309985      21.0000000000
14819 5      25.8428828622      20.0000000000
14820 5      18.0502291829      19.0000000000
14821 5      23.6411990429      21.0000000000
14822 5      19.1258624166      14.0000000000
14823 5      22.7833359024      24.0000000000
14824 5      21.7786551521      19.0000000000
14825 5      18.4768617886      13.0000000000
14826 5      19.3501293070      16.0000000000
14827 5      22.6008737970      22.0000000000
14828 5      24.2950894774      23.0000000000
14829 5      23.3059784956      22.0000000000
14830 5      26.6794410955      21.0000000000
14831 5      21.8790774886      22.0000000000
14832 5      17.1583555348      20.0000000000
14833 5      20.6039687741      15.0000000000
14834 5      18.4007928153      19.0000000000
14835 5      17.8386174618      16.0000000000
14836 5      18.2358122778      12.0000000000
14837 5      21.1199190981      19.0000000000
14838 5      18.3940656064      15.0000000000
14839 5      21.6691788284      20.0000000000
14840 5      21.2659337782      16.0000000000
14841 5      19.0842328065      19.0000000000
14842 5      22.2065969378      19.0000000000
14843 5      21.1181438457      18.0000000000
14844 5      23.5209026344      20.0000000000
14845 5      17.3933383303      16.0000000000
14846 5      19.2289529153      19.0000000000
14847 5      26.5305675882      25.0000000000
14848 5      21.6989336484      17.0000000000
14849 5      20.4927999119      19.0000000000
14850 5      23.9587693681      16.0000000000
14851 5      20.4653419538      19.0000000000
14852 5      17.5894164546      16.0000000000
14853 5      27.4569601823      23.0000000000
14854 5      21.2981813051      22.0000000000
14855 5      23.3075799951      22.0000000000
14856 5      18.7161575659      21.0000000000
14857 5      17.1846199231      19.0000000000
14858 5      21.9449216591      19.0000000000
14859 5      22.0655929491      14.0000000000
14860 5      21.7248015545      16.0000000000
14861 5      25.5198051577      18.0000000000
14862 5      20.1827786116      17.0000000000
14863 5      18.4606498623      15.0000000000
14864 5      18.0399096902      22.0000000000
14865 5      20.7969680722      16.0000000000
14866 5      22.0220356288      19.0000000000
14867 5      21.4693995009      18.0000000000
14868 5      22.8805545951      16.0000000000
14869 5      20.6064631434      18.0000000000
14870 5      20.9503339625      19.0000000000
14871 5      19.8092729663      19.0000000000
14872 5      24.6760921187      22.0000000000
14873 5      21.7984087128      14.0000000000
14874 5      19.6778151353      16.0000000000
14875 5      22.1722948279      17.0000000000
14876 5      19.8227387778      16.0000000000
14877 5      22.5625863030      15.0000000000
14878 5      22.7962202979      20.0000000000
14879 5      24.0354498437      19.0000000000
14880 5      17.0680315589      18.0000000000
14881 5      21.1512440831      21.0000000000
14882 5      17.1739153926      18.0000000000
14883 5      20.2675272993      20.0000000000
14884 5      22.8499447565      22.0000000000
14885 5      21.9563453182      15.0000000000
14886 5      18.5428026059      15.0000000000
14887 5      19.6830666226      16.0000000000
14888 5      20.0542703748      14.0000000000
14889 5      24.6191764464      19.0000000000
14890 5      17.0653935155      13.0000000000
14891 5      21.2454750200      18.0000000000
14892 5      26.2848010808      21.0000000000
14893 5      21.3928590352      16.0000000000
14894 5      21.2301214807      24.0000000000
14895 5      21.5281986745      19.0000000000
14896 5      20.7240617121      23.0000000000
14897 5      20.7463608201      19.0000000000
14898 5      19.5652828450      17.0000000000
14899 5      19.0408098947      19.0000000000
14900 5      19.6192191395      16.0000000000
14901 5      17.4941610007      16.0000000000
14902 5      20.7189807082      19.0000000000
14903 5      15.7794880413      12.0000000000
14904 5      19.7005921485      20.0000000000
14905 5      24.3315124494      17.0000000000
14906 5      23.0187024374      21.0000000000
14907 5      21.1928435155      19.0000000000
14908 5      22.5727868771      22.0000000000
14909 5      20.8350799566      20.0000000000
14910 5      21.1378224090      17.0000000000
14911 5      24.6637794875      20.0000000000
14912 5      20.6232373428      19.0000000000
14913 5      22.6998048807      18.0000000000
14914 5      19.2315139573      21.0000000000
14915 5      22.2944694704      21.0000000000
14916 5      20.8854260477      17.0000000000
14917 5      23.7474915423      22.0000000000
14918 5      22.9584493919      19.0000000000
14919 5      20.4178845517      16.0000000000
14920 5      20.0581651141      18.0000000000
14921 5      20.7340217916      25.0000000000
14922 5      26.6000850378      20.0000000000
14923 5      20.0449728050      17.0000000000
14924 5      18.8495196349      20.0000000000
14925 5      17.5465412419      15.0000000000
14926 5      20.5417924593      22.0000000000
14927 5      18.4514145908      16.0000000000
14928 5      21.8896028455      19.0000000000
14929 5      23.3678033968      18.0000000000
14930 5      22.6899114406      18.0000000000
14931 5      22.1904051410      24.0000000000
14932 5      20.9377523425      20.0000000000
14933 5      29.3115987618      22.0000000000
14934 5      18.3616190616      15.0000000000
14935 5      19.4038077665      18.0000000000
14936 5      20.3001049651      16.0000000000
14937 5      17.9333018968      16.0000000000
14938 5      21.5735597556      16.0000000000
14939 5      22.4968726021      20.0000000000
14940 5      18.5588242348      16.0000000000
14941 5      15.8836591303      16.0000000000
14942 5      20.4339754393      17.0000000000
14943 5      20.4445209842      19.0000000000
14944 5      25.9845213377      19.0000000000
14945 5      20.2042393136      17.0000000000
14946 5      27.7718816546      24.0000000000
14947 5      20.8117704950      19.0000000000
14948 5      20.9683941145      18.0000000000
14949 5      20.1513677981      19.0000000000
14950 5      21.0847473478      23.0000000000
14951 5      20.5553698658      24.0000000000
14952 5      19.6946679287      18.0000000000
14953 5      21.0840182016      22.0000000000
14954 5      21.0624126282      19.0000000000
14955 5      21.4982358351      23.0000000000
14956 5      18.4532587658      15.0000000000
14957 5      25.4677269364      23.0000000000
14958 5      18.8124839004      14.0000000000
14959 5      21.5185947838      20.0000000000
14960 5      24.5867148796      20.0000000000
14961 5      18.7868857421      20.0000000000
14962 5      19.6450041404      19.0000000000
14963 5      18.3970809465      15.0000000000
14964 5      23.6546486748      22.0000000000
14965 5      17.3357405893      14.0000000000
14966 5      18.4360614947      16.0000000000
14967 5      21.5657244515      20.0000000000
14968 5      23.0043206368      14.0000000000
14969 5      21.5326465300      21.0000000000
14970 5      20.9715591251      17.0000000000
14971 5      18.7587422575      18.0000000000
14972 5      17.3707051949      16.0000000000
14973 5      19.1571068547      22.0000000000
14974 5      20.2710700940      17.0000000000
14975 5      19.8125235335      18.0000000000
14976 5      18.6509386265      16.0000000000
14977 5      20.2411818163      16.0000000000
14978 5      22.5101030915      20.0000000000
14979 5      22.6279298060      20.0000000000
14980 5      23.1852283969      18.0000000000
14981 5      21.6960328319      14.0000000000
14982 5      21.7693603133      15.0000000000
14983 5      17.7762120793      16.0000000000
14984 5      17.4023898756      13.0000000000
14985 5      23.4881765242      19.0000000000
14986 5      19.5193049006      15.0000000000
14987 5      24.6657274524      23.0000000000
14988 5      18.6537831831      15.0000000000
14989 5      20.7502642203      21.0000000000
14990 5      18.4420157774      17.0000000000
14991 5      20.6365103271      15.0000000000
14992 5      19.7543575134      19.0000000000
14993 5      19.7361754909      22.0000000000
14994 5      20.4043069647      15.0000000000
14995 5      19.2790200417      17.0000000000
14996 5      17.9813827026      17.0000000000
14997 5      19.4382627548      17.0000000000
14998 5      21.6972444440      18.0000000000
14999 5      18.8622703865      17.0000000000
15000 5      21.7274016340      17.0000000000
